p cnf 386 10702
1 2 3 4 5 6 0
-1 -2 0
-1 -3 0
-1 -4 0
-1 -5 0
-1 -6 0
-2 -3 0
-2 -4 0
-2 -5 0
-2 -6 0
-3 -4 0
-3 -5 0
-3 -6 0
-4 -5 0
-4 -6 0
-5 -6 0
7 8 9 10 0
-7 -8 0
-7 -9 0
-7 -10 0
-8 -9 0
-8 -10 0
-9 -10 0
11 12 13 14 15 16 0
-11 -12 0
-11 -13 0
-11 -14 0
-11 -15 0
-11 -16 0
-12 -13 0
-12 -14 0
-12 -15 0
-12 -16 0
-13 -14 0
-13 -15 0
-13 -16 0
-14 -15 0
-14 -16 0
-15 -16 0
17 18 19 20 0
-17 -18 0
-17 -19 0
-17 -20 0
-18 -19 0
-18 -20 0
-19 -20 0
21 22 23 24 25 0
-21 -22 0
-21 -23 0
-21 -24 0
-21 -25 0
-22 -23 0
-22 -24 0
-22 -25 0
-23 -24 0
-23 -25 0
-24 -25 0
26 27 28 29 0
-26 -27 0
-26 -28 0
-26 -29 0
-27 -28 0
-27 -29 0
-28 -29 0
30 31 32 33 0
-30 -31 0
-30 -32 0
-30 -33 0
-31 -32 0
-31 -33 0
-32 -33 0
34 35 36 37 0
-34 -35 0
-34 -36 0
-34 -37 0
-35 -36 0
-35 -37 0
-36 -37 0
-38 1 0
-38 7 0
-1 -7 38 0
-39 1 0
-39 8 0
-1 -8 39 0
-40 1 0
-40 9 0
-1 -9 40 0
-41 1 0
-41 10 0
-1 -10 41 0
-42 2 0
-42 7 0
-2 -7 42 0
-43 2 0
-43 8 0
-2 -8 43 0
-44 2 0
-44 9 0
-2 -9 44 0
-45 2 0
-45 10 0
-2 -10 45 0
-46 3 0
-46 7 0
-3 -7 46 0
-47 3 0
-47 8 0
-3 -8 47 0
-48 3 0
-48 9 0
-3 -9 48 0
-49 3 0
-49 10 0
-3 -10 49 0
-50 4 0
-50 7 0
-4 -7 50 0
-51 4 0
-51 8 0
-4 -8 51 0
-52 4 0
-52 9 0
-4 -9 52 0
-53 4 0
-53 10 0
-4 -10 53 0
-54 5 0
-54 7 0
-5 -7 54 0
-55 5 0
-55 8 0
-5 -8 55 0
-56 5 0
-56 9 0
-5 -9 56 0
-57 5 0
-57 10 0
-5 -10 57 0
-58 6 0
-58 7 0
-6 -7 58 0
-59 6 0
-59 8 0
-6 -8 59 0
-60 6 0
-60 9 0
-6 -9 60 0
-61 6 0
-61 10 0
-6 -10 61 0
-62 11 0
-62 17 0
-11 -17 62 0
-63 11 0
-63 18 0
-11 -18 63 0
-64 11 0
-64 19 0
-11 -19 64 0
-65 11 0
-65 20 0
-11 -20 65 0
-66 12 0
-66 17 0
-12 -17 66 0
-67 12 0
-67 18 0
-12 -18 67 0
-68 12 0
-68 19 0
-12 -19 68 0
-69 12 0
-69 20 0
-12 -20 69 0
-70 13 0
-70 17 0
-13 -17 70 0
-71 13 0
-71 18 0
-13 -18 71 0
-72 13 0
-72 19 0
-13 -19 72 0
-73 13 0
-73 20 0
-13 -20 73 0
-74 14 0
-74 17 0
-14 -17 74 0
-75 14 0
-75 18 0
-14 -18 75 0
-76 14 0
-76 19 0
-14 -19 76 0
-77 14 0
-77 20 0
-14 -20 77 0
-78 15 0
-78 17 0
-15 -17 78 0
-79 15 0
-79 18 0
-15 -18 79 0
-80 15 0
-80 19 0
-15 -19 80 0
-81 15 0
-81 20 0
-15 -20 81 0
-82 16 0
-82 17 0
-16 -17 82 0
-83 16 0
-83 18 0
-16 -18 83 0
-84 16 0
-84 19 0
-16 -19 84 0
-85 16 0
-85 20 0
-16 -20 85 0
-86 21 0
-86 26 0
-21 -26 86 0
-87 21 0
-87 27 0
-21 -27 87 0
-88 21 0
-88 28 0
-21 -28 88 0
-89 21 0
-89 29 0
-21 -29 89 0
-90 22 0
-90 26 0
-22 -26 90 0
-91 22 0
-91 27 0
-22 -27 91 0
-92 22 0
-92 28 0
-22 -28 92 0
-93 22 0
-93 29 0
-22 -29 93 0
-94 23 0
-94 26 0
-23 -26 94 0
-95 23 0
-95 27 0
-23 -27 95 0
-96 23 0
-96 28 0
-23 -28 96 0
-97 23 0
-97 29 0
-23 -29 97 0
-98 24 0
-98 26 0
-24 -26 98 0
-99 24 0
-99 27 0
-24 -27 99 0
-100 24 0
-100 28 0
-24 -28 100 0
-101 24 0
-101 29 0
-24 -29 101 0
-102 25 0
-102 26 0
-25 -26 102 0
-103 25 0
-103 27 0
-25 -27 103 0
-104 25 0
-104 28 0
-25 -28 104 0
-105 25 0
-105 29 0
-25 -29 105 0
-106 30 0
-106 34 0
-30 -34 106 0
-107 30 0
-107 35 0
-30 -35 107 0
-108 30 0
-108 36 0
-30 -36 108 0
-109 30 0
-109 37 0
-30 -37 109 0
-110 31 0
-110 34 0
-31 -34 110 0
-111 31 0
-111 35 0
-31 -35 111 0
-112 31 0
-112 36 0
-31 -36 112 0
-113 31 0
-113 37 0
-31 -37 113 0
-114 32 0
-114 34 0
-32 -34 114 0
-115 32 0
-115 35 0
-32 -35 115 0
-116 32 0
-116 36 0
-32 -36 116 0
-117 32 0
-117 37 0
-32 -37 117 0
-118 33 0
-118 34 0
-33 -34 118 0
-119 33 0
-119 35 0
-33 -35 119 0
-120 33 0
-120 36 0
-33 -36 120 0
-121 33 0
-121 37 0
-33 -37 121 0
-122 38 62 86 106 0
-38 122 0
-62 122 0
-86 122 0
-106 122 0
-123 39 63 87 107 0
-39 123 0
-63 123 0
-87 123 0
-107 123 0
-124 40 64 88 108 0
-40 124 0
-64 124 0
-88 124 0
-108 124 0
-125 41 65 89 109 0
-41 125 0
-65 125 0
-89 125 0
-109 125 0
-126 42 66 86 90 106 110 0
-42 126 0
-66 126 0
-86 126 0
-90 126 0
-106 126 0
-110 126 0
-127 43 67 87 91 107 111 0
-43 127 0
-67 127 0
-87 127 0
-91 127 0
-107 127 0
-111 127 0
-128 44 68 88 92 108 112 0
-44 128 0
-68 128 0
-88 128 0
-92 128 0
-108 128 0
-112 128 0
-129 45 69 89 93 109 113 0
-45 129 0
-69 129 0
-89 129 0
-93 129 0
-109 129 0
-113 129 0
-130 46 70 90 94 106 110 114 0
-46 130 0
-70 130 0
-90 130 0
-94 130 0
-106 130 0
-110 130 0
-114 130 0
-131 47 71 91 95 107 111 115 0
-47 131 0
-71 131 0
-91 131 0
-95 131 0
-107 131 0
-111 131 0
-115 131 0
-132 48 72 92 96 108 112 116 0
-48 132 0
-72 132 0
-92 132 0
-96 132 0
-108 132 0
-112 132 0
-116 132 0
-133 49 73 93 97 109 113 117 0
-49 133 0
-73 133 0
-93 133 0
-97 133 0
-109 133 0
-113 133 0
-117 133 0
-134 50 74 94 98 110 114 118 0
-50 134 0
-74 134 0
-94 134 0
-98 134 0
-110 134 0
-114 134 0
-118 134 0
-135 51 75 95 99 111 115 119 0
-51 135 0
-75 135 0
-95 135 0
-99 135 0
-111 135 0
-115 135 0
-119 135 0
-136 52 76 96 100 112 116 120 0
-52 136 0
-76 136 0
-96 136 0
-100 136 0
-112 136 0
-116 136 0
-120 136 0
-137 53 77 97 101 113 117 121 0
-53 137 0
-77 137 0
-97 137 0
-101 137 0
-113 137 0
-117 137 0
-121 137 0
-138 54 78 98 102 114 118 0
-54 138 0
-78 138 0
-98 138 0
-102 138 0
-114 138 0
-118 138 0
-139 55 79 99 103 115 119 0
-55 139 0
-79 139 0
-99 139 0
-103 139 0
-115 139 0
-119 139 0
-140 56 80 100 104 116 120 0
-56 140 0
-80 140 0
-100 140 0
-104 140 0
-116 140 0
-120 140 0
-141 57 81 101 105 117 121 0
-57 141 0
-81 141 0
-101 141 0
-105 141 0
-117 141 0
-121 141 0
-142 58 82 102 118 0
-58 142 0
-82 142 0
-102 142 0
-118 142 0
-143 59 83 103 119 0
-59 143 0
-83 143 0
-103 143 0
-119 143 0
-144 60 84 104 120 0
-60 144 0
-84 144 0
-104 144 0
-120 144 0
-145 61 85 105 121 0
-61 145 0
-85 145 0
-105 145 0
-121 145 0
-38 -62 0
-38 -86 0
-38 -106 0
-39 -63 0
-39 -87 0
-39 -107 0
-40 -64 0
-40 -88 0
-40 -108 0
-41 -65 0
-41 -89 0
-41 -109 0
-42 -66 0
-42 -86 0
-42 -90 0
-42 -106 0
-42 -110 0
-43 -67 0
-43 -87 0
-43 -91 0
-43 -107 0
-43 -111 0
-44 -68 0
-44 -88 0
-44 -92 0
-44 -108 0
-44 -112 0
-45 -69 0
-45 -89 0
-45 -93 0
-45 -109 0
-45 -113 0
-46 -70 0
-46 -90 0
-46 -94 0
-46 -106 0
-46 -110 0
-46 -114 0
-47 -71 0
-47 -91 0
-47 -95 0
-47 -107 0
-47 -111 0
-47 -115 0
-48 -72 0
-48 -92 0
-48 -96 0
-48 -108 0
-48 -112 0
-48 -116 0
-49 -73 0
-49 -93 0
-49 -97 0
-49 -109 0
-49 -113 0
-49 -117 0
-50 -74 0
-50 -94 0
-50 -98 0
-50 -110 0
-50 -114 0
-50 -118 0
-51 -75 0
-51 -95 0
-51 -99 0
-51 -111 0
-51 -115 0
-51 -119 0
-52 -76 0
-52 -96 0
-52 -100 0
-52 -112 0
-52 -116 0
-52 -120 0
-53 -77 0
-53 -97 0
-53 -101 0
-53 -113 0
-53 -117 0
-53 -121 0
-54 -78 0
-54 -98 0
-54 -102 0
-54 -114 0
-54 -118 0
-55 -79 0
-55 -99 0
-55 -103 0
-55 -115 0
-55 -119 0
-56 -80 0
-56 -100 0
-56 -104 0
-56 -116 0
-56 -120 0
-57 -81 0
-57 -101 0
-57 -105 0
-57 -117 0
-57 -121 0
-58 -82 0
-58 -102 0
-58 -118 0
-59 -83 0
-59 -103 0
-59 -119 0
-60 -84 0
-60 -104 0
-60 -120 0
-61 -85 0
-61 -105 0
-61 -121 0
-62 -86 0
-62 -106 0
-63 -87 0
-63 -107 0
-64 -88 0
-64 -108 0
-65 -89 0
-65 -109 0
-66 -86 0
-66 -90 0
-66 -106 0
-66 -110 0
-67 -87 0
-67 -91 0
-67 -107 0
-67 -111 0
-68 -88 0
-68 -92 0
-68 -108 0
-68 -112 0
-69 -89 0
-69 -93 0
-69 -109 0
-69 -113 0
-70 -90 0
-70 -94 0
-70 -106 0
-70 -110 0
-70 -114 0
-71 -91 0
-71 -95 0
-71 -107 0
-71 -111 0
-71 -115 0
-72 -92 0
-72 -96 0
-72 -108 0
-72 -112 0
-72 -116 0
-73 -93 0
-73 -97 0
-73 -109 0
-73 -113 0
-73 -117 0
-74 -94 0
-74 -98 0
-74 -110 0
-74 -114 0
-74 -118 0
-75 -95 0
-75 -99 0
-75 -111 0
-75 -115 0
-75 -119 0
-76 -96 0
-76 -100 0
-76 -112 0
-76 -116 0
-76 -120 0
-77 -97 0
-77 -101 0
-77 -113 0
-77 -117 0
-77 -121 0
-78 -98 0
-78 -102 0
-78 -114 0
-78 -118 0
-79 -99 0
-79 -103 0
-79 -115 0
-79 -119 0
-80 -100 0
-80 -104 0
-80 -116 0
-80 -120 0
-81 -101 0
-81 -105 0
-81 -117 0
-81 -121 0
-82 -102 0
-82 -118 0
-83 -103 0
-83 -119 0
-84 -104 0
-84 -120 0
-85 -105 0
-85 -121 0
-86 -106 0
-86 -110 0
-87 -107 0
-87 -111 0
-88 -108 0
-88 -112 0
-89 -109 0
-89 -113 0
-90 -106 0
-90 -110 0
-90 -114 0
-91 -107 0
-91 -111 0
-91 -115 0
-92 -108 0
-92 -112 0
-92 -116 0
-93 -109 0
-93 -113 0
-93 -117 0
-94 -106 0
-94 -110 0
-94 -114 0
-94 -118 0
-95 -107 0
-95 -111 0
-95 -115 0
-95 -119 0
-96 -108 0
-96 -112 0
-96 -116 0
-96 -120 0
-97 -109 0
-97 -113 0
-97 -117 0
-97 -121 0
-98 -110 0
-98 -114 0
-98 -118 0
-99 -111 0
-99 -115 0
-99 -119 0
-100 -112 0
-100 -116 0
-100 -120 0
-101 -113 0
-101 -117 0
-101 -121 0
-102 -114 0
-102 -118 0
-103 -115 0
-103 -119 0
-104 -116 0
-104 -120 0
-105 -117 0
-105 -121 0
-38 146 63 64 65 87 88 89 107 108 109 0
-38 -146 -63 0
-38 -146 -64 0
-38 -146 -65 0
-38 -146 -87 0
-38 -146 -88 0
-38 -146 -89 0
-38 -146 -107 0
-38 -146 -108 0
-38 -146 -109 0
-39 122 0
-39 146 64 65 88 89 108 109 0
-39 -146 -64 0
-39 -146 -65 0
-39 -146 -88 0
-39 -146 -89 0
-39 -146 -108 0
-39 -146 -109 0
-40 123 0
-40 146 65 89 109 0
-40 -146 -65 0
-40 -146 -89 0
-40 -146 -109 0
-41 124 0
-41 146 0
-42 146 67 68 69 87 88 89 91 92 93 107 108 109 111 112 113 0
-42 -146 -67 0
-42 -146 -68 0
-42 -146 -69 0
-42 -146 -87 0
-42 -146 -88 0
-42 -146 -89 0
-42 -146 -91 0
-42 -146 -92 0
-42 -146 -93 0
-42 -146 -107 0
-42 -146 -108 0
-42 -146 -109 0
-42 -146 -111 0
-42 -146 -112 0
-42 -146 -113 0
-43 126 0
-43 146 68 69 88 89 92 93 108 109 112 113 0
-43 -146 -68 0
-43 -146 -69 0
-43 -146 -88 0
-43 -146 -89 0
-43 -146 -92 0
-43 -146 -93 0
-43 -146 -108 0
-43 -146 -109 0
-43 -146 -112 0
-43 -146 -113 0
-44 127 0
-44 146 69 89 93 109 113 0
-44 -146 -69 0
-44 -146 -89 0
-44 -146 -93 0
-44 -146 -109 0
-44 -146 -113 0
-45 128 0
-45 146 0
-46 146 71 72 73 91 92 93 95 96 97 107 108 109 111 112 113 115 116 117 0
-46 -146 -71 0
-46 -146 -72 0
-46 -146 -73 0
-46 -146 -91 0
-46 -146 -92 0
-46 -146 -93 0
-46 -146 -95 0
-46 -146 -96 0
-46 -146 -97 0
-46 -146 -107 0
-46 -146 -108 0
-46 -146 -109 0
-46 -146 -111 0
-46 -146 -112 0
-46 -146 -113 0
-46 -146 -115 0
-46 -146 -116 0
-46 -146 -117 0
-47 130 0
-47 146 72 73 92 93 96 97 108 109 112 113 116 117 0
-47 -146 -72 0
-47 -146 -73 0
-47 -146 -92 0
-47 -146 -93 0
-47 -146 -96 0
-47 -146 -97 0
-47 -146 -108 0
-47 -146 -109 0
-47 -146 -112 0
-47 -146 -113 0
-47 -146 -116 0
-47 -146 -117 0
-48 131 0
-48 146 73 93 97 109 113 117 0
-48 -146 -73 0
-48 -146 -93 0
-48 -146 -97 0
-48 -146 -109 0
-48 -146 -113 0
-48 -146 -117 0
-49 132 0
-49 146 0
-50 146 75 76 77 95 96 97 99 100 101 111 112 113 115 116 117 119 120 121 0
-50 -146 -75 0
-50 -146 -76 0
-50 -146 -77 0
-50 -146 -95 0
-50 -146 -96 0
-50 -146 -97 0
-50 -146 -99 0
-50 -146 -100 0
-50 -146 -101 0
-50 -146 -111 0
-50 -146 -112 0
-50 -146 -113 0
-50 -146 -115 0
-50 -146 -116 0
-50 -146 -117 0
-50 -146 -119 0
-50 -146 -120 0
-50 -146 -121 0
-51 134 0
-51 146 76 77 96 97 100 101 112 113 116 117 120 121 0
-51 -146 -76 0
-51 -146 -77 0
-51 -146 -96 0
-51 -146 -97 0
-51 -146 -100 0
-51 -146 -101 0
-51 -146 -112 0
-51 -146 -113 0
-51 -146 -116 0
-51 -146 -117 0
-51 -146 -120 0
-51 -146 -121 0
-52 135 0
-52 146 77 97 101 113 117 121 0
-52 -146 -77 0
-52 -146 -97 0
-52 -146 -101 0
-52 -146 -113 0
-52 -146 -117 0
-52 -146 -121 0
-53 136 0
-53 146 0
-54 146 79 80 81 99 100 101 103 104 105 115 116 117 119 120 121 0
-54 -146 -79 0
-54 -146 -80 0
-54 -146 -81 0
-54 -146 -99 0
-54 -146 -100 0
-54 -146 -101 0
-54 -146 -103 0
-54 -146 -104 0
-54 -146 -105 0
-54 -146 -115 0
-54 -146 -116 0
-54 -146 -117 0
-54 -146 -119 0
-54 -146 -120 0
-54 -146 -121 0
-55 138 0
-55 146 80 81 100 101 104 105 116 117 120 121 0
-55 -146 -80 0
-55 -146 -81 0
-55 -146 -100 0
-55 -146 -101 0
-55 -146 -104 0
-55 -146 -105 0
-55 -146 -116 0
-55 -146 -117 0
-55 -146 -120 0
-55 -146 -121 0
-56 139 0
-56 146 81 101 105 117 121 0
-56 -146 -81 0
-56 -146 -101 0
-56 -146 -105 0
-56 -146 -117 0
-56 -146 -121 0
-57 140 0
-57 146 0
-58 146 83 84 85 103 104 105 119 120 121 0
-58 -146 -83 0
-58 -146 -84 0
-58 -146 -85 0
-58 -146 -103 0
-58 -146 -104 0
-58 -146 -105 0
-58 -146 -119 0
-58 -146 -120 0
-58 -146 -121 0
-59 142 0
-59 146 84 85 104 105 120 121 0
-59 -146 -84 0
-59 -146 -85 0
-59 -146 -104 0
-59 -146 -105 0
-59 -146 -120 0
-59 -146 -121 0
-60 143 0
-60 146 85 105 121 0
-60 -146 -85 0
-60 -146 -105 0
-60 -146 -121 0
-61 144 0
-61 146 0
-62 147 39 40 41 87 88 89 107 108 109 0
-62 -147 -39 0
-62 -147 -40 0
-62 -147 -41 0
-62 -147 -87 0
-62 -147 -88 0
-62 -147 -89 0
-62 -147 -107 0
-62 -147 -108 0
-62 -147 -109 0
-63 122 0
-63 147 40 41 88 89 108 109 0
-63 -147 -40 0
-63 -147 -41 0
-63 -147 -88 0
-63 -147 -89 0
-63 -147 -108 0
-63 -147 -109 0
-64 123 0
-64 147 41 89 109 0
-64 -147 -41 0
-64 -147 -89 0
-64 -147 -109 0
-65 124 0
-65 147 0
-66 147 43 44 45 87 88 89 91 92 93 107 108 109 111 112 113 0
-66 -147 -43 0
-66 -147 -44 0
-66 -147 -45 0
-66 -147 -87 0
-66 -147 -88 0
-66 -147 -89 0
-66 -147 -91 0
-66 -147 -92 0
-66 -147 -93 0
-66 -147 -107 0
-66 -147 -108 0
-66 -147 -109 0
-66 -147 -111 0
-66 -147 -112 0
-66 -147 -113 0
-67 126 0
-67 147 44 45 88 89 92 93 108 109 112 113 0
-67 -147 -44 0
-67 -147 -45 0
-67 -147 -88 0
-67 -147 -89 0
-67 -147 -92 0
-67 -147 -93 0
-67 -147 -108 0
-67 -147 -109 0
-67 -147 -112 0
-67 -147 -113 0
-68 127 0
-68 147 45 89 93 109 113 0
-68 -147 -45 0
-68 -147 -89 0
-68 -147 -93 0
-68 -147 -109 0
-68 -147 -113 0
-69 128 0
-69 147 0
-70 147 47 48 49 91 92 93 95 96 97 107 108 109 111 112 113 115 116 117 0
-70 -147 -47 0
-70 -147 -48 0
-70 -147 -49 0
-70 -147 -91 0
-70 -147 -92 0
-70 -147 -93 0
-70 -147 -95 0
-70 -147 -96 0
-70 -147 -97 0
-70 -147 -107 0
-70 -147 -108 0
-70 -147 -109 0
-70 -147 -111 0
-70 -147 -112 0
-70 -147 -113 0
-70 -147 -115 0
-70 -147 -116 0
-70 -147 -117 0
-71 130 0
-71 147 48 49 92 93 96 97 108 109 112 113 116 117 0
-71 -147 -48 0
-71 -147 -49 0
-71 -147 -92 0
-71 -147 -93 0
-71 -147 -96 0
-71 -147 -97 0
-71 -147 -108 0
-71 -147 -109 0
-71 -147 -112 0
-71 -147 -113 0
-71 -147 -116 0
-71 -147 -117 0
-72 131 0
-72 147 49 93 97 109 113 117 0
-72 -147 -49 0
-72 -147 -93 0
-72 -147 -97 0
-72 -147 -109 0
-72 -147 -113 0
-72 -147 -117 0
-73 132 0
-73 147 0
-74 147 51 52 53 95 96 97 99 100 101 111 112 113 115 116 117 119 120 121 0
-74 -147 -51 0
-74 -147 -52 0
-74 -147 -53 0
-74 -147 -95 0
-74 -147 -96 0
-74 -147 -97 0
-74 -147 -99 0
-74 -147 -100 0
-74 -147 -101 0
-74 -147 -111 0
-74 -147 -112 0
-74 -147 -113 0
-74 -147 -115 0
-74 -147 -116 0
-74 -147 -117 0
-74 -147 -119 0
-74 -147 -120 0
-74 -147 -121 0
-75 134 0
-75 147 52 53 96 97 100 101 112 113 116 117 120 121 0
-75 -147 -52 0
-75 -147 -53 0
-75 -147 -96 0
-75 -147 -97 0
-75 -147 -100 0
-75 -147 -101 0
-75 -147 -112 0
-75 -147 -113 0
-75 -147 -116 0
-75 -147 -117 0
-75 -147 -120 0
-75 -147 -121 0
-76 135 0
-76 147 53 97 101 113 117 121 0
-76 -147 -53 0
-76 -147 -97 0
-76 -147 -101 0
-76 -147 -113 0
-76 -147 -117 0
-76 -147 -121 0
-77 136 0
-77 147 0
-78 147 55 56 57 99 100 101 103 104 105 115 116 117 119 120 121 0
-78 -147 -55 0
-78 -147 -56 0
-78 -147 -57 0
-78 -147 -99 0
-78 -147 -100 0
-78 -147 -101 0
-78 -147 -103 0
-78 -147 -104 0
-78 -147 -105 0
-78 -147 -115 0
-78 -147 -116 0
-78 -147 -117 0
-78 -147 -119 0
-78 -147 -120 0
-78 -147 -121 0
-79 138 0
-79 147 56 57 100 101 104 105 116 117 120 121 0
-79 -147 -56 0
-79 -147 -57 0
-79 -147 -100 0
-79 -147 -101 0
-79 -147 -104 0
-79 -147 -105 0
-79 -147 -116 0
-79 -147 -117 0
-79 -147 -120 0
-79 -147 -121 0
-80 139 0
-80 147 57 101 105 117 121 0
-80 -147 -57 0
-80 -147 -101 0
-80 -147 -105 0
-80 -147 -117 0
-80 -147 -121 0
-81 140 0
-81 147 0
-82 147 59 60 61 103 104 105 119 120 121 0
-82 -147 -59 0
-82 -147 -60 0
-82 -147 -61 0
-82 -147 -103 0
-82 -147 -104 0
-82 -147 -105 0
-82 -147 -119 0
-82 -147 -120 0
-82 -147 -121 0
-83 142 0
-83 147 60 61 104 105 120 121 0
-83 -147 -60 0
-83 -147 -61 0
-83 -147 -104 0
-83 -147 -105 0
-83 -147 -120 0
-83 -147 -121 0
-84 143 0
-84 147 61 105 121 0
-84 -147 -61 0
-84 -147 -105 0
-84 -147 -121 0
-85 144 0
-85 147 0
-86 148 39 40 41 43 44 45 63 64 65 67 68 69 107 108 109 111 112 113 0
-86 -148 -39 0
-86 -148 -40 0
-86 -148 -41 0
-86 -148 -43 0
-86 -148 -44 0
-86 -148 -45 0
-86 -148 -63 0
-86 -148 -64 0
-86 -148 -65 0
-86 -148 -67 0
-86 -148 -68 0
-86 -148 -69 0
-86 -148 -107 0
-86 -148 -108 0
-86 -148 -109 0
-86 -148 -111 0
-86 -148 -112 0
-86 -148 -113 0
-87 122 126 0
-87 148 40 41 44 45 64 65 68 69 108 109 112 113 0
-87 -148 -40 0
-87 -148 -41 0
-87 -148 -44 0
-87 -148 -45 0
-87 -148 -64 0
-87 -148 -65 0
-87 -148 -68 0
-87 -148 -69 0
-87 -148 -108 0
-87 -148 -109 0
-87 -148 -112 0
-87 -148 -113 0
-88 123 127 0
-88 148 41 45 65 69 109 113 0
-88 -148 -41 0
-88 -148 -45 0
-88 -148 -65 0
-88 -148 -69 0
-88 -148 -109 0
-88 -148 -113 0
-89 124 128 0
-89 148 0
-90 148 43 44 45 47 48 49 67 68 69 71 72 73 107 108 109 111 112 113 115 116 117 0
-90 -148 -43 0
-90 -148 -44 0
-90 -148 -45 0
-90 -148 -47 0
-90 -148 -48 0
-90 -148 -49 0
-90 -148 -67 0
-90 -148 -68 0
-90 -148 -69 0
-90 -148 -71 0
-90 -148 -72 0
-90 -148 -73 0
-90 -148 -107 0
-90 -148 -108 0
-90 -148 -109 0
-90 -148 -111 0
-90 -148 -112 0
-90 -148 -113 0
-90 -148 -115 0
-90 -148 -116 0
-90 -148 -117 0
-91 126 130 0
-91 148 44 45 48 49 68 69 72 73 108 109 112 113 116 117 0
-91 -148 -44 0
-91 -148 -45 0
-91 -148 -48 0
-91 -148 -49 0
-91 -148 -68 0
-91 -148 -69 0
-91 -148 -72 0
-91 -148 -73 0
-91 -148 -108 0
-91 -148 -109 0
-91 -148 -112 0
-91 -148 -113 0
-91 -148 -116 0
-91 -148 -117 0
-92 127 131 0
-92 148 45 49 69 73 109 113 117 0
-92 -148 -45 0
-92 -148 -49 0
-92 -148 -69 0
-92 -148 -73 0
-92 -148 -109 0
-92 -148 -113 0
-92 -148 -117 0
-93 128 132 0
-93 148 0
-94 148 47 48 49 51 52 53 71 72 73 75 76 77 107 108 109 111 112 113 115 116 117 119 120 121 0
-94 -148 -47 0
-94 -148 -48 0
-94 -148 -49 0
-94 -148 -51 0
-94 -148 -52 0
-94 -148 -53 0
-94 -148 -71 0
-94 -148 -72 0
-94 -148 -73 0
-94 -148 -75 0
-94 -148 -76 0
-94 -148 -77 0
-94 -148 -107 0
-94 -148 -108 0
-94 -148 -109 0
-94 -148 -111 0
-94 -148 -112 0
-94 -148 -113 0
-94 -148 -115 0
-94 -148 -116 0
-94 -148 -117 0
-94 -148 -119 0
-94 -148 -120 0
-94 -148 -121 0
-95 130 134 0
-95 148 48 49 52 53 72 73 76 77 108 109 112 113 116 117 120 121 0
-95 -148 -48 0
-95 -148 -49 0
-95 -148 -52 0
-95 -148 -53 0
-95 -148 -72 0
-95 -148 -73 0
-95 -148 -76 0
-95 -148 -77 0
-95 -148 -108 0
-95 -148 -109 0
-95 -148 -112 0
-95 -148 -113 0
-95 -148 -116 0
-95 -148 -117 0
-95 -148 -120 0
-95 -148 -121 0
-96 131 135 0
-96 148 49 53 73 77 109 113 117 121 0
-96 -148 -49 0
-96 -148 -53 0
-96 -148 -73 0
-96 -148 -77 0
-96 -148 -109 0
-96 -148 -113 0
-96 -148 -117 0
-96 -148 -121 0
-97 132 136 0
-97 148 0
-98 148 51 52 53 55 56 57 75 76 77 79 80 81 111 112 113 115 116 117 119 120 121 0
-98 -148 -51 0
-98 -148 -52 0
-98 -148 -53 0
-98 -148 -55 0
-98 -148 -56 0
-98 -148 -57 0
-98 -148 -75 0
-98 -148 -76 0
-98 -148 -77 0
-98 -148 -79 0
-98 -148 -80 0
-98 -148 -81 0
-98 -148 -111 0
-98 -148 -112 0
-98 -148 -113 0
-98 -148 -115 0
-98 -148 -116 0
-98 -148 -117 0
-98 -148 -119 0
-98 -148 -120 0
-98 -148 -121 0
-99 134 138 0
-99 148 52 53 56 57 76 77 80 81 112 113 116 117 120 121 0
-99 -148 -52 0
-99 -148 -53 0
-99 -148 -56 0
-99 -148 -57 0
-99 -148 -76 0
-99 -148 -77 0
-99 -148 -80 0
-99 -148 -81 0
-99 -148 -112 0
-99 -148 -113 0
-99 -148 -116 0
-99 -148 -117 0
-99 -148 -120 0
-99 -148 -121 0
-100 135 139 0
-100 148 53 57 77 81 113 117 121 0
-100 -148 -53 0
-100 -148 -57 0
-100 -148 -77 0
-100 -148 -81 0
-100 -148 -113 0
-100 -148 -117 0
-100 -148 -121 0
-101 136 140 0
-101 148 0
-102 148 55 56 57 59 60 61 79 80 81 83 84 85 115 116 117 119 120 121 0
-102 -148 -55 0
-102 -148 -56 0
-102 -148 -57 0
-102 -148 -59 0
-102 -148 -60 0
-102 -148 -61 0
-102 -148 -79 0
-102 -148 -80 0
-102 -148 -81 0
-102 -148 -83 0
-102 -148 -84 0
-102 -148 -85 0
-102 -148 -115 0
-102 -148 -116 0
-102 -148 -117 0
-102 -148 -119 0
-102 -148 -120 0
-102 -148 -121 0
-103 138 142 0
-103 148 56 57 60 61 80 81 84 85 116 117 120 121 0
-103 -148 -56 0
-103 -148 -57 0
-103 -148 -60 0
-103 -148 -61 0
-103 -148 -80 0
-103 -148 -81 0
-103 -148 -84 0
-103 -148 -85 0
-103 -148 -116 0
-103 -148 -117 0
-103 -148 -120 0
-103 -148 -121 0
-104 139 143 0
-104 148 57 61 81 85 117 121 0
-104 -148 -57 0
-104 -148 -61 0
-104 -148 -81 0
-104 -148 -85 0
-104 -148 -117 0
-104 -148 -121 0
-105 140 144 0
-105 148 0
-106 149 39 40 41 43 44 45 47 48 49 63 64 65 67 68 69 71 72 73 87 88 89 91 92 93 95 96 97 0
-106 -149 -39 0
-106 -149 -40 0
-106 -149 -41 0
-106 -149 -43 0
-106 -149 -44 0
-106 -149 -45 0
-106 -149 -47 0
-106 -149 -48 0
-106 -149 -49 0
-106 -149 -63 0
-106 -149 -64 0
-106 -149 -65 0
-106 -149 -67 0
-106 -149 -68 0
-106 -149 -69 0
-106 -149 -71 0
-106 -149 -72 0
-106 -149 -73 0
-106 -149 -87 0
-106 -149 -88 0
-106 -149 -89 0
-106 -149 -91 0
-106 -149 -92 0
-106 -149 -93 0
-106 -149 -95 0
-106 -149 -96 0
-106 -149 -97 0
-107 122 126 0
-107 122 130 0
-107 126 130 0
-107 149 40 41 44 45 48 49 64 65 68 69 72 73 88 89 92 93 96 97 0
-107 -149 -40 0
-107 -149 -41 0
-107 -149 -44 0
-107 -149 -45 0
-107 -149 -48 0
-107 -149 -49 0
-107 -149 -64 0
-107 -149 -65 0
-107 -149 -68 0
-107 -149 -69 0
-107 -149 -72 0
-107 -149 -73 0
-107 -149 -88 0
-107 -149 -89 0
-107 -149 -92 0
-107 -149 -93 0
-107 -149 -96 0
-107 -149 -97 0
-108 123 127 0
-108 123 131 0
-108 127 131 0
-108 149 41 45 49 65 69 73 89 93 97 0
-108 -149 -41 0
-108 -149 -45 0
-108 -149 -49 0
-108 -149 -65 0
-108 -149 -69 0
-108 -149 -73 0
-108 -149 -89 0
-108 -149 -93 0
-108 -149 -97 0
-109 124 128 0
-109 124 132 0
-109 128 132 0
-109 149 0
-110 149 43 44 45 47 48 49 51 52 53 67 68 69 71 72 73 75 76 77 87 88 89 91 92 93 95 96 97 99 100 101 0
-110 -149 -43 0
-110 -149 -44 0
-110 -149 -45 0
-110 -149 -47 0
-110 -149 -48 0
-110 -149 -49 0
-110 -149 -51 0
-110 -149 -52 0
-110 -149 -53 0
-110 -149 -67 0
-110 -149 -68 0
-110 -149 -69 0
-110 -149 -71 0
-110 -149 -72 0
-110 -149 -73 0
-110 -149 -75 0
-110 -149 -76 0
-110 -149 -77 0
-110 -149 -87 0
-110 -149 -88 0
-110 -149 -89 0
-110 -149 -91 0
-110 -149 -92 0
-110 -149 -93 0
-110 -149 -95 0
-110 -149 -96 0
-110 -149 -97 0
-110 -149 -99 0
-110 -149 -100 0
-110 -149 -101 0
-111 126 130 0
-111 126 134 0
-111 130 134 0
-111 149 44 45 48 49 52 53 68 69 72 73 76 77 88 89 92 93 96 97 100 101 0
-111 -149 -44 0
-111 -149 -45 0
-111 -149 -48 0
-111 -149 -49 0
-111 -149 -52 0
-111 -149 -53 0
-111 -149 -68 0
-111 -149 -69 0
-111 -149 -72 0
-111 -149 -73 0
-111 -149 -76 0
-111 -149 -77 0
-111 -149 -88 0
-111 -149 -89 0
-111 -149 -92 0
-111 -149 -93 0
-111 -149 -96 0
-111 -149 -97 0
-111 -149 -100 0
-111 -149 -101 0
-112 127 131 0
-112 127 135 0
-112 131 135 0
-112 149 45 49 53 69 73 77 89 93 97 101 0
-112 -149 -45 0
-112 -149 -49 0
-112 -149 -53 0
-112 -149 -69 0
-112 -149 -73 0
-112 -149 -77 0
-112 -149 -89 0
-112 -149 -93 0
-112 -149 -97 0
-112 -149 -101 0
-113 128 132 0
-113 128 136 0
-113 132 136 0
-113 149 0
-114 149 47 48 49 51 52 53 55 56 57 71 72 73 75 76 77 79 80 81 91 92 93 95 96 97 99 100 101 103 104 105 0
-114 -149 -47 0
-114 -149 -48 0
-114 -149 -49 0
-114 -149 -51 0
-114 -149 -52 0
-114 -149 -53 0
-114 -149 -55 0
-114 -149 -56 0
-114 -149 -57 0
-114 -149 -71 0
-114 -149 -72 0
-114 -149 -73 0
-114 -149 -75 0
-114 -149 -76 0
-114 -149 -77 0
-114 -149 -79 0
-114 -149 -80 0
-114 -149 -81 0
-114 -149 -91 0
-114 -149 -92 0
-114 -149 -93 0
-114 -149 -95 0
-114 -149 -96 0
-114 -149 -97 0
-114 -149 -99 0
-114 -149 -100 0
-114 -149 -101 0
-114 -149 -103 0
-114 -149 -104 0
-114 -149 -105 0
-115 130 134 0
-115 130 138 0
-115 134 138 0
-115 149 48 49 52 53 56 57 72 73 76 77 80 81 92 93 96 97 100 101 104 105 0
-115 -149 -48 0
-115 -149 -49 0
-115 -149 -52 0
-115 -149 -53 0
-115 -149 -56 0
-115 -149 -57 0
-115 -149 -72 0
-115 -149 -73 0
-115 -149 -76 0
-115 -149 -77 0
-115 -149 -80 0
-115 -149 -81 0
-115 -149 -92 0
-115 -149 -93 0
-115 -149 -96 0
-115 -149 -97 0
-115 -149 -100 0
-115 -149 -101 0
-115 -149 -104 0
-115 -149 -105 0
-116 131 135 0
-116 131 139 0
-116 135 139 0
-116 149 49 53 57 73 77 81 93 97 101 105 0
-116 -149 -49 0
-116 -149 -53 0
-116 -149 -57 0
-116 -149 -73 0
-116 -149 -77 0
-116 -149 -81 0
-116 -149 -93 0
-116 -149 -97 0
-116 -149 -101 0
-116 -149 -105 0
-117 132 136 0
-117 132 140 0
-117 136 140 0
-117 149 0
-118 149 51 52 53 55 56 57 59 60 61 75 76 77 79 80 81 83 84 85 95 96 97 99 100 101 103 104 105 0
-118 -149 -51 0
-118 -149 -52 0
-118 -149 -53 0
-118 -149 -55 0
-118 -149 -56 0
-118 -149 -57 0
-118 -149 -59 0
-118 -149 -60 0
-118 -149 -61 0
-118 -149 -75 0
-118 -149 -76 0
-118 -149 -77 0
-118 -149 -79 0
-118 -149 -80 0
-118 -149 -81 0
-118 -149 -83 0
-118 -149 -84 0
-118 -149 -85 0
-118 -149 -95 0
-118 -149 -96 0
-118 -149 -97 0
-118 -149 -99 0
-118 -149 -100 0
-118 -149 -101 0
-118 -149 -103 0
-118 -149 -104 0
-118 -149 -105 0
-119 134 138 0
-119 134 142 0
-119 138 142 0
-119 149 52 53 56 57 60 61 76 77 80 81 84 85 96 97 100 101 104 105 0
-119 -149 -52 0
-119 -149 -53 0
-119 -149 -56 0
-119 -149 -57 0
-119 -149 -60 0
-119 -149 -61 0
-119 -149 -76 0
-119 -149 -77 0
-119 -149 -80 0
-119 -149 -81 0
-119 -149 -84 0
-119 -149 -85 0
-119 -149 -96 0
-119 -149 -97 0
-119 -149 -100 0
-119 -149 -101 0
-119 -149 -104 0
-119 -149 -105 0
-120 135 139 0
-120 135 143 0
-120 139 143 0
-120 149 53 57 61 77 81 85 97 101 105 0
-120 -149 -53 0
-120 -149 -57 0
-120 -149 -61 0
-120 -149 -77 0
-120 -149 -81 0
-120 -149 -85 0
-120 -149 -97 0
-120 -149 -101 0
-120 -149 -105 0
-121 136 140 0
-121 136 144 0
-121 140 144 0
-121 149 0
150 151 152 153 154 155 0
-150 -151 0
-150 -152 0
-150 -153 0
-150 -154 0
-150 -155 0
-151 -152 0
-151 -153 0
-151 -154 0
-151 -155 0
-152 -153 0
-152 -154 0
-152 -155 0
-153 -154 0
-153 -155 0
-154 -155 0
156 157 158 159 0
-156 -157 0
-156 -158 0
-156 -159 0
-157 -158 0
-157 -159 0
-158 -159 0
160 161 162 163 164 165 0
-160 -161 0
-160 -162 0
-160 -163 0
-160 -164 0
-160 -165 0
-161 -162 0
-161 -163 0
-161 -164 0
-161 -165 0
-162 -163 0
-162 -164 0
-162 -165 0
-163 -164 0
-163 -165 0
-164 -165 0
166 167 168 169 0
-166 -167 0
-166 -168 0
-166 -169 0
-167 -168 0
-167 -169 0
-168 -169 0
170 171 172 173 174 0
-170 -171 0
-170 -172 0
-170 -173 0
-170 -174 0
-171 -172 0
-171 -173 0
-171 -174 0
-172 -173 0
-172 -174 0
-173 -174 0
175 176 177 178 0
-175 -176 0
-175 -177 0
-175 -178 0
-176 -177 0
-176 -178 0
-177 -178 0
179 180 181 182 0
-179 -180 0
-179 -181 0
-179 -182 0
-180 -181 0
-180 -182 0
-181 -182 0
183 184 185 186 0
-183 -184 0
-183 -185 0
-183 -186 0
-184 -185 0
-184 -186 0
-185 -186 0
-187 150 0
-187 156 0
-150 -156 187 0
-188 150 0
-188 157 0
-150 -157 188 0
-189 150 0
-189 158 0
-150 -158 189 0
-190 150 0
-190 159 0
-150 -159 190 0
-191 151 0
-191 156 0
-151 -156 191 0
-192 151 0
-192 157 0
-151 -157 192 0
-193 151 0
-193 158 0
-151 -158 193 0
-194 151 0
-194 159 0
-151 -159 194 0
-195 152 0
-195 156 0
-152 -156 195 0
-196 152 0
-196 157 0
-152 -157 196 0
-197 152 0
-197 158 0
-152 -158 197 0
-198 152 0
-198 159 0
-152 -159 198 0
-199 153 0
-199 156 0
-153 -156 199 0
-200 153 0
-200 157 0
-153 -157 200 0
-201 153 0
-201 158 0
-153 -158 201 0
-202 153 0
-202 159 0
-153 -159 202 0
-203 154 0
-203 156 0
-154 -156 203 0
-204 154 0
-204 157 0
-154 -157 204 0
-205 154 0
-205 158 0
-154 -158 205 0
-206 154 0
-206 159 0
-154 -159 206 0
-207 155 0
-207 156 0
-155 -156 207 0
-208 155 0
-208 157 0
-155 -157 208 0
-209 155 0
-209 158 0
-155 -158 209 0
-210 155 0
-210 159 0
-155 -159 210 0
-211 160 0
-211 166 0
-160 -166 211 0
-212 160 0
-212 167 0
-160 -167 212 0
-213 160 0
-213 168 0
-160 -168 213 0
-214 160 0
-214 169 0
-160 -169 214 0
-215 161 0
-215 166 0
-161 -166 215 0
-216 161 0
-216 167 0
-161 -167 216 0
-217 161 0
-217 168 0
-161 -168 217 0
-218 161 0
-218 169 0
-161 -169 218 0
-219 162 0
-219 166 0
-162 -166 219 0
-220 162 0
-220 167 0
-162 -167 220 0
-221 162 0
-221 168 0
-162 -168 221 0
-222 162 0
-222 169 0
-162 -169 222 0
-223 163 0
-223 166 0
-163 -166 223 0
-224 163 0
-224 167 0
-163 -167 224 0
-225 163 0
-225 168 0
-163 -168 225 0
-226 163 0
-226 169 0
-163 -169 226 0
-227 164 0
-227 166 0
-164 -166 227 0
-228 164 0
-228 167 0
-164 -167 228 0
-229 164 0
-229 168 0
-164 -168 229 0
-230 164 0
-230 169 0
-164 -169 230 0
-231 165 0
-231 166 0
-165 -166 231 0
-232 165 0
-232 167 0
-165 -167 232 0
-233 165 0
-233 168 0
-165 -168 233 0
-234 165 0
-234 169 0
-165 -169 234 0
-235 170 0
-235 175 0
-170 -175 235 0
-236 170 0
-236 176 0
-170 -176 236 0
-237 170 0
-237 177 0
-170 -177 237 0
-238 170 0
-238 178 0
-170 -178 238 0
-239 171 0
-239 175 0
-171 -175 239 0
-240 171 0
-240 176 0
-171 -176 240 0
-241 171 0
-241 177 0
-171 -177 241 0
-242 171 0
-242 178 0
-171 -178 242 0
-243 172 0
-243 175 0
-172 -175 243 0
-244 172 0
-244 176 0
-172 -176 244 0
-245 172 0
-245 177 0
-172 -177 245 0
-246 172 0
-246 178 0
-172 -178 246 0
-247 173 0
-247 175 0
-173 -175 247 0
-248 173 0
-248 176 0
-173 -176 248 0
-249 173 0
-249 177 0
-173 -177 249 0
-250 173 0
-250 178 0
-173 -178 250 0
-251 174 0
-251 175 0
-174 -175 251 0
-252 174 0
-252 176 0
-174 -176 252 0
-253 174 0
-253 177 0
-174 -177 253 0
-254 174 0
-254 178 0
-174 -178 254 0
-255 179 0
-255 183 0
-179 -183 255 0
-256 179 0
-256 184 0
-179 -184 256 0
-257 179 0
-257 185 0
-179 -185 257 0
-258 179 0
-258 186 0
-179 -186 258 0
-259 180 0
-259 183 0
-180 -183 259 0
-260 180 0
-260 184 0
-180 -184 260 0
-261 180 0
-261 185 0
-180 -185 261 0
-262 180 0
-262 186 0
-180 -186 262 0
-263 181 0
-263 183 0
-181 -183 263 0
-264 181 0
-264 184 0
-181 -184 264 0
-265 181 0
-265 185 0
-181 -185 265 0
-266 181 0
-266 186 0
-181 -186 266 0
-267 182 0
-267 183 0
-182 -183 267 0
-268 182 0
-268 184 0
-182 -184 268 0
-269 182 0
-269 185 0
-182 -185 269 0
-270 182 0
-270 186 0
-182 -186 270 0
-271 187 211 235 255 0
-187 271 0
-211 271 0
-235 271 0
-255 271 0
-272 188 212 236 256 0
-188 272 0
-212 272 0
-236 272 0
-256 272 0
-273 189 213 237 257 0
-189 273 0
-213 273 0
-237 273 0
-257 273 0
-274 190 214 238 258 0
-190 274 0
-214 274 0
-238 274 0
-258 274 0
-275 191 215 235 239 255 259 0
-191 275 0
-215 275 0
-235 275 0
-239 275 0
-255 275 0
-259 275 0
-276 192 216 236 240 256 260 0
-192 276 0
-216 276 0
-236 276 0
-240 276 0
-256 276 0
-260 276 0
-277 193 217 237 241 257 261 0
-193 277 0
-217 277 0
-237 277 0
-241 277 0
-257 277 0
-261 277 0
-278 194 218 238 242 258 262 0
-194 278 0
-218 278 0
-238 278 0
-242 278 0
-258 278 0
-262 278 0
-279 195 219 239 243 255 259 263 0
-195 279 0
-219 279 0
-239 279 0
-243 279 0
-255 279 0
-259 279 0
-263 279 0
-280 196 220 240 244 256 260 264 0
-196 280 0
-220 280 0
-240 280 0
-244 280 0
-256 280 0
-260 280 0
-264 280 0
-281 197 221 241 245 257 261 265 0
-197 281 0
-221 281 0
-241 281 0
-245 281 0
-257 281 0
-261 281 0
-265 281 0
-282 198 222 242 246 258 262 266 0
-198 282 0
-222 282 0
-242 282 0
-246 282 0
-258 282 0
-262 282 0
-266 282 0
-283 199 223 243 247 259 263 267 0
-199 283 0
-223 283 0
-243 283 0
-247 283 0
-259 283 0
-263 283 0
-267 283 0
-284 200 224 244 248 260 264 268 0
-200 284 0
-224 284 0
-244 284 0
-248 284 0
-260 284 0
-264 284 0
-268 284 0
-285 201 225 245 249 261 265 269 0
-201 285 0
-225 285 0
-245 285 0
-249 285 0
-261 285 0
-265 285 0
-269 285 0
-286 202 226 246 250 262 266 270 0
-202 286 0
-226 286 0
-246 286 0
-250 286 0
-262 286 0
-266 286 0
-270 286 0
-287 203 227 247 251 263 267 0
-203 287 0
-227 287 0
-247 287 0
-251 287 0
-263 287 0
-267 287 0
-288 204 228 248 252 264 268 0
-204 288 0
-228 288 0
-248 288 0
-252 288 0
-264 288 0
-268 288 0
-289 205 229 249 253 265 269 0
-205 289 0
-229 289 0
-249 289 0
-253 289 0
-265 289 0
-269 289 0
-290 206 230 250 254 266 270 0
-206 290 0
-230 290 0
-250 290 0
-254 290 0
-266 290 0
-270 290 0
-291 207 231 251 267 0
-207 291 0
-231 291 0
-251 291 0
-267 291 0
-292 208 232 252 268 0
-208 292 0
-232 292 0
-252 292 0
-268 292 0
-293 209 233 253 269 0
-209 293 0
-233 293 0
-253 293 0
-269 293 0
-294 210 234 254 270 0
-210 294 0
-234 294 0
-254 294 0
-270 294 0
-187 -211 0
-187 -235 0
-187 -255 0
-188 -212 0
-188 -236 0
-188 -256 0
-189 -213 0
-189 -237 0
-189 -257 0
-190 -214 0
-190 -238 0
-190 -258 0
-191 -215 0
-191 -235 0
-191 -239 0
-191 -255 0
-191 -259 0
-192 -216 0
-192 -236 0
-192 -240 0
-192 -256 0
-192 -260 0
-193 -217 0
-193 -237 0
-193 -241 0
-193 -257 0
-193 -261 0
-194 -218 0
-194 -238 0
-194 -242 0
-194 -258 0
-194 -262 0
-195 -219 0
-195 -239 0
-195 -243 0
-195 -255 0
-195 -259 0
-195 -263 0
-196 -220 0
-196 -240 0
-196 -244 0
-196 -256 0
-196 -260 0
-196 -264 0
-197 -221 0
-197 -241 0
-197 -245 0
-197 -257 0
-197 -261 0
-197 -265 0
-198 -222 0
-198 -242 0
-198 -246 0
-198 -258 0
-198 -262 0
-198 -266 0
-199 -223 0
-199 -243 0
-199 -247 0
-199 -259 0
-199 -263 0
-199 -267 0
-200 -224 0
-200 -244 0
-200 -248 0
-200 -260 0
-200 -264 0
-200 -268 0
-201 -225 0
-201 -245 0
-201 -249 0
-201 -261 0
-201 -265 0
-201 -269 0
-202 -226 0
-202 -246 0
-202 -250 0
-202 -262 0
-202 -266 0
-202 -270 0
-203 -227 0
-203 -247 0
-203 -251 0
-203 -263 0
-203 -267 0
-204 -228 0
-204 -248 0
-204 -252 0
-204 -264 0
-204 -268 0
-205 -229 0
-205 -249 0
-205 -253 0
-205 -265 0
-205 -269 0
-206 -230 0
-206 -250 0
-206 -254 0
-206 -266 0
-206 -270 0
-207 -231 0
-207 -251 0
-207 -267 0
-208 -232 0
-208 -252 0
-208 -268 0
-209 -233 0
-209 -253 0
-209 -269 0
-210 -234 0
-210 -254 0
-210 -270 0
-211 -235 0
-211 -255 0
-212 -236 0
-212 -256 0
-213 -237 0
-213 -257 0
-214 -238 0
-214 -258 0
-215 -235 0
-215 -239 0
-215 -255 0
-215 -259 0
-216 -236 0
-216 -240 0
-216 -256 0
-216 -260 0
-217 -237 0
-217 -241 0
-217 -257 0
-217 -261 0
-218 -238 0
-218 -242 0
-218 -258 0
-218 -262 0
-219 -239 0
-219 -243 0
-219 -255 0
-219 -259 0
-219 -263 0
-220 -240 0
-220 -244 0
-220 -256 0
-220 -260 0
-220 -264 0
-221 -241 0
-221 -245 0
-221 -257 0
-221 -261 0
-221 -265 0
-222 -242 0
-222 -246 0
-222 -258 0
-222 -262 0
-222 -266 0
-223 -243 0
-223 -247 0
-223 -259 0
-223 -263 0
-223 -267 0
-224 -244 0
-224 -248 0
-224 -260 0
-224 -264 0
-224 -268 0
-225 -245 0
-225 -249 0
-225 -261 0
-225 -265 0
-225 -269 0
-226 -246 0
-226 -250 0
-226 -262 0
-226 -266 0
-226 -270 0
-227 -247 0
-227 -251 0
-227 -263 0
-227 -267 0
-228 -248 0
-228 -252 0
-228 -264 0
-228 -268 0
-229 -249 0
-229 -253 0
-229 -265 0
-229 -269 0
-230 -250 0
-230 -254 0
-230 -266 0
-230 -270 0
-231 -251 0
-231 -267 0
-232 -252 0
-232 -268 0
-233 -253 0
-233 -269 0
-234 -254 0
-234 -270 0
-235 -255 0
-235 -259 0
-236 -256 0
-236 -260 0
-237 -257 0
-237 -261 0
-238 -258 0
-238 -262 0
-239 -255 0
-239 -259 0
-239 -263 0
-240 -256 0
-240 -260 0
-240 -264 0
-241 -257 0
-241 -261 0
-241 -265 0
-242 -258 0
-242 -262 0
-242 -266 0
-243 -255 0
-243 -259 0
-243 -263 0
-243 -267 0
-244 -256 0
-244 -260 0
-244 -264 0
-244 -268 0
-245 -257 0
-245 -261 0
-245 -265 0
-245 -269 0
-246 -258 0
-246 -262 0
-246 -266 0
-246 -270 0
-247 -259 0
-247 -263 0
-247 -267 0
-248 -260 0
-248 -264 0
-248 -268 0
-249 -261 0
-249 -265 0
-249 -269 0
-250 -262 0
-250 -266 0
-250 -270 0
-251 -263 0
-251 -267 0
-252 -264 0
-252 -268 0
-253 -265 0
-253 -269 0
-254 -266 0
-254 -270 0
-187 295 212 213 214 236 237 238 256 257 258 0
-187 -295 -212 0
-187 -295 -213 0
-187 -295 -214 0
-187 -295 -236 0
-187 -295 -237 0
-187 -295 -238 0
-187 -295 -256 0
-187 -295 -257 0
-187 -295 -258 0
-188 271 0
-188 295 213 214 237 238 257 258 0
-188 -295 -213 0
-188 -295 -214 0
-188 -295 -237 0
-188 -295 -238 0
-188 -295 -257 0
-188 -295 -258 0
-189 272 0
-189 295 214 238 258 0
-189 -295 -214 0
-189 -295 -238 0
-189 -295 -258 0
-190 273 0
-190 295 0
-191 295 216 217 218 236 237 238 240 241 242 256 257 258 260 261 262 0
-191 -295 -216 0
-191 -295 -217 0
-191 -295 -218 0
-191 -295 -236 0
-191 -295 -237 0
-191 -295 -238 0
-191 -295 -240 0
-191 -295 -241 0
-191 -295 -242 0
-191 -295 -256 0
-191 -295 -257 0
-191 -295 -258 0
-191 -295 -260 0
-191 -295 -261 0
-191 -295 -262 0
-192 275 0
-192 295 217 218 237 238 241 242 257 258 261 262 0
-192 -295 -217 0
-192 -295 -218 0
-192 -295 -237 0
-192 -295 -238 0
-192 -295 -241 0
-192 -295 -242 0
-192 -295 -257 0
-192 -295 -258 0
-192 -295 -261 0
-192 -295 -262 0
-193 276 0
-193 295 218 238 242 258 262 0
-193 -295 -218 0
-193 -295 -238 0
-193 -295 -242 0
-193 -295 -258 0
-193 -295 -262 0
-194 277 0
-194 295 0
-195 295 220 221 222 240 241 242 244 245 246 256 257 258 260 261 262 264 265 266 0
-195 -295 -220 0
-195 -295 -221 0
-195 -295 -222 0
-195 -295 -240 0
-195 -295 -241 0
-195 -295 -242 0
-195 -295 -244 0
-195 -295 -245 0
-195 -295 -246 0
-195 -295 -256 0
-195 -295 -257 0
-195 -295 -258 0
-195 -295 -260 0
-195 -295 -261 0
-195 -295 -262 0
-195 -295 -264 0
-195 -295 -265 0
-195 -295 -266 0
-196 279 0
-196 295 221 222 241 242 245 246 257 258 261 262 265 266 0
-196 -295 -221 0
-196 -295 -222 0
-196 -295 -241 0
-196 -295 -242 0
-196 -295 -245 0
-196 -295 -246 0
-196 -295 -257 0
-196 -295 -258 0
-196 -295 -261 0
-196 -295 -262 0
-196 -295 -265 0
-196 -295 -266 0
-197 280 0
-197 295 222 242 246 258 262 266 0
-197 -295 -222 0
-197 -295 -242 0
-197 -295 -246 0
-197 -295 -258 0
-197 -295 -262 0
-197 -295 -266 0
-198 281 0
-198 295 0
-199 295 224 225 226 244 245 246 248 249 250 260 261 262 264 265 266 268 269 270 0
-199 -295 -224 0
-199 -295 -225 0
-199 -295 -226 0
-199 -295 -244 0
-199 -295 -245 0
-199 -295 -246 0
-199 -295 -248 0
-199 -295 -249 0
-199 -295 -250 0
-199 -295 -260 0
-199 -295 -261 0
-199 -295 -262 0
-199 -295 -264 0
-199 -295 -265 0
-199 -295 -266 0
-199 -295 -268 0
-199 -295 -269 0
-199 -295 -270 0
-200 283 0
-200 295 225 226 245 246 249 250 261 262 265 266 269 270 0
-200 -295 -225 0
-200 -295 -226 0
-200 -295 -245 0
-200 -295 -246 0
-200 -295 -249 0
-200 -295 -250 0
-200 -295 -261 0
-200 -295 -262 0
-200 -295 -265 0
-200 -295 -266 0
-200 -295 -269 0
-200 -295 -270 0
-201 284 0
-201 295 226 246 250 262 266 270 0
-201 -295 -226 0
-201 -295 -246 0
-201 -295 -250 0
-201 -295 -262 0
-201 -295 -266 0
-201 -295 -270 0
-202 285 0
-202 295 0
-203 295 228 229 230 248 249 250 252 253 254 264 265 266 268 269 270 0
-203 -295 -228 0
-203 -295 -229 0
-203 -295 -230 0
-203 -295 -248 0
-203 -295 -249 0
-203 -295 -250 0
-203 -295 -252 0
-203 -295 -253 0
-203 -295 -254 0
-203 -295 -264 0
-203 -295 -265 0
-203 -295 -266 0
-203 -295 -268 0
-203 -295 -269 0
-203 -295 -270 0
-204 287 0
-204 295 229 230 249 250 253 254 265 266 269 270 0
-204 -295 -229 0
-204 -295 -230 0
-204 -295 -249 0
-204 -295 -250 0
-204 -295 -253 0
-204 -295 -254 0
-204 -295 -265 0
-204 -295 -266 0
-204 -295 -269 0
-204 -295 -270 0
-205 288 0
-205 295 230 250 254 266 270 0
-205 -295 -230 0
-205 -295 -250 0
-205 -295 -254 0
-205 -295 -266 0
-205 -295 -270 0
-206 289 0
-206 295 0
-207 295 232 233 234 252 253 254 268 269 270 0
-207 -295 -232 0
-207 -295 -233 0
-207 -295 -234 0
-207 -295 -252 0
-207 -295 -253 0
-207 -295 -254 0
-207 -295 -268 0
-207 -295 -269 0
-207 -295 -270 0
-208 291 0
-208 295 233 234 253 254 269 270 0
-208 -295 -233 0
-208 -295 -234 0
-208 -295 -253 0
-208 -295 -254 0
-208 -295 -269 0
-208 -295 -270 0
-209 292 0
-209 295 234 254 270 0
-209 -295 -234 0
-209 -295 -254 0
-209 -295 -270 0
-210 293 0
-210 295 0
-211 296 188 189 190 236 237 238 256 257 258 0
-211 -296 -188 0
-211 -296 -189 0
-211 -296 -190 0
-211 -296 -236 0
-211 -296 -237 0
-211 -296 -238 0
-211 -296 -256 0
-211 -296 -257 0
-211 -296 -258 0
-212 271 0
-212 296 189 190 237 238 257 258 0
-212 -296 -189 0
-212 -296 -190 0
-212 -296 -237 0
-212 -296 -238 0
-212 -296 -257 0
-212 -296 -258 0
-213 272 0
-213 296 190 238 258 0
-213 -296 -190 0
-213 -296 -238 0
-213 -296 -258 0
-214 273 0
-214 296 0
-215 296 192 193 194 236 237 238 240 241 242 256 257 258 260 261 262 0
-215 -296 -192 0
-215 -296 -193 0
-215 -296 -194 0
-215 -296 -236 0
-215 -296 -237 0
-215 -296 -238 0
-215 -296 -240 0
-215 -296 -241 0
-215 -296 -242 0
-215 -296 -256 0
-215 -296 -257 0
-215 -296 -258 0
-215 -296 -260 0
-215 -296 -261 0
-215 -296 -262 0
-216 275 0
-216 296 193 194 237 238 241 242 257 258 261 262 0
-216 -296 -193 0
-216 -296 -194 0
-216 -296 -237 0
-216 -296 -238 0
-216 -296 -241 0
-216 -296 -242 0
-216 -296 -257 0
-216 -296 -258 0
-216 -296 -261 0
-216 -296 -262 0
-217 276 0
-217 296 194 238 242 258 262 0
-217 -296 -194 0
-217 -296 -238 0
-217 -296 -242 0
-217 -296 -258 0
-217 -296 -262 0
-218 277 0
-218 296 0
-219 296 196 197 198 240 241 242 244 245 246 256 257 258 260 261 262 264 265 266 0
-219 -296 -196 0
-219 -296 -197 0
-219 -296 -198 0
-219 -296 -240 0
-219 -296 -241 0
-219 -296 -242 0
-219 -296 -244 0
-219 -296 -245 0
-219 -296 -246 0
-219 -296 -256 0
-219 -296 -257 0
-219 -296 -258 0
-219 -296 -260 0
-219 -296 -261 0
-219 -296 -262 0
-219 -296 -264 0
-219 -296 -265 0
-219 -296 -266 0
-220 279 0
-220 296 197 198 241 242 245 246 257 258 261 262 265 266 0
-220 -296 -197 0
-220 -296 -198 0
-220 -296 -241 0
-220 -296 -242 0
-220 -296 -245 0
-220 -296 -246 0
-220 -296 -257 0
-220 -296 -258 0
-220 -296 -261 0
-220 -296 -262 0
-220 -296 -265 0
-220 -296 -266 0
-221 280 0
-221 296 198 242 246 258 262 266 0
-221 -296 -198 0
-221 -296 -242 0
-221 -296 -246 0
-221 -296 -258 0
-221 -296 -262 0
-221 -296 -266 0
-222 281 0
-222 296 0
-223 296 200 201 202 244 245 246 248 249 250 260 261 262 264 265 266 268 269 270 0
-223 -296 -200 0
-223 -296 -201 0
-223 -296 -202 0
-223 -296 -244 0
-223 -296 -245 0
-223 -296 -246 0
-223 -296 -248 0
-223 -296 -249 0
-223 -296 -250 0
-223 -296 -260 0
-223 -296 -261 0
-223 -296 -262 0
-223 -296 -264 0
-223 -296 -265 0
-223 -296 -266 0
-223 -296 -268 0
-223 -296 -269 0
-223 -296 -270 0
-224 283 0
-224 296 201 202 245 246 249 250 261 262 265 266 269 270 0
-224 -296 -201 0
-224 -296 -202 0
-224 -296 -245 0
-224 -296 -246 0
-224 -296 -249 0
-224 -296 -250 0
-224 -296 -261 0
-224 -296 -262 0
-224 -296 -265 0
-224 -296 -266 0
-224 -296 -269 0
-224 -296 -270 0
-225 284 0
-225 296 202 246 250 262 266 270 0
-225 -296 -202 0
-225 -296 -246 0
-225 -296 -250 0
-225 -296 -262 0
-225 -296 -266 0
-225 -296 -270 0
-226 285 0
-226 296 0
-227 296 204 205 206 248 249 250 252 253 254 264 265 266 268 269 270 0
-227 -296 -204 0
-227 -296 -205 0
-227 -296 -206 0
-227 -296 -248 0
-227 -296 -249 0
-227 -296 -250 0
-227 -296 -252 0
-227 -296 -253 0
-227 -296 -254 0
-227 -296 -264 0
-227 -296 -265 0
-227 -296 -266 0
-227 -296 -268 0
-227 -296 -269 0
-227 -296 -270 0
-228 287 0
-228 296 205 206 249 250 253 254 265 266 269 270 0
-228 -296 -205 0
-228 -296 -206 0
-228 -296 -249 0
-228 -296 -250 0
-228 -296 -253 0
-228 -296 -254 0
-228 -296 -265 0
-228 -296 -266 0
-228 -296 -269 0
-228 -296 -270 0
-229 288 0
-229 296 206 250 254 266 270 0
-229 -296 -206 0
-229 -296 -250 0
-229 -296 -254 0
-229 -296 -266 0
-229 -296 -270 0
-230 289 0
-230 296 0
-231 296 208 209 210 252 253 254 268 269 270 0
-231 -296 -208 0
-231 -296 -209 0
-231 -296 -210 0
-231 -296 -252 0
-231 -296 -253 0
-231 -296 -254 0
-231 -296 -268 0
-231 -296 -269 0
-231 -296 -270 0
-232 291 0
-232 296 209 210 253 254 269 270 0
-232 -296 -209 0
-232 -296 -210 0
-232 -296 -253 0
-232 -296 -254 0
-232 -296 -269 0
-232 -296 -270 0
-233 292 0
-233 296 210 254 270 0
-233 -296 -210 0
-233 -296 -254 0
-233 -296 -270 0
-234 293 0
-234 296 0
-235 297 188 189 190 192 193 194 212 213 214 216 217 218 256 257 258 260 261 262 0
-235 -297 -188 0
-235 -297 -189 0
-235 -297 -190 0
-235 -297 -192 0
-235 -297 -193 0
-235 -297 -194 0
-235 -297 -212 0
-235 -297 -213 0
-235 -297 -214 0
-235 -297 -216 0
-235 -297 -217 0
-235 -297 -218 0
-235 -297 -256 0
-235 -297 -257 0
-235 -297 -258 0
-235 -297 -260 0
-235 -297 -261 0
-235 -297 -262 0
-236 271 275 0
-236 297 189 190 193 194 213 214 217 218 257 258 261 262 0
-236 -297 -189 0
-236 -297 -190 0
-236 -297 -193 0
-236 -297 -194 0
-236 -297 -213 0
-236 -297 -214 0
-236 -297 -217 0
-236 -297 -218 0
-236 -297 -257 0
-236 -297 -258 0
-236 -297 -261 0
-236 -297 -262 0
-237 272 276 0
-237 297 190 194 214 218 258 262 0
-237 -297 -190 0
-237 -297 -194 0
-237 -297 -214 0
-237 -297 -218 0
-237 -297 -258 0
-237 -297 -262 0
-238 273 277 0
-238 297 0
-239 297 192 193 194 196 197 198 216 217 218 220 221 222 256 257 258 260 261 262 264 265 266 0
-239 -297 -192 0
-239 -297 -193 0
-239 -297 -194 0
-239 -297 -196 0
-239 -297 -197 0
-239 -297 -198 0
-239 -297 -216 0
-239 -297 -217 0
-239 -297 -218 0
-239 -297 -220 0
-239 -297 -221 0
-239 -297 -222 0
-239 -297 -256 0
-239 -297 -257 0
-239 -297 -258 0
-239 -297 -260 0
-239 -297 -261 0
-239 -297 -262 0
-239 -297 -264 0
-239 -297 -265 0
-239 -297 -266 0
-240 275 279 0
-240 297 193 194 197 198 217 218 221 222 257 258 261 262 265 266 0
-240 -297 -193 0
-240 -297 -194 0
-240 -297 -197 0
-240 -297 -198 0
-240 -297 -217 0
-240 -297 -218 0
-240 -297 -221 0
-240 -297 -222 0
-240 -297 -257 0
-240 -297 -258 0
-240 -297 -261 0
-240 -297 -262 0
-240 -297 -265 0
-240 -297 -266 0
-241 276 280 0
-241 297 194 198 218 222 258 262 266 0
-241 -297 -194 0
-241 -297 -198 0
-241 -297 -218 0
-241 -297 -222 0
-241 -297 -258 0
-241 -297 -262 0
-241 -297 -266 0
-242 277 281 0
-242 297 0
-243 297 196 197 198 200 201 202 220 221 222 224 225 226 256 257 258 260 261 262 264 265 266 268 269 270 0
-243 -297 -196 0
-243 -297 -197 0
-243 -297 -198 0
-243 -297 -200 0
-243 -297 -201 0
-243 -297 -202 0
-243 -297 -220 0
-243 -297 -221 0
-243 -297 -222 0
-243 -297 -224 0
-243 -297 -225 0
-243 -297 -226 0
-243 -297 -256 0
-243 -297 -257 0
-243 -297 -258 0
-243 -297 -260 0
-243 -297 -261 0
-243 -297 -262 0
-243 -297 -264 0
-243 -297 -265 0
-243 -297 -266 0
-243 -297 -268 0
-243 -297 -269 0
-243 -297 -270 0
-244 279 283 0
-244 297 197 198 201 202 221 222 225 226 257 258 261 262 265 266 269 270 0
-244 -297 -197 0
-244 -297 -198 0
-244 -297 -201 0
-244 -297 -202 0
-244 -297 -221 0
-244 -297 -222 0
-244 -297 -225 0
-244 -297 -226 0
-244 -297 -257 0
-244 -297 -258 0
-244 -297 -261 0
-244 -297 -262 0
-244 -297 -265 0
-244 -297 -266 0
-244 -297 -269 0
-244 -297 -270 0
-245 280 284 0
-245 297 198 202 222 226 258 262 266 270 0
-245 -297 -198 0
-245 -297 -202 0
-245 -297 -222 0
-245 -297 -226 0
-245 -297 -258 0
-245 -297 -262 0
-245 -297 -266 0
-245 -297 -270 0
-246 281 285 0
-246 297 0
-247 297 200 201 202 204 205 206 224 225 226 228 229 230 260 261 262 264 265 266 268 269 270 0
-247 -297 -200 0
-247 -297 -201 0
-247 -297 -202 0
-247 -297 -204 0
-247 -297 -205 0
-247 -297 -206 0
-247 -297 -224 0
-247 -297 -225 0
-247 -297 -226 0
-247 -297 -228 0
-247 -297 -229 0
-247 -297 -230 0
-247 -297 -260 0
-247 -297 -261 0
-247 -297 -262 0
-247 -297 -264 0
-247 -297 -265 0
-247 -297 -266 0
-247 -297 -268 0
-247 -297 -269 0
-247 -297 -270 0
-248 283 287 0
-248 297 201 202 205 206 225 226 229 230 261 262 265 266 269 270 0
-248 -297 -201 0
-248 -297 -202 0
-248 -297 -205 0
-248 -297 -206 0
-248 -297 -225 0
-248 -297 -226 0
-248 -297 -229 0
-248 -297 -230 0
-248 -297 -261 0
-248 -297 -262 0
-248 -297 -265 0
-248 -297 -266 0
-248 -297 -269 0
-248 -297 -270 0
-249 284 288 0
-249 297 202 206 226 230 262 266 270 0
-249 -297 -202 0
-249 -297 -206 0
-249 -297 -226 0
-249 -297 -230 0
-249 -297 -262 0
-249 -297 -266 0
-249 -297 -270 0
-250 285 289 0
-250 297 0
-251 297 204 205 206 208 209 210 228 229 230 232 233 234 264 265 266 268 269 270 0
-251 -297 -204 0
-251 -297 -205 0
-251 -297 -206 0
-251 -297 -208 0
-251 -297 -209 0
-251 -297 -210 0
-251 -297 -228 0
-251 -297 -229 0
-251 -297 -230 0
-251 -297 -232 0
-251 -297 -233 0
-251 -297 -234 0
-251 -297 -264 0
-251 -297 -265 0
-251 -297 -266 0
-251 -297 -268 0
-251 -297 -269 0
-251 -297 -270 0
-252 287 291 0
-252 297 205 206 209 210 229 230 233 234 265 266 269 270 0
-252 -297 -205 0
-252 -297 -206 0
-252 -297 -209 0
-252 -297 -210 0
-252 -297 -229 0
-252 -297 -230 0
-252 -297 -233 0
-252 -297 -234 0
-252 -297 -265 0
-252 -297 -266 0
-252 -297 -269 0
-252 -297 -270 0
-253 288 292 0
-253 297 206 210 230 234 266 270 0
-253 -297 -206 0
-253 -297 -210 0
-253 -297 -230 0
-253 -297 -234 0
-253 -297 -266 0
-253 -297 -270 0
-254 289 293 0
-254 297 0
-255 298 188 189 190 192 193 194 196 197 198 212 213 214 216 217 218 220 221 222 236 237 238 240 241 242 244 245 246 0
-255 -298 -188 0
-255 -298 -189 0
-255 -298 -190 0
-255 -298 -192 0
-255 -298 -193 0
-255 -298 -194 0
-255 -298 -196 0
-255 -298 -197 0
-255 -298 -198 0
-255 -298 -212 0
-255 -298 -213 0
-255 -298 -214 0
-255 -298 -216 0
-255 -298 -217 0
-255 -298 -218 0
-255 -298 -220 0
-255 -298 -221 0
-255 -298 -222 0
-255 -298 -236 0
-255 -298 -237 0
-255 -298 -238 0
-255 -298 -240 0
-255 -298 -241 0
-255 -298 -242 0
-255 -298 -244 0
-255 -298 -245 0
-255 -298 -246 0
-256 271 275 0
-256 271 279 0
-256 275 279 0
-256 298 189 190 193 194 197 198 213 214 217 218 221 222 237 238 241 242 245 246 0
-256 -298 -189 0
-256 -298 -190 0
-256 -298 -193 0
-256 -298 -194 0
-256 -298 -197 0
-256 -298 -198 0
-256 -298 -213 0
-256 -298 -214 0
-256 -298 -217 0
-256 -298 -218 0
-256 -298 -221 0
-256 -298 -222 0
-256 -298 -237 0
-256 -298 -238 0
-256 -298 -241 0
-256 -298 -242 0
-256 -298 -245 0
-256 -298 -246 0
-257 272 276 0
-257 272 280 0
-257 276 280 0
-257 298 190 194 198 214 218 222 238 242 246 0
-257 -298 -190 0
-257 -298 -194 0
-257 -298 -198 0
-257 -298 -214 0
-257 -298 -218 0
-257 -298 -222 0
-257 -298 -238 0
-257 -298 -242 0
-257 -298 -246 0
-258 273 277 0
-258 273 281 0
-258 277 281 0
-258 298 0
-259 298 192 193 194 196 197 198 200 201 202 216 217 218 220 221 222 224 225 226 236 237 238 240 241 242 244 245 246 248 249 250 0
-259 -298 -192 0
-259 -298 -193 0
-259 -298 -194 0
-259 -298 -196 0
-259 -298 -197 0
-259 -298 -198 0
-259 -298 -200 0
-259 -298 -201 0
-259 -298 -202 0
-259 -298 -216 0
-259 -298 -217 0
-259 -298 -218 0
-259 -298 -220 0
-259 -298 -221 0
-259 -298 -222 0
-259 -298 -224 0
-259 -298 -225 0
-259 -298 -226 0
-259 -298 -236 0
-259 -298 -237 0
-259 -298 -238 0
-259 -298 -240 0
-259 -298 -241 0
-259 -298 -242 0
-259 -298 -244 0
-259 -298 -245 0
-259 -298 -246 0
-259 -298 -248 0
-259 -298 -249 0
-259 -298 -250 0
-260 275 279 0
-260 275 283 0
-260 279 283 0
-260 298 193 194 197 198 201 202 217 218 221 222 225 226 237 238 241 242 245 246 249 250 0
-260 -298 -193 0
-260 -298 -194 0
-260 -298 -197 0
-260 -298 -198 0
-260 -298 -201 0
-260 -298 -202 0
-260 -298 -217 0
-260 -298 -218 0
-260 -298 -221 0
-260 -298 -222 0
-260 -298 -225 0
-260 -298 -226 0
-260 -298 -237 0
-260 -298 -238 0
-260 -298 -241 0
-260 -298 -242 0
-260 -298 -245 0
-260 -298 -246 0
-260 -298 -249 0
-260 -298 -250 0
-261 276 280 0
-261 276 284 0
-261 280 284 0
-261 298 194 198 202 218 222 226 238 242 246 250 0
-261 -298 -194 0
-261 -298 -198 0
-261 -298 -202 0
-261 -298 -218 0
-261 -298 -222 0
-261 -298 -226 0
-261 -298 -238 0
-261 -298 -242 0
-261 -298 -246 0
-261 -298 -250 0
-262 277 281 0
-262 277 285 0
-262 281 285 0
-262 298 0
-263 298 196 197 198 200 201 202 204 205 206 220 221 222 224 225 226 228 229 230 240 241 242 244 245 246 248 249 250 252 253 254 0
-263 -298 -196 0
-263 -298 -197 0
-263 -298 -198 0
-263 -298 -200 0
-263 -298 -201 0
-263 -298 -202 0
-263 -298 -204 0
-263 -298 -205 0
-263 -298 -206 0
-263 -298 -220 0
-263 -298 -221 0
-263 -298 -222 0
-263 -298 -224 0
-263 -298 -225 0
-263 -298 -226 0
-263 -298 -228 0
-263 -298 -229 0
-263 -298 -230 0
-263 -298 -240 0
-263 -298 -241 0
-263 -298 -242 0
-263 -298 -244 0
-263 -298 -245 0
-263 -298 -246 0
-263 -298 -248 0
-263 -298 -249 0
-263 -298 -250 0
-263 -298 -252 0
-263 -298 -253 0
-263 -298 -254 0
-264 279 283 0
-264 279 287 0
-264 283 287 0
-264 298 197 198 201 202 205 206 221 222 225 226 229 230 241 242 245 246 249 250 253 254 0
-264 -298 -197 0
-264 -298 -198 0
-264 -298 -201 0
-264 -298 -202 0
-264 -298 -205 0
-264 -298 -206 0
-264 -298 -221 0
-264 -298 -222 0
-264 -298 -225 0
-264 -298 -226 0
-264 -298 -229 0
-264 -298 -230 0
-264 -298 -241 0
-264 -298 -242 0
-264 -298 -245 0
-264 -298 -246 0
-264 -298 -249 0
-264 -298 -250 0
-264 -298 -253 0
-264 -298 -254 0
-265 280 284 0
-265 280 288 0
-265 284 288 0
-265 298 198 202 206 222 226 230 242 246 250 254 0
-265 -298 -198 0
-265 -298 -202 0
-265 -298 -206 0
-265 -298 -222 0
-265 -298 -226 0
-265 -298 -230 0
-265 -298 -242 0
-265 -298 -246 0
-265 -298 -250 0
-265 -298 -254 0
-266 281 285 0
-266 281 289 0
-266 285 289 0
-266 298 0
-267 298 200 201 202 204 205 206 208 209 210 224 225 226 228 229 230 232 233 234 244 245 246 248 249 250 252 253 254 0
-267 -298 -200 0
-267 -298 -201 0
-267 -298 -202 0
-267 -298 -204 0
-267 -298 -205 0
-267 -298 -206 0
-267 -298 -208 0
-267 -298 -209 0
-267 -298 -210 0
-267 -298 -224 0
-267 -298 -225 0
-267 -298 -226 0
-267 -298 -228 0
-267 -298 -229 0
-267 -298 -230 0
-267 -298 -232 0
-267 -298 -233 0
-267 -298 -234 0
-267 -298 -244 0
-267 -298 -245 0
-267 -298 -246 0
-267 -298 -248 0
-267 -298 -249 0
-267 -298 -250 0
-267 -298 -252 0
-267 -298 -253 0
-267 -298 -254 0
-268 283 287 0
-268 283 291 0
-268 287 291 0
-268 298 201 202 205 206 209 210 225 226 229 230 233 234 245 246 249 250 253 254 0
-268 -298 -201 0
-268 -298 -202 0
-268 -298 -205 0
-268 -298 -206 0
-268 -298 -209 0
-268 -298 -210 0
-268 -298 -225 0
-268 -298 -226 0
-268 -298 -229 0
-268 -298 -230 0
-268 -298 -233 0
-268 -298 -234 0
-268 -298 -245 0
-268 -298 -246 0
-268 -298 -249 0
-268 -298 -250 0
-268 -298 -253 0
-268 -298 -254 0
-269 284 288 0
-269 284 292 0
-269 288 292 0
-269 298 202 206 210 226 230 234 246 250 254 0
-269 -298 -202 0
-269 -298 -206 0
-269 -298 -210 0
-269 -298 -226 0
-269 -298 -230 0
-269 -298 -234 0
-269 -298 -246 0
-269 -298 -250 0
-269 -298 -254 0
-270 285 289 0
-270 285 293 0
-270 289 293 0
-270 298 0
4 0
7 0
16 0
17 0
21 0
26 0
33 0
35 0
153 0
156 0
165 0
166 0
170 0
175 0
179 0
184 0
299 300 301 302 303 304 305 306 307 308 309 310 311 312 313 314 315 316 317 318 319 320 321 322 323 324 325 326 327 328 329 330 331 332 333 334 335 336 337 338 339 340 341 342 343 344 345 346 347 348 349 350 351 352 353 354 355 356 357 358 359 360 361 362 363 364 365 366 367 368 369 370 371 372 373 374 375 376 377 378 379 380 381 382 0
-299 -300 0
-299 -301 0
-299 -302 0
-299 -303 0
-299 -304 0
-299 -305 0
-299 -306 0
-299 -307 0
-299 -308 0
-299 -309 0
-299 -310 0
-299 -311 0
-299 -312 0
-299 -313 0
-299 -314 0
-299 -315 0
-299 -316 0
-299 -317 0
-299 -318 0
-299 -319 0
-299 -320 0
-299 -321 0
-299 -322 0
-299 -323 0
-299 -324 0
-299 -325 0
-299 -326 0
-299 -327 0
-299 -328 0
-299 -329 0
-299 -330 0
-299 -331 0
-299 -332 0
-299 -333 0
-299 -334 0
-299 -335 0
-299 -336 0
-299 -337 0
-299 -338 0
-299 -339 0
-299 -340 0
-299 -341 0
-299 -342 0
-299 -343 0
-299 -344 0
-299 -345 0
-299 -346 0
-299 -347 0
-299 -348 0
-299 -349 0
-299 -350 0
-299 -351 0
-299 -352 0
-299 -353 0
-299 -354 0
-299 -355 0
-299 -356 0
-299 -357 0
-299 -358 0
-299 -359 0
-299 -360 0
-299 -361 0
-299 -362 0
-299 -363 0
-299 -364 0
-299 -365 0
-299 -366 0
-299 -367 0
-299 -368 0
-299 -369 0
-299 -370 0
-299 -371 0
-299 -372 0
-299 -373 0
-299 -374 0
-299 -375 0
-299 -376 0
-299 -377 0
-299 -378 0
-299 -379 0
-299 -380 0
-299 -381 0
-299 -382 0
-300 -301 0
-300 -302 0
-300 -303 0
-300 -304 0
-300 -305 0
-300 -306 0
-300 -307 0
-300 -308 0
-300 -309 0
-300 -310 0
-300 -311 0
-300 -312 0
-300 -313 0
-300 -314 0
-300 -315 0
-300 -316 0
-300 -317 0
-300 -318 0
-300 -319 0
-300 -320 0
-300 -321 0
-300 -322 0
-300 -323 0
-300 -324 0
-300 -325 0
-300 -326 0
-300 -327 0
-300 -328 0
-300 -329 0
-300 -330 0
-300 -331 0
-300 -332 0
-300 -333 0
-300 -334 0
-300 -335 0
-300 -336 0
-300 -337 0
-300 -338 0
-300 -339 0
-300 -340 0
-300 -341 0
-300 -342 0
-300 -343 0
-300 -344 0
-300 -345 0
-300 -346 0
-300 -347 0
-300 -348 0
-300 -349 0
-300 -350 0
-300 -351 0
-300 -352 0
-300 -353 0
-300 -354 0
-300 -355 0
-300 -356 0
-300 -357 0
-300 -358 0
-300 -359 0
-300 -360 0
-300 -361 0
-300 -362 0
-300 -363 0
-300 -364 0
-300 -365 0
-300 -366 0
-300 -367 0
-300 -368 0
-300 -369 0
-300 -370 0
-300 -371 0
-300 -372 0
-300 -373 0
-300 -374 0
-300 -375 0
-300 -376 0
-300 -377 0
-300 -378 0
-300 -379 0
-300 -380 0
-300 -381 0
-300 -382 0
-301 -302 0
-301 -303 0
-301 -304 0
-301 -305 0
-301 -306 0
-301 -307 0
-301 -308 0
-301 -309 0
-301 -310 0
-301 -311 0
-301 -312 0
-301 -313 0
-301 -314 0
-301 -315 0
-301 -316 0
-301 -317 0
-301 -318 0
-301 -319 0
-301 -320 0
-301 -321 0
-301 -322 0
-301 -323 0
-301 -324 0
-301 -325 0
-301 -326 0
-301 -327 0
-301 -328 0
-301 -329 0
-301 -330 0
-301 -331 0
-301 -332 0
-301 -333 0
-301 -334 0
-301 -335 0
-301 -336 0
-301 -337 0
-301 -338 0
-301 -339 0
-301 -340 0
-301 -341 0
-301 -342 0
-301 -343 0
-301 -344 0
-301 -345 0
-301 -346 0
-301 -347 0
-301 -348 0
-301 -349 0
-301 -350 0
-301 -351 0
-301 -352 0
-301 -353 0
-301 -354 0
-301 -355 0
-301 -356 0
-301 -357 0
-301 -358 0
-301 -359 0
-301 -360 0
-301 -361 0
-301 -362 0
-301 -363 0
-301 -364 0
-301 -365 0
-301 -366 0
-301 -367 0
-301 -368 0
-301 -369 0
-301 -370 0
-301 -371 0
-301 -372 0
-301 -373 0
-301 -374 0
-301 -375 0
-301 -376 0
-301 -377 0
-301 -378 0
-301 -379 0
-301 -380 0
-301 -381 0
-301 -382 0
-302 -303 0
-302 -304 0
-302 -305 0
-302 -306 0
-302 -307 0
-302 -308 0
-302 -309 0
-302 -310 0
-302 -311 0
-302 -312 0
-302 -313 0
-302 -314 0
-302 -315 0
-302 -316 0
-302 -317 0
-302 -318 0
-302 -319 0
-302 -320 0
-302 -321 0
-302 -322 0
-302 -323 0
-302 -324 0
-302 -325 0
-302 -326 0
-302 -327 0
-302 -328 0
-302 -329 0
-302 -330 0
-302 -331 0
-302 -332 0
-302 -333 0
-302 -334 0
-302 -335 0
-302 -336 0
-302 -337 0
-302 -338 0
-302 -339 0
-302 -340 0
-302 -341 0
-302 -342 0
-302 -343 0
-302 -344 0
-302 -345 0
-302 -346 0
-302 -347 0
-302 -348 0
-302 -349 0
-302 -350 0
-302 -351 0
-302 -352 0
-302 -353 0
-302 -354 0
-302 -355 0
-302 -356 0
-302 -357 0
-302 -358 0
-302 -359 0
-302 -360 0
-302 -361 0
-302 -362 0
-302 -363 0
-302 -364 0
-302 -365 0
-302 -366 0
-302 -367 0
-302 -368 0
-302 -369 0
-302 -370 0
-302 -371 0
-302 -372 0
-302 -373 0
-302 -374 0
-302 -375 0
-302 -376 0
-302 -377 0
-302 -378 0
-302 -379 0
-302 -380 0
-302 -381 0
-302 -382 0
-303 -304 0
-303 -305 0
-303 -306 0
-303 -307 0
-303 -308 0
-303 -309 0
-303 -310 0
-303 -311 0
-303 -312 0
-303 -313 0
-303 -314 0
-303 -315 0
-303 -316 0
-303 -317 0
-303 -318 0
-303 -319 0
-303 -320 0
-303 -321 0
-303 -322 0
-303 -323 0
-303 -324 0
-303 -325 0
-303 -326 0
-303 -327 0
-303 -328 0
-303 -329 0
-303 -330 0
-303 -331 0
-303 -332 0
-303 -333 0
-303 -334 0
-303 -335 0
-303 -336 0
-303 -337 0
-303 -338 0
-303 -339 0
-303 -340 0
-303 -341 0
-303 -342 0
-303 -343 0
-303 -344 0
-303 -345 0
-303 -346 0
-303 -347 0
-303 -348 0
-303 -349 0
-303 -350 0
-303 -351 0
-303 -352 0
-303 -353 0
-303 -354 0
-303 -355 0
-303 -356 0
-303 -357 0
-303 -358 0
-303 -359 0
-303 -360 0
-303 -361 0
-303 -362 0
-303 -363 0
-303 -364 0
-303 -365 0
-303 -366 0
-303 -367 0
-303 -368 0
-303 -369 0
-303 -370 0
-303 -371 0
-303 -372 0
-303 -373 0
-303 -374 0
-303 -375 0
-303 -376 0
-303 -377 0
-303 -378 0
-303 -379 0
-303 -380 0
-303 -381 0
-303 -382 0
-304 -305 0
-304 -306 0
-304 -307 0
-304 -308 0
-304 -309 0
-304 -310 0
-304 -311 0
-304 -312 0
-304 -313 0
-304 -314 0
-304 -315 0
-304 -316 0
-304 -317 0
-304 -318 0
-304 -319 0
-304 -320 0
-304 -321 0
-304 -322 0
-304 -323 0
-304 -324 0
-304 -325 0
-304 -326 0
-304 -327 0
-304 -328 0
-304 -329 0
-304 -330 0
-304 -331 0
-304 -332 0
-304 -333 0
-304 -334 0
-304 -335 0
-304 -336 0
-304 -337 0
-304 -338 0
-304 -339 0
-304 -340 0
-304 -341 0
-304 -342 0
-304 -343 0
-304 -344 0
-304 -345 0
-304 -346 0
-304 -347 0
-304 -348 0
-304 -349 0
-304 -350 0
-304 -351 0
-304 -352 0
-304 -353 0
-304 -354 0
-304 -355 0
-304 -356 0
-304 -357 0
-304 -358 0
-304 -359 0
-304 -360 0
-304 -361 0
-304 -362 0
-304 -363 0
-304 -364 0
-304 -365 0
-304 -366 0
-304 -367 0
-304 -368 0
-304 -369 0
-304 -370 0
-304 -371 0
-304 -372 0
-304 -373 0
-304 -374 0
-304 -375 0
-304 -376 0
-304 -377 0
-304 -378 0
-304 -379 0
-304 -380 0
-304 -381 0
-304 -382 0
-305 -306 0
-305 -307 0
-305 -308 0
-305 -309 0
-305 -310 0
-305 -311 0
-305 -312 0
-305 -313 0
-305 -314 0
-305 -315 0
-305 -316 0
-305 -317 0
-305 -318 0
-305 -319 0
-305 -320 0
-305 -321 0
-305 -322 0
-305 -323 0
-305 -324 0
-305 -325 0
-305 -326 0
-305 -327 0
-305 -328 0
-305 -329 0
-305 -330 0
-305 -331 0
-305 -332 0
-305 -333 0
-305 -334 0
-305 -335 0
-305 -336 0
-305 -337 0
-305 -338 0
-305 -339 0
-305 -340 0
-305 -341 0
-305 -342 0
-305 -343 0
-305 -344 0
-305 -345 0
-305 -346 0
-305 -347 0
-305 -348 0
-305 -349 0
-305 -350 0
-305 -351 0
-305 -352 0
-305 -353 0
-305 -354 0
-305 -355 0
-305 -356 0
-305 -357 0
-305 -358 0
-305 -359 0
-305 -360 0
-305 -361 0
-305 -362 0
-305 -363 0
-305 -364 0
-305 -365 0
-305 -366 0
-305 -367 0
-305 -368 0
-305 -369 0
-305 -370 0
-305 -371 0
-305 -372 0
-305 -373 0
-305 -374 0
-305 -375 0
-305 -376 0
-305 -377 0
-305 -378 0
-305 -379 0
-305 -380 0
-305 -381 0
-305 -382 0
-306 -307 0
-306 -308 0
-306 -309 0
-306 -310 0
-306 -311 0
-306 -312 0
-306 -313 0
-306 -314 0
-306 -315 0
-306 -316 0
-306 -317 0
-306 -318 0
-306 -319 0
-306 -320 0
-306 -321 0
-306 -322 0
-306 -323 0
-306 -324 0
-306 -325 0
-306 -326 0
-306 -327 0
-306 -328 0
-306 -329 0
-306 -330 0
-306 -331 0
-306 -332 0
-306 -333 0
-306 -334 0
-306 -335 0
-306 -336 0
-306 -337 0
-306 -338 0
-306 -339 0
-306 -340 0
-306 -341 0
-306 -342 0
-306 -343 0
-306 -344 0
-306 -345 0
-306 -346 0
-306 -347 0
-306 -348 0
-306 -349 0
-306 -350 0
-306 -351 0
-306 -352 0
-306 -353 0
-306 -354 0
-306 -355 0
-306 -356 0
-306 -357 0
-306 -358 0
-306 -359 0
-306 -360 0
-306 -361 0
-306 -362 0
-306 -363 0
-306 -364 0
-306 -365 0
-306 -366 0
-306 -367 0
-306 -368 0
-306 -369 0
-306 -370 0
-306 -371 0
-306 -372 0
-306 -373 0
-306 -374 0
-306 -375 0
-306 -376 0
-306 -377 0
-306 -378 0
-306 -379 0
-306 -380 0
-306 -381 0
-306 -382 0
-307 -308 0
-307 -309 0
-307 -310 0
-307 -311 0
-307 -312 0
-307 -313 0
-307 -314 0
-307 -315 0
-307 -316 0
-307 -317 0
-307 -318 0
-307 -319 0
-307 -320 0
-307 -321 0
-307 -322 0
-307 -323 0
-307 -324 0
-307 -325 0
-307 -326 0
-307 -327 0
-307 -328 0
-307 -329 0
-307 -330 0
-307 -331 0
-307 -332 0
-307 -333 0
-307 -334 0
-307 -335 0
-307 -336 0
-307 -337 0
-307 -338 0
-307 -339 0
-307 -340 0
-307 -341 0
-307 -342 0
-307 -343 0
-307 -344 0
-307 -345 0
-307 -346 0
-307 -347 0
-307 -348 0
-307 -349 0
-307 -350 0
-307 -351 0
-307 -352 0
-307 -353 0
-307 -354 0
-307 -355 0
-307 -356 0
-307 -357 0
-307 -358 0
-307 -359 0
-307 -360 0
-307 -361 0
-307 -362 0
-307 -363 0
-307 -364 0
-307 -365 0
-307 -366 0
-307 -367 0
-307 -368 0
-307 -369 0
-307 -370 0
-307 -371 0
-307 -372 0
-307 -373 0
-307 -374 0
-307 -375 0
-307 -376 0
-307 -377 0
-307 -378 0
-307 -379 0
-307 -380 0
-307 -381 0
-307 -382 0
-308 -309 0
-308 -310 0
-308 -311 0
-308 -312 0
-308 -313 0
-308 -314 0
-308 -315 0
-308 -316 0
-308 -317 0
-308 -318 0
-308 -319 0
-308 -320 0
-308 -321 0
-308 -322 0
-308 -323 0
-308 -324 0
-308 -325 0
-308 -326 0
-308 -327 0
-308 -328 0
-308 -329 0
-308 -330 0
-308 -331 0
-308 -332 0
-308 -333 0
-308 -334 0
-308 -335 0
-308 -336 0
-308 -337 0
-308 -338 0
-308 -339 0
-308 -340 0
-308 -341 0
-308 -342 0
-308 -343 0
-308 -344 0
-308 -345 0
-308 -346 0
-308 -347 0
-308 -348 0
-308 -349 0
-308 -350 0
-308 -351 0
-308 -352 0
-308 -353 0
-308 -354 0
-308 -355 0
-308 -356 0
-308 -357 0
-308 -358 0
-308 -359 0
-308 -360 0
-308 -361 0
-308 -362 0
-308 -363 0
-308 -364 0
-308 -365 0
-308 -366 0
-308 -367 0
-308 -368 0
-308 -369 0
-308 -370 0
-308 -371 0
-308 -372 0
-308 -373 0
-308 -374 0
-308 -375 0
-308 -376 0
-308 -377 0
-308 -378 0
-308 -379 0
-308 -380 0
-308 -381 0
-308 -382 0
-309 -310 0
-309 -311 0
-309 -312 0
-309 -313 0
-309 -314 0
-309 -315 0
-309 -316 0
-309 -317 0
-309 -318 0
-309 -319 0
-309 -320 0
-309 -321 0
-309 -322 0
-309 -323 0
-309 -324 0
-309 -325 0
-309 -326 0
-309 -327 0
-309 -328 0
-309 -329 0
-309 -330 0
-309 -331 0
-309 -332 0
-309 -333 0
-309 -334 0
-309 -335 0
-309 -336 0
-309 -337 0
-309 -338 0
-309 -339 0
-309 -340 0
-309 -341 0
-309 -342 0
-309 -343 0
-309 -344 0
-309 -345 0
-309 -346 0
-309 -347 0
-309 -348 0
-309 -349 0
-309 -350 0
-309 -351 0
-309 -352 0
-309 -353 0
-309 -354 0
-309 -355 0
-309 -356 0
-309 -357 0
-309 -358 0
-309 -359 0
-309 -360 0
-309 -361 0
-309 -362 0
-309 -363 0
-309 -364 0
-309 -365 0
-309 -366 0
-309 -367 0
-309 -368 0
-309 -369 0
-309 -370 0
-309 -371 0
-309 -372 0
-309 -373 0
-309 -374 0
-309 -375 0
-309 -376 0
-309 -377 0
-309 -378 0
-309 -379 0
-309 -380 0
-309 -381 0
-309 -382 0
-310 -311 0
-310 -312 0
-310 -313 0
-310 -314 0
-310 -315 0
-310 -316 0
-310 -317 0
-310 -318 0
-310 -319 0
-310 -320 0
-310 -321 0
-310 -322 0
-310 -323 0
-310 -324 0
-310 -325 0
-310 -326 0
-310 -327 0
-310 -328 0
-310 -329 0
-310 -330 0
-310 -331 0
-310 -332 0
-310 -333 0
-310 -334 0
-310 -335 0
-310 -336 0
-310 -337 0
-310 -338 0
-310 -339 0
-310 -340 0
-310 -341 0
-310 -342 0
-310 -343 0
-310 -344 0
-310 -345 0
-310 -346 0
-310 -347 0
-310 -348 0
-310 -349 0
-310 -350 0
-310 -351 0
-310 -352 0
-310 -353 0
-310 -354 0
-310 -355 0
-310 -356 0
-310 -357 0
-310 -358 0
-310 -359 0
-310 -360 0
-310 -361 0
-310 -362 0
-310 -363 0
-310 -364 0
-310 -365 0
-310 -366 0
-310 -367 0
-310 -368 0
-310 -369 0
-310 -370 0
-310 -371 0
-310 -372 0
-310 -373 0
-310 -374 0
-310 -375 0
-310 -376 0
-310 -377 0
-310 -378 0
-310 -379 0
-310 -380 0
-310 -381 0
-310 -382 0
-311 -312 0
-311 -313 0
-311 -314 0
-311 -315 0
-311 -316 0
-311 -317 0
-311 -318 0
-311 -319 0
-311 -320 0
-311 -321 0
-311 -322 0
-311 -323 0
-311 -324 0
-311 -325 0
-311 -326 0
-311 -327 0
-311 -328 0
-311 -329 0
-311 -330 0
-311 -331 0
-311 -332 0
-311 -333 0
-311 -334 0
-311 -335 0
-311 -336 0
-311 -337 0
-311 -338 0
-311 -339 0
-311 -340 0
-311 -341 0
-311 -342 0
-311 -343 0
-311 -344 0
-311 -345 0
-311 -346 0
-311 -347 0
-311 -348 0
-311 -349 0
-311 -350 0
-311 -351 0
-311 -352 0
-311 -353 0
-311 -354 0
-311 -355 0
-311 -356 0
-311 -357 0
-311 -358 0
-311 -359 0
-311 -360 0
-311 -361 0
-311 -362 0
-311 -363 0
-311 -364 0
-311 -365 0
-311 -366 0
-311 -367 0
-311 -368 0
-311 -369 0
-311 -370 0
-311 -371 0
-311 -372 0
-311 -373 0
-311 -374 0
-311 -375 0
-311 -376 0
-311 -377 0
-311 -378 0
-311 -379 0
-311 -380 0
-311 -381 0
-311 -382 0
-312 -313 0
-312 -314 0
-312 -315 0
-312 -316 0
-312 -317 0
-312 -318 0
-312 -319 0
-312 -320 0
-312 -321 0
-312 -322 0
-312 -323 0
-312 -324 0
-312 -325 0
-312 -326 0
-312 -327 0
-312 -328 0
-312 -329 0
-312 -330 0
-312 -331 0
-312 -332 0
-312 -333 0
-312 -334 0
-312 -335 0
-312 -336 0
-312 -337 0
-312 -338 0
-312 -339 0
-312 -340 0
-312 -341 0
-312 -342 0
-312 -343 0
-312 -344 0
-312 -345 0
-312 -346 0
-312 -347 0
-312 -348 0
-312 -349 0
-312 -350 0
-312 -351 0
-312 -352 0
-312 -353 0
-312 -354 0
-312 -355 0
-312 -356 0
-312 -357 0
-312 -358 0
-312 -359 0
-312 -360 0
-312 -361 0
-312 -362 0
-312 -363 0
-312 -364 0
-312 -365 0
-312 -366 0
-312 -367 0
-312 -368 0
-312 -369 0
-312 -370 0
-312 -371 0
-312 -372 0
-312 -373 0
-312 -374 0
-312 -375 0
-312 -376 0
-312 -377 0
-312 -378 0
-312 -379 0
-312 -380 0
-312 -381 0
-312 -382 0
-313 -314 0
-313 -315 0
-313 -316 0
-313 -317 0
-313 -318 0
-313 -319 0
-313 -320 0
-313 -321 0
-313 -322 0
-313 -323 0
-313 -324 0
-313 -325 0
-313 -326 0
-313 -327 0
-313 -328 0
-313 -329 0
-313 -330 0
-313 -331 0
-313 -332 0
-313 -333 0
-313 -334 0
-313 -335 0
-313 -336 0
-313 -337 0
-313 -338 0
-313 -339 0
-313 -340 0
-313 -341 0
-313 -342 0
-313 -343 0
-313 -344 0
-313 -345 0
-313 -346 0
-313 -347 0
-313 -348 0
-313 -349 0
-313 -350 0
-313 -351 0
-313 -352 0
-313 -353 0
-313 -354 0
-313 -355 0
-313 -356 0
-313 -357 0
-313 -358 0
-313 -359 0
-313 -360 0
-313 -361 0
-313 -362 0
-313 -363 0
-313 -364 0
-313 -365 0
-313 -366 0
-313 -367 0
-313 -368 0
-313 -369 0
-313 -370 0
-313 -371 0
-313 -372 0
-313 -373 0
-313 -374 0
-313 -375 0
-313 -376 0
-313 -377 0
-313 -378 0
-313 -379 0
-313 -380 0
-313 -381 0
-313 -382 0
-314 -315 0
-314 -316 0
-314 -317 0
-314 -318 0
-314 -319 0
-314 -320 0
-314 -321 0
-314 -322 0
-314 -323 0
-314 -324 0
-314 -325 0
-314 -326 0
-314 -327 0
-314 -328 0
-314 -329 0
-314 -330 0
-314 -331 0
-314 -332 0
-314 -333 0
-314 -334 0
-314 -335 0
-314 -336 0
-314 -337 0
-314 -338 0
-314 -339 0
-314 -340 0
-314 -341 0
-314 -342 0
-314 -343 0
-314 -344 0
-314 -345 0
-314 -346 0
-314 -347 0
-314 -348 0
-314 -349 0
-314 -350 0
-314 -351 0
-314 -352 0
-314 -353 0
-314 -354 0
-314 -355 0
-314 -356 0
-314 -357 0
-314 -358 0
-314 -359 0
-314 -360 0
-314 -361 0
-314 -362 0
-314 -363 0
-314 -364 0
-314 -365 0
-314 -366 0
-314 -367 0
-314 -368 0
-314 -369 0
-314 -370 0
-314 -371 0
-314 -372 0
-314 -373 0
-314 -374 0
-314 -375 0
-314 -376 0
-314 -377 0
-314 -378 0
-314 -379 0
-314 -380 0
-314 -381 0
-314 -382 0
-315 -316 0
-315 -317 0
-315 -318 0
-315 -319 0
-315 -320 0
-315 -321 0
-315 -322 0
-315 -323 0
-315 -324 0
-315 -325 0
-315 -326 0
-315 -327 0
-315 -328 0
-315 -329 0
-315 -330 0
-315 -331 0
-315 -332 0
-315 -333 0
-315 -334 0
-315 -335 0
-315 -336 0
-315 -337 0
-315 -338 0
-315 -339 0
-315 -340 0
-315 -341 0
-315 -342 0
-315 -343 0
-315 -344 0
-315 -345 0
-315 -346 0
-315 -347 0
-315 -348 0
-315 -349 0
-315 -350 0
-315 -351 0
-315 -352 0
-315 -353 0
-315 -354 0
-315 -355 0
-315 -356 0
-315 -357 0
-315 -358 0
-315 -359 0
-315 -360 0
-315 -361 0
-315 -362 0
-315 -363 0
-315 -364 0
-315 -365 0
-315 -366 0
-315 -367 0
-315 -368 0
-315 -369 0
-315 -370 0
-315 -371 0
-315 -372 0
-315 -373 0
-315 -374 0
-315 -375 0
-315 -376 0
-315 -377 0
-315 -378 0
-315 -379 0
-315 -380 0
-315 -381 0
-315 -382 0
-316 -317 0
-316 -318 0
-316 -319 0
-316 -320 0
-316 -321 0
-316 -322 0
-316 -323 0
-316 -324 0
-316 -325 0
-316 -326 0
-316 -327 0
-316 -328 0
-316 -329 0
-316 -330 0
-316 -331 0
-316 -332 0
-316 -333 0
-316 -334 0
-316 -335 0
-316 -336 0
-316 -337 0
-316 -338 0
-316 -339 0
-316 -340 0
-316 -341 0
-316 -342 0
-316 -343 0
-316 -344 0
-316 -345 0
-316 -346 0
-316 -347 0
-316 -348 0
-316 -349 0
-316 -350 0
-316 -351 0
-316 -352 0
-316 -353 0
-316 -354 0
-316 -355 0
-316 -356 0
-316 -357 0
-316 -358 0
-316 -359 0
-316 -360 0
-316 -361 0
-316 -362 0
-316 -363 0
-316 -364 0
-316 -365 0
-316 -366 0
-316 -367 0
-316 -368 0
-316 -369 0
-316 -370 0
-316 -371 0
-316 -372 0
-316 -373 0
-316 -374 0
-316 -375 0
-316 -376 0
-316 -377 0
-316 -378 0
-316 -379 0
-316 -380 0
-316 -381 0
-316 -382 0
-317 -318 0
-317 -319 0
-317 -320 0
-317 -321 0
-317 -322 0
-317 -323 0
-317 -324 0
-317 -325 0
-317 -326 0
-317 -327 0
-317 -328 0
-317 -329 0
-317 -330 0
-317 -331 0
-317 -332 0
-317 -333 0
-317 -334 0
-317 -335 0
-317 -336 0
-317 -337 0
-317 -338 0
-317 -339 0
-317 -340 0
-317 -341 0
-317 -342 0
-317 -343 0
-317 -344 0
-317 -345 0
-317 -346 0
-317 -347 0
-317 -348 0
-317 -349 0
-317 -350 0
-317 -351 0
-317 -352 0
-317 -353 0
-317 -354 0
-317 -355 0
-317 -356 0
-317 -357 0
-317 -358 0
-317 -359 0
-317 -360 0
-317 -361 0
-317 -362 0
-317 -363 0
-317 -364 0
-317 -365 0
-317 -366 0
-317 -367 0
-317 -368 0
-317 -369 0
-317 -370 0
-317 -371 0
-317 -372 0
-317 -373 0
-317 -374 0
-317 -375 0
-317 -376 0
-317 -377 0
-317 -378 0
-317 -379 0
-317 -380 0
-317 -381 0
-317 -382 0
-318 -319 0
-318 -320 0
-318 -321 0
-318 -322 0
-318 -323 0
-318 -324 0
-318 -325 0
-318 -326 0
-318 -327 0
-318 -328 0
-318 -329 0
-318 -330 0
-318 -331 0
-318 -332 0
-318 -333 0
-318 -334 0
-318 -335 0
-318 -336 0
-318 -337 0
-318 -338 0
-318 -339 0
-318 -340 0
-318 -341 0
-318 -342 0
-318 -343 0
-318 -344 0
-318 -345 0
-318 -346 0
-318 -347 0
-318 -348 0
-318 -349 0
-318 -350 0
-318 -351 0
-318 -352 0
-318 -353 0
-318 -354 0
-318 -355 0
-318 -356 0
-318 -357 0
-318 -358 0
-318 -359 0
-318 -360 0
-318 -361 0
-318 -362 0
-318 -363 0
-318 -364 0
-318 -365 0
-318 -366 0
-318 -367 0
-318 -368 0
-318 -369 0
-318 -370 0
-318 -371 0
-318 -372 0
-318 -373 0
-318 -374 0
-318 -375 0
-318 -376 0
-318 -377 0
-318 -378 0
-318 -379 0
-318 -380 0
-318 -381 0
-318 -382 0
-319 -320 0
-319 -321 0
-319 -322 0
-319 -323 0
-319 -324 0
-319 -325 0
-319 -326 0
-319 -327 0
-319 -328 0
-319 -329 0
-319 -330 0
-319 -331 0
-319 -332 0
-319 -333 0
-319 -334 0
-319 -335 0
-319 -336 0
-319 -337 0
-319 -338 0
-319 -339 0
-319 -340 0
-319 -341 0
-319 -342 0
-319 -343 0
-319 -344 0
-319 -345 0
-319 -346 0
-319 -347 0
-319 -348 0
-319 -349 0
-319 -350 0
-319 -351 0
-319 -352 0
-319 -353 0
-319 -354 0
-319 -355 0
-319 -356 0
-319 -357 0
-319 -358 0
-319 -359 0
-319 -360 0
-319 -361 0
-319 -362 0
-319 -363 0
-319 -364 0
-319 -365 0
-319 -366 0
-319 -367 0
-319 -368 0
-319 -369 0
-319 -370 0
-319 -371 0
-319 -372 0
-319 -373 0
-319 -374 0
-319 -375 0
-319 -376 0
-319 -377 0
-319 -378 0
-319 -379 0
-319 -380 0
-319 -381 0
-319 -382 0
-320 -321 0
-320 -322 0
-320 -323 0
-320 -324 0
-320 -325 0
-320 -326 0
-320 -327 0
-320 -328 0
-320 -329 0
-320 -330 0
-320 -331 0
-320 -332 0
-320 -333 0
-320 -334 0
-320 -335 0
-320 -336 0
-320 -337 0
-320 -338 0
-320 -339 0
-320 -340 0
-320 -341 0
-320 -342 0
-320 -343 0
-320 -344 0
-320 -345 0
-320 -346 0
-320 -347 0
-320 -348 0
-320 -349 0
-320 -350 0
-320 -351 0
-320 -352 0
-320 -353 0
-320 -354 0
-320 -355 0
-320 -356 0
-320 -357 0
-320 -358 0
-320 -359 0
-320 -360 0
-320 -361 0
-320 -362 0
-320 -363 0
-320 -364 0
-320 -365 0
-320 -366 0
-320 -367 0
-320 -368 0
-320 -369 0
-320 -370 0
-320 -371 0
-320 -372 0
-320 -373 0
-320 -374 0
-320 -375 0
-320 -376 0
-320 -377 0
-320 -378 0
-320 -379 0
-320 -380 0
-320 -381 0
-320 -382 0
-321 -322 0
-321 -323 0
-321 -324 0
-321 -325 0
-321 -326 0
-321 -327 0
-321 -328 0
-321 -329 0
-321 -330 0
-321 -331 0
-321 -332 0
-321 -333 0
-321 -334 0
-321 -335 0
-321 -336 0
-321 -337 0
-321 -338 0
-321 -339 0
-321 -340 0
-321 -341 0
-321 -342 0
-321 -343 0
-321 -344 0
-321 -345 0
-321 -346 0
-321 -347 0
-321 -348 0
-321 -349 0
-321 -350 0
-321 -351 0
-321 -352 0
-321 -353 0
-321 -354 0
-321 -355 0
-321 -356 0
-321 -357 0
-321 -358 0
-321 -359 0
-321 -360 0
-321 -361 0
-321 -362 0
-321 -363 0
-321 -364 0
-321 -365 0
-321 -366 0
-321 -367 0
-321 -368 0
-321 -369 0
-321 -370 0
-321 -371 0
-321 -372 0
-321 -373 0
-321 -374 0
-321 -375 0
-321 -376 0
-321 -377 0
-321 -378 0
-321 -379 0
-321 -380 0
-321 -381 0
-321 -382 0
-322 -323 0
-322 -324 0
-322 -325 0
-322 -326 0
-322 -327 0
-322 -328 0
-322 -329 0
-322 -330 0
-322 -331 0
-322 -332 0
-322 -333 0
-322 -334 0
-322 -335 0
-322 -336 0
-322 -337 0
-322 -338 0
-322 -339 0
-322 -340 0
-322 -341 0
-322 -342 0
-322 -343 0
-322 -344 0
-322 -345 0
-322 -346 0
-322 -347 0
-322 -348 0
-322 -349 0
-322 -350 0
-322 -351 0
-322 -352 0
-322 -353 0
-322 -354 0
-322 -355 0
-322 -356 0
-322 -357 0
-322 -358 0
-322 -359 0
-322 -360 0
-322 -361 0
-322 -362 0
-322 -363 0
-322 -364 0
-322 -365 0
-322 -366 0
-322 -367 0
-322 -368 0
-322 -369 0
-322 -370 0
-322 -371 0
-322 -372 0
-322 -373 0
-322 -374 0
-322 -375 0
-322 -376 0
-322 -377 0
-322 -378 0
-322 -379 0
-322 -380 0
-322 -381 0
-322 -382 0
-323 -324 0
-323 -325 0
-323 -326 0
-323 -327 0
-323 -328 0
-323 -329 0
-323 -330 0
-323 -331 0
-323 -332 0
-323 -333 0
-323 -334 0
-323 -335 0
-323 -336 0
-323 -337 0
-323 -338 0
-323 -339 0
-323 -340 0
-323 -341 0
-323 -342 0
-323 -343 0
-323 -344 0
-323 -345 0
-323 -346 0
-323 -347 0
-323 -348 0
-323 -349 0
-323 -350 0
-323 -351 0
-323 -352 0
-323 -353 0
-323 -354 0
-323 -355 0
-323 -356 0
-323 -357 0
-323 -358 0
-323 -359 0
-323 -360 0
-323 -361 0
-323 -362 0
-323 -363 0
-323 -364 0
-323 -365 0
-323 -366 0
-323 -367 0
-323 -368 0
-323 -369 0
-323 -370 0
-323 -371 0
-323 -372 0
-323 -373 0
-323 -374 0
-323 -375 0
-323 -376 0
-323 -377 0
-323 -378 0
-323 -379 0
-323 -380 0
-323 -381 0
-323 -382 0
-324 -325 0
-324 -326 0
-324 -327 0
-324 -328 0
-324 -329 0
-324 -330 0
-324 -331 0
-324 -332 0
-324 -333 0
-324 -334 0
-324 -335 0
-324 -336 0
-324 -337 0
-324 -338 0
-324 -339 0
-324 -340 0
-324 -341 0
-324 -342 0
-324 -343 0
-324 -344 0
-324 -345 0
-324 -346 0
-324 -347 0
-324 -348 0
-324 -349 0
-324 -350 0
-324 -351 0
-324 -352 0
-324 -353 0
-324 -354 0
-324 -355 0
-324 -356 0
-324 -357 0
-324 -358 0
-324 -359 0
-324 -360 0
-324 -361 0
-324 -362 0
-324 -363 0
-324 -364 0
-324 -365 0
-324 -366 0
-324 -367 0
-324 -368 0
-324 -369 0
-324 -370 0
-324 -371 0
-324 -372 0
-324 -373 0
-324 -374 0
-324 -375 0
-324 -376 0
-324 -377 0
-324 -378 0
-324 -379 0
-324 -380 0
-324 -381 0
-324 -382 0
-325 -326 0
-325 -327 0
-325 -328 0
-325 -329 0
-325 -330 0
-325 -331 0
-325 -332 0
-325 -333 0
-325 -334 0
-325 -335 0
-325 -336 0
-325 -337 0
-325 -338 0
-325 -339 0
-325 -340 0
-325 -341 0
-325 -342 0
-325 -343 0
-325 -344 0
-325 -345 0
-325 -346 0
-325 -347 0
-325 -348 0
-325 -349 0
-325 -350 0
-325 -351 0
-325 -352 0
-325 -353 0
-325 -354 0
-325 -355 0
-325 -356 0
-325 -357 0
-325 -358 0
-325 -359 0
-325 -360 0
-325 -361 0
-325 -362 0
-325 -363 0
-325 -364 0
-325 -365 0
-325 -366 0
-325 -367 0
-325 -368 0
-325 -369 0
-325 -370 0
-325 -371 0
-325 -372 0
-325 -373 0
-325 -374 0
-325 -375 0
-325 -376 0
-325 -377 0
-325 -378 0
-325 -379 0
-325 -380 0
-325 -381 0
-325 -382 0
-326 -327 0
-326 -328 0
-326 -329 0
-326 -330 0
-326 -331 0
-326 -332 0
-326 -333 0
-326 -334 0
-326 -335 0
-326 -336 0
-326 -337 0
-326 -338 0
-326 -339 0
-326 -340 0
-326 -341 0
-326 -342 0
-326 -343 0
-326 -344 0
-326 -345 0
-326 -346 0
-326 -347 0
-326 -348 0
-326 -349 0
-326 -350 0
-326 -351 0
-326 -352 0
-326 -353 0
-326 -354 0
-326 -355 0
-326 -356 0
-326 -357 0
-326 -358 0
-326 -359 0
-326 -360 0
-326 -361 0
-326 -362 0
-326 -363 0
-326 -364 0
-326 -365 0
-326 -366 0
-326 -367 0
-326 -368 0
-326 -369 0
-326 -370 0
-326 -371 0
-326 -372 0
-326 -373 0
-326 -374 0
-326 -375 0
-326 -376 0
-326 -377 0
-326 -378 0
-326 -379 0
-326 -380 0
-326 -381 0
-326 -382 0
-327 -328 0
-327 -329 0
-327 -330 0
-327 -331 0
-327 -332 0
-327 -333 0
-327 -334 0
-327 -335 0
-327 -336 0
-327 -337 0
-327 -338 0
-327 -339 0
-327 -340 0
-327 -341 0
-327 -342 0
-327 -343 0
-327 -344 0
-327 -345 0
-327 -346 0
-327 -347 0
-327 -348 0
-327 -349 0
-327 -350 0
-327 -351 0
-327 -352 0
-327 -353 0
-327 -354 0
-327 -355 0
-327 -356 0
-327 -357 0
-327 -358 0
-327 -359 0
-327 -360 0
-327 -361 0
-327 -362 0
-327 -363 0
-327 -364 0
-327 -365 0
-327 -366 0
-327 -367 0
-327 -368 0
-327 -369 0
-327 -370 0
-327 -371 0
-327 -372 0
-327 -373 0
-327 -374 0
-327 -375 0
-327 -376 0
-327 -377 0
-327 -378 0
-327 -379 0
-327 -380 0
-327 -381 0
-327 -382 0
-328 -329 0
-328 -330 0
-328 -331 0
-328 -332 0
-328 -333 0
-328 -334 0
-328 -335 0
-328 -336 0
-328 -337 0
-328 -338 0
-328 -339 0
-328 -340 0
-328 -341 0
-328 -342 0
-328 -343 0
-328 -344 0
-328 -345 0
-328 -346 0
-328 -347 0
-328 -348 0
-328 -349 0
-328 -350 0
-328 -351 0
-328 -352 0
-328 -353 0
-328 -354 0
-328 -355 0
-328 -356 0
-328 -357 0
-328 -358 0
-328 -359 0
-328 -360 0
-328 -361 0
-328 -362 0
-328 -363 0
-328 -364 0
-328 -365 0
-328 -366 0
-328 -367 0
-328 -368 0
-328 -369 0
-328 -370 0
-328 -371 0
-328 -372 0
-328 -373 0
-328 -374 0
-328 -375 0
-328 -376 0
-328 -377 0
-328 -378 0
-328 -379 0
-328 -380 0
-328 -381 0
-328 -382 0
-329 -330 0
-329 -331 0
-329 -332 0
-329 -333 0
-329 -334 0
-329 -335 0
-329 -336 0
-329 -337 0
-329 -338 0
-329 -339 0
-329 -340 0
-329 -341 0
-329 -342 0
-329 -343 0
-329 -344 0
-329 -345 0
-329 -346 0
-329 -347 0
-329 -348 0
-329 -349 0
-329 -350 0
-329 -351 0
-329 -352 0
-329 -353 0
-329 -354 0
-329 -355 0
-329 -356 0
-329 -357 0
-329 -358 0
-329 -359 0
-329 -360 0
-329 -361 0
-329 -362 0
-329 -363 0
-329 -364 0
-329 -365 0
-329 -366 0
-329 -367 0
-329 -368 0
-329 -369 0
-329 -370 0
-329 -371 0
-329 -372 0
-329 -373 0
-329 -374 0
-329 -375 0
-329 -376 0
-329 -377 0
-329 -378 0
-329 -379 0
-329 -380 0
-329 -381 0
-329 -382 0
-330 -331 0
-330 -332 0
-330 -333 0
-330 -334 0
-330 -335 0
-330 -336 0
-330 -337 0
-330 -338 0
-330 -339 0
-330 -340 0
-330 -341 0
-330 -342 0
-330 -343 0
-330 -344 0
-330 -345 0
-330 -346 0
-330 -347 0
-330 -348 0
-330 -349 0
-330 -350 0
-330 -351 0
-330 -352 0
-330 -353 0
-330 -354 0
-330 -355 0
-330 -356 0
-330 -357 0
-330 -358 0
-330 -359 0
-330 -360 0
-330 -361 0
-330 -362 0
-330 -363 0
-330 -364 0
-330 -365 0
-330 -366 0
-330 -367 0
-330 -368 0
-330 -369 0
-330 -370 0
-330 -371 0
-330 -372 0
-330 -373 0
-330 -374 0
-330 -375 0
-330 -376 0
-330 -377 0
-330 -378 0
-330 -379 0
-330 -380 0
-330 -381 0
-330 -382 0
-331 -332 0
-331 -333 0
-331 -334 0
-331 -335 0
-331 -336 0
-331 -337 0
-331 -338 0
-331 -339 0
-331 -340 0
-331 -341 0
-331 -342 0
-331 -343 0
-331 -344 0
-331 -345 0
-331 -346 0
-331 -347 0
-331 -348 0
-331 -349 0
-331 -350 0
-331 -351 0
-331 -352 0
-331 -353 0
-331 -354 0
-331 -355 0
-331 -356 0
-331 -357 0
-331 -358 0
-331 -359 0
-331 -360 0
-331 -361 0
-331 -362 0
-331 -363 0
-331 -364 0
-331 -365 0
-331 -366 0
-331 -367 0
-331 -368 0
-331 -369 0
-331 -370 0
-331 -371 0
-331 -372 0
-331 -373 0
-331 -374 0
-331 -375 0
-331 -376 0
-331 -377 0
-331 -378 0
-331 -379 0
-331 -380 0
-331 -381 0
-331 -382 0
-332 -333 0
-332 -334 0
-332 -335 0
-332 -336 0
-332 -337 0
-332 -338 0
-332 -339 0
-332 -340 0
-332 -341 0
-332 -342 0
-332 -343 0
-332 -344 0
-332 -345 0
-332 -346 0
-332 -347 0
-332 -348 0
-332 -349 0
-332 -350 0
-332 -351 0
-332 -352 0
-332 -353 0
-332 -354 0
-332 -355 0
-332 -356 0
-332 -357 0
-332 -358 0
-332 -359 0
-332 -360 0
-332 -361 0
-332 -362 0
-332 -363 0
-332 -364 0
-332 -365 0
-332 -366 0
-332 -367 0
-332 -368 0
-332 -369 0
-332 -370 0
-332 -371 0
-332 -372 0
-332 -373 0
-332 -374 0
-332 -375 0
-332 -376 0
-332 -377 0
-332 -378 0
-332 -379 0
-332 -380 0
-332 -381 0
-332 -382 0
-333 -334 0
-333 -335 0
-333 -336 0
-333 -337 0
-333 -338 0
-333 -339 0
-333 -340 0
-333 -341 0
-333 -342 0
-333 -343 0
-333 -344 0
-333 -345 0
-333 -346 0
-333 -347 0
-333 -348 0
-333 -349 0
-333 -350 0
-333 -351 0
-333 -352 0
-333 -353 0
-333 -354 0
-333 -355 0
-333 -356 0
-333 -357 0
-333 -358 0
-333 -359 0
-333 -360 0
-333 -361 0
-333 -362 0
-333 -363 0
-333 -364 0
-333 -365 0
-333 -366 0
-333 -367 0
-333 -368 0
-333 -369 0
-333 -370 0
-333 -371 0
-333 -372 0
-333 -373 0
-333 -374 0
-333 -375 0
-333 -376 0
-333 -377 0
-333 -378 0
-333 -379 0
-333 -380 0
-333 -381 0
-333 -382 0
-334 -335 0
-334 -336 0
-334 -337 0
-334 -338 0
-334 -339 0
-334 -340 0
-334 -341 0
-334 -342 0
-334 -343 0
-334 -344 0
-334 -345 0
-334 -346 0
-334 -347 0
-334 -348 0
-334 -349 0
-334 -350 0
-334 -351 0
-334 -352 0
-334 -353 0
-334 -354 0
-334 -355 0
-334 -356 0
-334 -357 0
-334 -358 0
-334 -359 0
-334 -360 0
-334 -361 0
-334 -362 0
-334 -363 0
-334 -364 0
-334 -365 0
-334 -366 0
-334 -367 0
-334 -368 0
-334 -369 0
-334 -370 0
-334 -371 0
-334 -372 0
-334 -373 0
-334 -374 0
-334 -375 0
-334 -376 0
-334 -377 0
-334 -378 0
-334 -379 0
-334 -380 0
-334 -381 0
-334 -382 0
-335 -336 0
-335 -337 0
-335 -338 0
-335 -339 0
-335 -340 0
-335 -341 0
-335 -342 0
-335 -343 0
-335 -344 0
-335 -345 0
-335 -346 0
-335 -347 0
-335 -348 0
-335 -349 0
-335 -350 0
-335 -351 0
-335 -352 0
-335 -353 0
-335 -354 0
-335 -355 0
-335 -356 0
-335 -357 0
-335 -358 0
-335 -359 0
-335 -360 0
-335 -361 0
-335 -362 0
-335 -363 0
-335 -364 0
-335 -365 0
-335 -366 0
-335 -367 0
-335 -368 0
-335 -369 0
-335 -370 0
-335 -371 0
-335 -372 0
-335 -373 0
-335 -374 0
-335 -375 0
-335 -376 0
-335 -377 0
-335 -378 0
-335 -379 0
-335 -380 0
-335 -381 0
-335 -382 0
-336 -337 0
-336 -338 0
-336 -339 0
-336 -340 0
-336 -341 0
-336 -342 0
-336 -343 0
-336 -344 0
-336 -345 0
-336 -346 0
-336 -347 0
-336 -348 0
-336 -349 0
-336 -350 0
-336 -351 0
-336 -352 0
-336 -353 0
-336 -354 0
-336 -355 0
-336 -356 0
-336 -357 0
-336 -358 0
-336 -359 0
-336 -360 0
-336 -361 0
-336 -362 0
-336 -363 0
-336 -364 0
-336 -365 0
-336 -366 0
-336 -367 0
-336 -368 0
-336 -369 0
-336 -370 0
-336 -371 0
-336 -372 0
-336 -373 0
-336 -374 0
-336 -375 0
-336 -376 0
-336 -377 0
-336 -378 0
-336 -379 0
-336 -380 0
-336 -381 0
-336 -382 0
-337 -338 0
-337 -339 0
-337 -340 0
-337 -341 0
-337 -342 0
-337 -343 0
-337 -344 0
-337 -345 0
-337 -346 0
-337 -347 0
-337 -348 0
-337 -349 0
-337 -350 0
-337 -351 0
-337 -352 0
-337 -353 0
-337 -354 0
-337 -355 0
-337 -356 0
-337 -357 0
-337 -358 0
-337 -359 0
-337 -360 0
-337 -361 0
-337 -362 0
-337 -363 0
-337 -364 0
-337 -365 0
-337 -366 0
-337 -367 0
-337 -368 0
-337 -369 0
-337 -370 0
-337 -371 0
-337 -372 0
-337 -373 0
-337 -374 0
-337 -375 0
-337 -376 0
-337 -377 0
-337 -378 0
-337 -379 0
-337 -380 0
-337 -381 0
-337 -382 0
-338 -339 0
-338 -340 0
-338 -341 0
-338 -342 0
-338 -343 0
-338 -344 0
-338 -345 0
-338 -346 0
-338 -347 0
-338 -348 0
-338 -349 0
-338 -350 0
-338 -351 0
-338 -352 0
-338 -353 0
-338 -354 0
-338 -355 0
-338 -356 0
-338 -357 0
-338 -358 0
-338 -359 0
-338 -360 0
-338 -361 0
-338 -362 0
-338 -363 0
-338 -364 0
-338 -365 0
-338 -366 0
-338 -367 0
-338 -368 0
-338 -369 0
-338 -370 0
-338 -371 0
-338 -372 0
-338 -373 0
-338 -374 0
-338 -375 0
-338 -376 0
-338 -377 0
-338 -378 0
-338 -379 0
-338 -380 0
-338 -381 0
-338 -382 0
-339 -340 0
-339 -341 0
-339 -342 0
-339 -343 0
-339 -344 0
-339 -345 0
-339 -346 0
-339 -347 0
-339 -348 0
-339 -349 0
-339 -350 0
-339 -351 0
-339 -352 0
-339 -353 0
-339 -354 0
-339 -355 0
-339 -356 0
-339 -357 0
-339 -358 0
-339 -359 0
-339 -360 0
-339 -361 0
-339 -362 0
-339 -363 0
-339 -364 0
-339 -365 0
-339 -366 0
-339 -367 0
-339 -368 0
-339 -369 0
-339 -370 0
-339 -371 0
-339 -372 0
-339 -373 0
-339 -374 0
-339 -375 0
-339 -376 0
-339 -377 0
-339 -378 0
-339 -379 0
-339 -380 0
-339 -381 0
-339 -382 0
-340 -341 0
-340 -342 0
-340 -343 0
-340 -344 0
-340 -345 0
-340 -346 0
-340 -347 0
-340 -348 0
-340 -349 0
-340 -350 0
-340 -351 0
-340 -352 0
-340 -353 0
-340 -354 0
-340 -355 0
-340 -356 0
-340 -357 0
-340 -358 0
-340 -359 0
-340 -360 0
-340 -361 0
-340 -362 0
-340 -363 0
-340 -364 0
-340 -365 0
-340 -366 0
-340 -367 0
-340 -368 0
-340 -369 0
-340 -370 0
-340 -371 0
-340 -372 0
-340 -373 0
-340 -374 0
-340 -375 0
-340 -376 0
-340 -377 0
-340 -378 0
-340 -379 0
-340 -380 0
-340 -381 0
-340 -382 0
-341 -342 0
-341 -343 0
-341 -344 0
-341 -345 0
-341 -346 0
-341 -347 0
-341 -348 0
-341 -349 0
-341 -350 0
-341 -351 0
-341 -352 0
-341 -353 0
-341 -354 0
-341 -355 0
-341 -356 0
-341 -357 0
-341 -358 0
-341 -359 0
-341 -360 0
-341 -361 0
-341 -362 0
-341 -363 0
-341 -364 0
-341 -365 0
-341 -366 0
-341 -367 0
-341 -368 0
-341 -369 0
-341 -370 0
-341 -371 0
-341 -372 0
-341 -373 0
-341 -374 0
-341 -375 0
-341 -376 0
-341 -377 0
-341 -378 0
-341 -379 0
-341 -380 0
-341 -381 0
-341 -382 0
-342 -343 0
-342 -344 0
-342 -345 0
-342 -346 0
-342 -347 0
-342 -348 0
-342 -349 0
-342 -350 0
-342 -351 0
-342 -352 0
-342 -353 0
-342 -354 0
-342 -355 0
-342 -356 0
-342 -357 0
-342 -358 0
-342 -359 0
-342 -360 0
-342 -361 0
-342 -362 0
-342 -363 0
-342 -364 0
-342 -365 0
-342 -366 0
-342 -367 0
-342 -368 0
-342 -369 0
-342 -370 0
-342 -371 0
-342 -372 0
-342 -373 0
-342 -374 0
-342 -375 0
-342 -376 0
-342 -377 0
-342 -378 0
-342 -379 0
-342 -380 0
-342 -381 0
-342 -382 0
-343 -344 0
-343 -345 0
-343 -346 0
-343 -347 0
-343 -348 0
-343 -349 0
-343 -350 0
-343 -351 0
-343 -352 0
-343 -353 0
-343 -354 0
-343 -355 0
-343 -356 0
-343 -357 0
-343 -358 0
-343 -359 0
-343 -360 0
-343 -361 0
-343 -362 0
-343 -363 0
-343 -364 0
-343 -365 0
-343 -366 0
-343 -367 0
-343 -368 0
-343 -369 0
-343 -370 0
-343 -371 0
-343 -372 0
-343 -373 0
-343 -374 0
-343 -375 0
-343 -376 0
-343 -377 0
-343 -378 0
-343 -379 0
-343 -380 0
-343 -381 0
-343 -382 0
-344 -345 0
-344 -346 0
-344 -347 0
-344 -348 0
-344 -349 0
-344 -350 0
-344 -351 0
-344 -352 0
-344 -353 0
-344 -354 0
-344 -355 0
-344 -356 0
-344 -357 0
-344 -358 0
-344 -359 0
-344 -360 0
-344 -361 0
-344 -362 0
-344 -363 0
-344 -364 0
-344 -365 0
-344 -366 0
-344 -367 0
-344 -368 0
-344 -369 0
-344 -370 0
-344 -371 0
-344 -372 0
-344 -373 0
-344 -374 0
-344 -375 0
-344 -376 0
-344 -377 0
-344 -378 0
-344 -379 0
-344 -380 0
-344 -381 0
-344 -382 0
-345 -346 0
-345 -347 0
-345 -348 0
-345 -349 0
-345 -350 0
-345 -351 0
-345 -352 0
-345 -353 0
-345 -354 0
-345 -355 0
-345 -356 0
-345 -357 0
-345 -358 0
-345 -359 0
-345 -360 0
-345 -361 0
-345 -362 0
-345 -363 0
-345 -364 0
-345 -365 0
-345 -366 0
-345 -367 0
-345 -368 0
-345 -369 0
-345 -370 0
-345 -371 0
-345 -372 0
-345 -373 0
-345 -374 0
-345 -375 0
-345 -376 0
-345 -377 0
-345 -378 0
-345 -379 0
-345 -380 0
-345 -381 0
-345 -382 0
-346 -347 0
-346 -348 0
-346 -349 0
-346 -350 0
-346 -351 0
-346 -352 0
-346 -353 0
-346 -354 0
-346 -355 0
-346 -356 0
-346 -357 0
-346 -358 0
-346 -359 0
-346 -360 0
-346 -361 0
-346 -362 0
-346 -363 0
-346 -364 0
-346 -365 0
-346 -366 0
-346 -367 0
-346 -368 0
-346 -369 0
-346 -370 0
-346 -371 0
-346 -372 0
-346 -373 0
-346 -374 0
-346 -375 0
-346 -376 0
-346 -377 0
-346 -378 0
-346 -379 0
-346 -380 0
-346 -381 0
-346 -382 0
-347 -348 0
-347 -349 0
-347 -350 0
-347 -351 0
-347 -352 0
-347 -353 0
-347 -354 0
-347 -355 0
-347 -356 0
-347 -357 0
-347 -358 0
-347 -359 0
-347 -360 0
-347 -361 0
-347 -362 0
-347 -363 0
-347 -364 0
-347 -365 0
-347 -366 0
-347 -367 0
-347 -368 0
-347 -369 0
-347 -370 0
-347 -371 0
-347 -372 0
-347 -373 0
-347 -374 0
-347 -375 0
-347 -376 0
-347 -377 0
-347 -378 0
-347 -379 0
-347 -380 0
-347 -381 0
-347 -382 0
-348 -349 0
-348 -350 0
-348 -351 0
-348 -352 0
-348 -353 0
-348 -354 0
-348 -355 0
-348 -356 0
-348 -357 0
-348 -358 0
-348 -359 0
-348 -360 0
-348 -361 0
-348 -362 0
-348 -363 0
-348 -364 0
-348 -365 0
-348 -366 0
-348 -367 0
-348 -368 0
-348 -369 0
-348 -370 0
-348 -371 0
-348 -372 0
-348 -373 0
-348 -374 0
-348 -375 0
-348 -376 0
-348 -377 0
-348 -378 0
-348 -379 0
-348 -380 0
-348 -381 0
-348 -382 0
-349 -350 0
-349 -351 0
-349 -352 0
-349 -353 0
-349 -354 0
-349 -355 0
-349 -356 0
-349 -357 0
-349 -358 0
-349 -359 0
-349 -360 0
-349 -361 0
-349 -362 0
-349 -363 0
-349 -364 0
-349 -365 0
-349 -366 0
-349 -367 0
-349 -368 0
-349 -369 0
-349 -370 0
-349 -371 0
-349 -372 0
-349 -373 0
-349 -374 0
-349 -375 0
-349 -376 0
-349 -377 0
-349 -378 0
-349 -379 0
-349 -380 0
-349 -381 0
-349 -382 0
-350 -351 0
-350 -352 0
-350 -353 0
-350 -354 0
-350 -355 0
-350 -356 0
-350 -357 0
-350 -358 0
-350 -359 0
-350 -360 0
-350 -361 0
-350 -362 0
-350 -363 0
-350 -364 0
-350 -365 0
-350 -366 0
-350 -367 0
-350 -368 0
-350 -369 0
-350 -370 0
-350 -371 0
-350 -372 0
-350 -373 0
-350 -374 0
-350 -375 0
-350 -376 0
-350 -377 0
-350 -378 0
-350 -379 0
-350 -380 0
-350 -381 0
-350 -382 0
-351 -352 0
-351 -353 0
-351 -354 0
-351 -355 0
-351 -356 0
-351 -357 0
-351 -358 0
-351 -359 0
-351 -360 0
-351 -361 0
-351 -362 0
-351 -363 0
-351 -364 0
-351 -365 0
-351 -366 0
-351 -367 0
-351 -368 0
-351 -369 0
-351 -370 0
-351 -371 0
-351 -372 0
-351 -373 0
-351 -374 0
-351 -375 0
-351 -376 0
-351 -377 0
-351 -378 0
-351 -379 0
-351 -380 0
-351 -381 0
-351 -382 0
-352 -353 0
-352 -354 0
-352 -355 0
-352 -356 0
-352 -357 0
-352 -358 0
-352 -359 0
-352 -360 0
-352 -361 0
-352 -362 0
-352 -363 0
-352 -364 0
-352 -365 0
-352 -366 0
-352 -367 0
-352 -368 0
-352 -369 0
-352 -370 0
-352 -371 0
-352 -372 0
-352 -373 0
-352 -374 0
-352 -375 0
-352 -376 0
-352 -377 0
-352 -378 0
-352 -379 0
-352 -380 0
-352 -381 0
-352 -382 0
-353 -354 0
-353 -355 0
-353 -356 0
-353 -357 0
-353 -358 0
-353 -359 0
-353 -360 0
-353 -361 0
-353 -362 0
-353 -363 0
-353 -364 0
-353 -365 0
-353 -366 0
-353 -367 0
-353 -368 0
-353 -369 0
-353 -370 0
-353 -371 0
-353 -372 0
-353 -373 0
-353 -374 0
-353 -375 0
-353 -376 0
-353 -377 0
-353 -378 0
-353 -379 0
-353 -380 0
-353 -381 0
-353 -382 0
-354 -355 0
-354 -356 0
-354 -357 0
-354 -358 0
-354 -359 0
-354 -360 0
-354 -361 0
-354 -362 0
-354 -363 0
-354 -364 0
-354 -365 0
-354 -366 0
-354 -367 0
-354 -368 0
-354 -369 0
-354 -370 0
-354 -371 0
-354 -372 0
-354 -373 0
-354 -374 0
-354 -375 0
-354 -376 0
-354 -377 0
-354 -378 0
-354 -379 0
-354 -380 0
-354 -381 0
-354 -382 0
-355 -356 0
-355 -357 0
-355 -358 0
-355 -359 0
-355 -360 0
-355 -361 0
-355 -362 0
-355 -363 0
-355 -364 0
-355 -365 0
-355 -366 0
-355 -367 0
-355 -368 0
-355 -369 0
-355 -370 0
-355 -371 0
-355 -372 0
-355 -373 0
-355 -374 0
-355 -375 0
-355 -376 0
-355 -377 0
-355 -378 0
-355 -379 0
-355 -380 0
-355 -381 0
-355 -382 0
-356 -357 0
-356 -358 0
-356 -359 0
-356 -360 0
-356 -361 0
-356 -362 0
-356 -363 0
-356 -364 0
-356 -365 0
-356 -366 0
-356 -367 0
-356 -368 0
-356 -369 0
-356 -370 0
-356 -371 0
-356 -372 0
-356 -373 0
-356 -374 0
-356 -375 0
-356 -376 0
-356 -377 0
-356 -378 0
-356 -379 0
-356 -380 0
-356 -381 0
-356 -382 0
-357 -358 0
-357 -359 0
-357 -360 0
-357 -361 0
-357 -362 0
-357 -363 0
-357 -364 0
-357 -365 0
-357 -366 0
-357 -367 0
-357 -368 0
-357 -369 0
-357 -370 0
-357 -371 0
-357 -372 0
-357 -373 0
-357 -374 0
-357 -375 0
-357 -376 0
-357 -377 0
-357 -378 0
-357 -379 0
-357 -380 0
-357 -381 0
-357 -382 0
-358 -359 0
-358 -360 0
-358 -361 0
-358 -362 0
-358 -363 0
-358 -364 0
-358 -365 0
-358 -366 0
-358 -367 0
-358 -368 0
-358 -369 0
-358 -370 0
-358 -371 0
-358 -372 0
-358 -373 0
-358 -374 0
-358 -375 0
-358 -376 0
-358 -377 0
-358 -378 0
-358 -379 0
-358 -380 0
-358 -381 0
-358 -382 0
-359 -360 0
-359 -361 0
-359 -362 0
-359 -363 0
-359 -364 0
-359 -365 0
-359 -366 0
-359 -367 0
-359 -368 0
-359 -369 0
-359 -370 0
-359 -371 0
-359 -372 0
-359 -373 0
-359 -374 0
-359 -375 0
-359 -376 0
-359 -377 0
-359 -378 0
-359 -379 0
-359 -380 0
-359 -381 0
-359 -382 0
-360 -361 0
-360 -362 0
-360 -363 0
-360 -364 0
-360 -365 0
-360 -366 0
-360 -367 0
-360 -368 0
-360 -369 0
-360 -370 0
-360 -371 0
-360 -372 0
-360 -373 0
-360 -374 0
-360 -375 0
-360 -376 0
-360 -377 0
-360 -378 0
-360 -379 0
-360 -380 0
-360 -381 0
-360 -382 0
-361 -362 0
-361 -363 0
-361 -364 0
-361 -365 0
-361 -366 0
-361 -367 0
-361 -368 0
-361 -369 0
-361 -370 0
-361 -371 0
-361 -372 0
-361 -373 0
-361 -374 0
-361 -375 0
-361 -376 0
-361 -377 0
-361 -378 0
-361 -379 0
-361 -380 0
-361 -381 0
-361 -382 0
-362 -363 0
-362 -364 0
-362 -365 0
-362 -366 0
-362 -367 0
-362 -368 0
-362 -369 0
-362 -370 0
-362 -371 0
-362 -372 0
-362 -373 0
-362 -374 0
-362 -375 0
-362 -376 0
-362 -377 0
-362 -378 0
-362 -379 0
-362 -380 0
-362 -381 0
-362 -382 0
-363 -364 0
-363 -365 0
-363 -366 0
-363 -367 0
-363 -368 0
-363 -369 0
-363 -370 0
-363 -371 0
-363 -372 0
-363 -373 0
-363 -374 0
-363 -375 0
-363 -376 0
-363 -377 0
-363 -378 0
-363 -379 0
-363 -380 0
-363 -381 0
-363 -382 0
-364 -365 0
-364 -366 0
-364 -367 0
-364 -368 0
-364 -369 0
-364 -370 0
-364 -371 0
-364 -372 0
-364 -373 0
-364 -374 0
-364 -375 0
-364 -376 0
-364 -377 0
-364 -378 0
-364 -379 0
-364 -380 0
-364 -381 0
-364 -382 0
-365 -366 0
-365 -367 0
-365 -368 0
-365 -369 0
-365 -370 0
-365 -371 0
-365 -372 0
-365 -373 0
-365 -374 0
-365 -375 0
-365 -376 0
-365 -377 0
-365 -378 0
-365 -379 0
-365 -380 0
-365 -381 0
-365 -382 0
-366 -367 0
-366 -368 0
-366 -369 0
-366 -370 0
-366 -371 0
-366 -372 0
-366 -373 0
-366 -374 0
-366 -375 0
-366 -376 0
-366 -377 0
-366 -378 0
-366 -379 0
-366 -380 0
-366 -381 0
-366 -382 0
-367 -368 0
-367 -369 0
-367 -370 0
-367 -371 0
-367 -372 0
-367 -373 0
-367 -374 0
-367 -375 0
-367 -376 0
-367 -377 0
-367 -378 0
-367 -379 0
-367 -380 0
-367 -381 0
-367 -382 0
-368 -369 0
-368 -370 0
-368 -371 0
-368 -372 0
-368 -373 0
-368 -374 0
-368 -375 0
-368 -376 0
-368 -377 0
-368 -378 0
-368 -379 0
-368 -380 0
-368 -381 0
-368 -382 0
-369 -370 0
-369 -371 0
-369 -372 0
-369 -373 0
-369 -374 0
-369 -375 0
-369 -376 0
-369 -377 0
-369 -378 0
-369 -379 0
-369 -380 0
-369 -381 0
-369 -382 0
-370 -371 0
-370 -372 0
-370 -373 0
-370 -374 0
-370 -375 0
-370 -376 0
-370 -377 0
-370 -378 0
-370 -379 0
-370 -380 0
-370 -381 0
-370 -382 0
-371 -372 0
-371 -373 0
-371 -374 0
-371 -375 0
-371 -376 0
-371 -377 0
-371 -378 0
-371 -379 0
-371 -380 0
-371 -381 0
-371 -382 0
-372 -373 0
-372 -374 0
-372 -375 0
-372 -376 0
-372 -377 0
-372 -378 0
-372 -379 0
-372 -380 0
-372 -381 0
-372 -382 0
-373 -374 0
-373 -375 0
-373 -376 0
-373 -377 0
-373 -378 0
-373 -379 0
-373 -380 0
-373 -381 0
-373 -382 0
-374 -375 0
-374 -376 0
-374 -377 0
-374 -378 0
-374 -379 0
-374 -380 0
-374 -381 0
-374 -382 0
-375 -376 0
-375 -377 0
-375 -378 0
-375 -379 0
-375 -380 0
-375 -381 0
-375 -382 0
-376 -377 0
-376 -378 0
-376 -379 0
-376 -380 0
-376 -381 0
-376 -382 0
-377 -378 0
-377 -379 0
-377 -380 0
-377 -381 0
-377 -382 0
-378 -379 0
-378 -380 0
-378 -381 0
-378 -382 0
-379 -380 0
-379 -381 0
-379 -382 0
-380 -381 0
-380 -382 0
-381 -382 0
-383 299 300 301 302 303 304 305 306 307 308 309 310 311 312 313 314 315 316 317 318 319 320 321 322 0
-299 383 0
-300 383 0
-301 383 0
-302 383 0
-303 383 0
-304 383 0
-305 383 0
-306 383 0
-307 383 0
-308 383 0
-309 383 0
-310 383 0
-311 383 0
-312 383 0
-313 383 0
-314 383 0
-315 383 0
-316 383 0
-317 383 0
-318 383 0
-319 383 0
-320 383 0
-321 383 0
-322 383 0
383 -1 150 0
383 1 -150 0
383 -2 151 0
383 2 -151 0
383 -3 152 0
383 3 -152 0
383 -4 153 0
383 4 -153 0
383 -5 154 0
383 5 -154 0
383 -6 155 0
383 6 -155 0
383 -7 156 0
383 7 -156 0
383 -8 157 0
383 8 -157 0
383 -9 158 0
383 9 -158 0
383 -10 159 0
383 10 -159 0
-384 323 324 325 326 327 328 329 330 331 332 333 334 335 336 337 338 339 340 341 342 343 344 345 346 0
-323 384 0
-324 384 0
-325 384 0
-326 384 0
-327 384 0
-328 384 0
-329 384 0
-330 384 0
-331 384 0
-332 384 0
-333 384 0
-334 384 0
-335 384 0
-336 384 0
-337 384 0
-338 384 0
-339 384 0
-340 384 0
-341 384 0
-342 384 0
-343 384 0
-344 384 0
-345 384 0
-346 384 0
384 -11 160 0
384 11 -160 0
384 -12 161 0
384 12 -161 0
384 -13 162 0
384 13 -162 0
384 -14 163 0
384 14 -163 0
384 -15 164 0
384 15 -164 0
384 -16 165 0
384 16 -165 0
384 -17 166 0
384 17 -166 0
384 -18 167 0
384 18 -167 0
384 -19 168 0
384 19 -168 0
384 -20 169 0
384 20 -169 0
-385 347 348 349 350 351 352 353 354 355 356 357 358 359 360 361 362 363 364 365 366 0
-347 385 0
-348 385 0
-349 385 0
-350 385 0
-351 385 0
-352 385 0
-353 385 0
-354 385 0
-355 385 0
-356 385 0
-357 385 0
-358 385 0
-359 385 0
-360 385 0
-361 385 0
-362 385 0
-363 385 0
-364 385 0
-365 385 0
-366 385 0
385 -21 170 0
385 21 -170 0
385 -22 171 0
385 22 -171 0
385 -23 172 0
385 23 -172 0
385 -24 173 0
385 24 -173 0
385 -25 174 0
385 25 -174 0
385 -26 175 0
385 26 -175 0
385 -27 176 0
385 27 -176 0
385 -28 177 0
385 28 -177 0
385 -29 178 0
385 29 -178 0
-386 367 368 369 370 371 372 373 374 375 376 377 378 379 380 381 382 0
-367 386 0
-368 386 0
-369 386 0
-370 386 0
-371 386 0
-372 386 0
-373 386 0
-374 386 0
-375 386 0
-376 386 0
-377 386 0
-378 386 0
-379 386 0
-380 386 0
-381 386 0
-382 386 0
386 -30 179 0
386 30 -179 0
386 -31 180 0
386 31 -180 0
386 -32 181 0
386 32 -181 0
386 -33 182 0
386 33 -182 0
386 -34 183 0
386 34 -183 0
386 -35 184 0
386 35 -184 0
386 -36 185 0
386 36 -185 0
386 -37 186 0
386 37 -186 0
-299 146 0
-299 150 0
-299 -12 0
-299 -13 0
-299 -14 0
-299 -15 0
-299 -16 0
-299 -20 0
-299 -17 157 0
-299 -17 -1 -8 0
-299 -17 -63 0
-299 -17 -64 0
-299 -17 -65 0
-299 -17 -87 0
-299 -17 -88 0
-299 -17 -89 0
-299 -17 -107 0
-299 -17 -108 0
-299 -17 -109 0
-299 -18 158 0
-299 -18 -1 -9 0
-299 -18 -64 0
-299 -18 -65 0
-299 -18 -88 0
-299 -18 -89 0
-299 -18 -108 0
-299 -18 -109 0
-299 -19 159 0
-299 -19 -1 -10 0
-299 -19 -65 0
-299 -19 -89 0
-299 -19 -109 0
-300 146 0
-300 151 0
-300 -11 0
-300 -13 0
-300 -14 0
-300 -15 0
-300 -16 0
-300 -20 0
-300 -17 157 0
-300 -17 -2 -8 0
-300 -17 -67 0
-300 -17 -68 0
-300 -17 -69 0
-300 -17 -87 0
-300 -17 -88 0
-300 -17 -89 0
-300 -17 -91 0
-300 -17 -92 0
-300 -17 -93 0
-300 -17 -107 0
-300 -17 -108 0
-300 -17 -109 0
-300 -17 -111 0
-300 -17 -112 0
-300 -17 -113 0
-300 -18 158 0
-300 -18 -2 -9 0
-300 -18 -68 0
-300 -18 -69 0
-300 -18 -88 0
-300 -18 -89 0
-300 -18 -92 0
-300 -18 -93 0
-300 -18 -108 0
-300 -18 -109 0
-300 -18 -112 0
-300 -18 -113 0
-300 -19 159 0
-300 -19 -2 -10 0
-300 -19 -69 0
-300 -19 -89 0
-300 -19 -93 0
-300 -19 -109 0
-300 -19 -113 0
-301 146 0
-301 152 0
-301 -11 0
-301 -12 0
-301 -14 0
-301 -15 0
-301 -16 0
-301 -20 0
-301 -17 157 0
-301 -17 -3 -8 0
-301 -17 -71 0
-301 -17 -72 0
-301 -17 -73 0
-301 -17 -91 0
-301 -17 -92 0
-301 -17 -93 0
-301 -17 -95 0
-301 -17 -96 0
-301 -17 -97 0
-301 -17 -107 0
-301 -17 -108 0
-301 -17 -109 0
-301 -17 -111 0
-301 -17 -112 0
-301 -17 -113 0
-301 -17 -115 0
-301 -17 -116 0
-301 -17 -117 0
-301 -18 158 0
-301 -18 -3 -9 0
-301 -18 -72 0
-301 -18 -73 0
-301 -18 -92 0
-301 -18 -93 0
-301 -18 -96 0
-301 -18 -97 0
-301 -18 -108 0
-301 -18 -109 0
-301 -18 -112 0
-301 -18 -113 0
-301 -18 -116 0
-301 -18 -117 0
-301 -19 159 0
-301 -19 -3 -10 0
-301 -19 -73 0
-301 -19 -93 0
-301 -19 -97 0
-301 -19 -109 0
-301 -19 -113 0
-301 -19 -117 0
-302 146 0
-302 153 0
-302 -11 0
-302 -12 0
-302 -13 0
-302 -15 0
-302 -16 0
-302 -20 0
-302 -17 157 0
-302 -17 -4 -8 0
-302 -17 -75 0
-302 -17 -76 0
-302 -17 -77 0
-302 -17 -95 0
-302 -17 -96 0
-302 -17 -97 0
-302 -17 -99 0
-302 -17 -100 0
-302 -17 -101 0
-302 -17 -111 0
-302 -17 -112 0
-302 -17 -113 0
-302 -17 -115 0
-302 -17 -116 0
-302 -17 -117 0
-302 -17 -119 0
-302 -17 -120 0
-302 -17 -121 0
-302 -18 158 0
-302 -18 -4 -9 0
-302 -18 -76 0
-302 -18 -77 0
-302 -18 -96 0
-302 -18 -97 0
-302 -18 -100 0
-302 -18 -101 0
-302 -18 -112 0
-302 -18 -113 0
-302 -18 -116 0
-302 -18 -117 0
-302 -18 -120 0
-302 -18 -121 0
-302 -19 159 0
-302 -19 -4 -10 0
-302 -19 -77 0
-302 -19 -97 0
-302 -19 -101 0
-302 -19 -113 0
-302 -19 -117 0
-302 -19 -121 0
-303 146 0
-303 154 0
-303 -11 0
-303 -12 0
-303 -13 0
-303 -14 0
-303 -16 0
-303 -20 0
-303 -17 157 0
-303 -17 -5 -8 0
-303 -17 -79 0
-303 -17 -80 0
-303 -17 -81 0
-303 -17 -99 0
-303 -17 -100 0
-303 -17 -101 0
-303 -17 -103 0
-303 -17 -104 0
-303 -17 -105 0
-303 -17 -115 0
-303 -17 -116 0
-303 -17 -117 0
-303 -17 -119 0
-303 -17 -120 0
-303 -17 -121 0
-303 -18 158 0
-303 -18 -5 -9 0
-303 -18 -80 0
-303 -18 -81 0
-303 -18 -100 0
-303 -18 -101 0
-303 -18 -104 0
-303 -18 -105 0
-303 -18 -116 0
-303 -18 -117 0
-303 -18 -120 0
-303 -18 -121 0
-303 -19 159 0
-303 -19 -5 -10 0
-303 -19 -81 0
-303 -19 -101 0
-303 -19 -105 0
-303 -19 -117 0
-303 -19 -121 0
-304 146 0
-304 155 0
-304 -11 0
-304 -12 0
-304 -13 0
-304 -14 0
-304 -15 0
-304 -20 0
-304 -17 157 0
-304 -17 -6 -8 0
-304 -17 -83 0
-304 -17 -84 0
-304 -17 -85 0
-304 -17 -103 0
-304 -17 -104 0
-304 -17 -105 0
-304 -17 -119 0
-304 -17 -120 0
-304 -17 -121 0
-304 -18 158 0
-304 -18 -6 -9 0
-304 -18 -84 0
-304 -18 -85 0
-304 -18 -104 0
-304 -18 -105 0
-304 -18 -120 0
-304 -18 -121 0
-304 -19 159 0
-304 -19 -6 -10 0
-304 -19 -85 0
-304 -19 -105 0
-304 -19 -121 0
-305 146 0
-305 150 0
-305 -22 0
-305 -23 0
-305 -24 0
-305 -25 0
-305 -29 0
-305 -26 157 0
-305 -26 -1 -8 0
-305 -26 -63 0
-305 -26 -64 0
-305 -26 -65 0
-305 -26 -87 0
-305 -26 -88 0
-305 -26 -89 0
-305 -26 -107 0
-305 -26 -108 0
-305 -26 -109 0
-305 -27 158 0
-305 -27 -1 -9 0
-305 -27 -64 0
-305 -27 -65 0
-305 -27 -88 0
-305 -27 -89 0
-305 -27 -108 0
-305 -27 -109 0
-305 -28 159 0
-305 -28 -1 -10 0
-305 -28 -65 0
-305 -28 -89 0
-305 -28 -109 0
-306 146 0
-306 151 0
-306 -23 0
-306 -24 0
-306 -25 0
-306 -29 0
-306 -26 157 0
-306 -26 -2 -8 0
-306 -26 -67 0
-306 -26 -68 0
-306 -26 -69 0
-306 -26 -87 0
-306 -26 -88 0
-306 -26 -89 0
-306 -26 -91 0
-306 -26 -92 0
-306 -26 -93 0
-306 -26 -107 0
-306 -26 -108 0
-306 -26 -109 0
-306 -26 -111 0
-306 -26 -112 0
-306 -26 -113 0
-306 -27 158 0
-306 -27 -2 -9 0
-306 -27 -68 0
-306 -27 -69 0
-306 -27 -88 0
-306 -27 -89 0
-306 -27 -92 0
-306 -27 -93 0
-306 -27 -108 0
-306 -27 -109 0
-306 -27 -112 0
-306 -27 -113 0
-306 -28 159 0
-306 -28 -2 -10 0
-306 -28 -69 0
-306 -28 -89 0
-306 -28 -93 0
-306 -28 -109 0
-306 -28 -113 0
-307 146 0
-307 152 0
-307 -21 0
-307 -24 0
-307 -25 0
-307 -29 0
-307 -26 157 0
-307 -26 -3 -8 0
-307 -26 -71 0
-307 -26 -72 0
-307 -26 -73 0
-307 -26 -91 0
-307 -26 -92 0
-307 -26 -93 0
-307 -26 -95 0
-307 -26 -96 0
-307 -26 -97 0
-307 -26 -107 0
-307 -26 -108 0
-307 -26 -109 0
-307 -26 -111 0
-307 -26 -112 0
-307 -26 -113 0
-307 -26 -115 0
-307 -26 -116 0
-307 -26 -117 0
-307 -27 158 0
-307 -27 -3 -9 0
-307 -27 -72 0
-307 -27 -73 0
-307 -27 -92 0
-307 -27 -93 0
-307 -27 -96 0
-307 -27 -97 0
-307 -27 -108 0
-307 -27 -109 0
-307 -27 -112 0
-307 -27 -113 0
-307 -27 -116 0
-307 -27 -117 0
-307 -28 159 0
-307 -28 -3 -10 0
-307 -28 -73 0
-307 -28 -93 0
-307 -28 -97 0
-307 -28 -109 0
-307 -28 -113 0
-307 -28 -117 0
-308 146 0
-308 153 0
-308 -21 0
-308 -22 0
-308 -25 0
-308 -29 0
-308 -26 157 0
-308 -26 -4 -8 0
-308 -26 -75 0
-308 -26 -76 0
-308 -26 -77 0
-308 -26 -95 0
-308 -26 -96 0
-308 -26 -97 0
-308 -26 -99 0
-308 -26 -100 0
-308 -26 -101 0
-308 -26 -111 0
-308 -26 -112 0
-308 -26 -113 0
-308 -26 -115 0
-308 -26 -116 0
-308 -26 -117 0
-308 -26 -119 0
-308 -26 -120 0
-308 -26 -121 0
-308 -27 158 0
-308 -27 -4 -9 0
-308 -27 -76 0
-308 -27 -77 0
-308 -27 -96 0
-308 -27 -97 0
-308 -27 -100 0
-308 -27 -101 0
-308 -27 -112 0
-308 -27 -113 0
-308 -27 -116 0
-308 -27 -117 0
-308 -27 -120 0
-308 -27 -121 0
-308 -28 159 0
-308 -28 -4 -10 0
-308 -28 -77 0
-308 -28 -97 0
-308 -28 -101 0
-308 -28 -113 0
-308 -28 -117 0
-308 -28 -121 0
-309 146 0
-309 154 0
-309 -21 0
-309 -22 0
-309 -23 0
-309 -29 0
-309 -26 157 0
-309 -26 -5 -8 0
-309 -26 -79 0
-309 -26 -80 0
-309 -26 -81 0
-309 -26 -99 0
-309 -26 -100 0
-309 -26 -101 0
-309 -26 -103 0
-309 -26 -104 0
-309 -26 -105 0
-309 -26 -115 0
-309 -26 -116 0
-309 -26 -117 0
-309 -26 -119 0
-309 -26 -120 0
-309 -26 -121 0
-309 -27 158 0
-309 -27 -5 -9 0
-309 -27 -80 0
-309 -27 -81 0
-309 -27 -100 0
-309 -27 -101 0
-309 -27 -104 0
-309 -27 -105 0
-309 -27 -116 0
-309 -27 -117 0
-309 -27 -120 0
-309 -27 -121 0
-309 -28 159 0
-309 -28 -5 -10 0
-309 -28 -81 0
-309 -28 -101 0
-309 -28 -105 0
-309 -28 -117 0
-309 -28 -121 0
-310 146 0
-310 155 0
-310 -21 0
-310 -22 0
-310 -23 0
-310 -24 0
-310 -29 0
-310 -26 157 0
-310 -26 -6 -8 0
-310 -26 -83 0
-310 -26 -84 0
-310 -26 -85 0
-310 -26 -103 0
-310 -26 -104 0
-310 -26 -105 0
-310 -26 -119 0
-310 -26 -120 0
-310 -26 -121 0
-310 -27 158 0
-310 -27 -6 -9 0
-310 -27 -84 0
-310 -27 -85 0
-310 -27 -104 0
-310 -27 -105 0
-310 -27 -120 0
-310 -27 -121 0
-310 -28 159 0
-310 -28 -6 -10 0
-310 -28 -85 0
-310 -28 -105 0
-310 -28 -121 0
-311 146 0
-311 150 0
-311 -31 0
-311 -32 0
-311 -33 0
-311 -37 0
-311 -34 157 0
-311 -34 -1 -8 0
-311 -34 -63 0
-311 -34 -64 0
-311 -34 -65 0
-311 -34 -87 0
-311 -34 -88 0
-311 -34 -89 0
-311 -34 -107 0
-311 -34 -108 0
-311 -34 -109 0
-311 -35 158 0
-311 -35 -1 -9 0
-311 -35 -64 0
-311 -35 -65 0
-311 -35 -88 0
-311 -35 -89 0
-311 -35 -108 0
-311 -35 -109 0
-311 -36 159 0
-311 -36 -1 -10 0
-311 -36 -65 0
-311 -36 -89 0
-311 -36 -109 0
-312 146 0
-312 151 0
-312 -32 0
-312 -33 0
-312 -37 0
-312 -34 157 0
-312 -34 -2 -8 0
-312 -34 -67 0
-312 -34 -68 0
-312 -34 -69 0
-312 -34 -87 0
-312 -34 -88 0
-312 -34 -89 0
-312 -34 -91 0
-312 -34 -92 0
-312 -34 -93 0
-312 -34 -107 0
-312 -34 -108 0
-312 -34 -109 0
-312 -34 -111 0
-312 -34 -112 0
-312 -34 -113 0
-312 -35 158 0
-312 -35 -2 -9 0
-312 -35 -68 0
-312 -35 -69 0
-312 -35 -88 0
-312 -35 -89 0
-312 -35 -92 0
-312 -35 -93 0
-312 -35 -108 0
-312 -35 -109 0
-312 -35 -112 0
-312 -35 -113 0
-312 -36 159 0
-312 -36 -2 -10 0
-312 -36 -69 0
-312 -36 -89 0
-312 -36 -93 0
-312 -36 -109 0
-312 -36 -113 0
-313 146 0
-313 152 0
-313 -33 0
-313 -37 0
-313 -34 157 0
-313 -34 -3 -8 0
-313 -34 -71 0
-313 -34 -72 0
-313 -34 -73 0
-313 -34 -91 0
-313 -34 -92 0
-313 -34 -93 0
-313 -34 -95 0
-313 -34 -96 0
-313 -34 -97 0
-313 -34 -107 0
-313 -34 -108 0
-313 -34 -109 0
-313 -34 -111 0
-313 -34 -112 0
-313 -34 -113 0
-313 -34 -115 0
-313 -34 -116 0
-313 -34 -117 0
-313 -35 158 0
-313 -35 -3 -9 0
-313 -35 -72 0
-313 -35 -73 0
-313 -35 -92 0
-313 -35 -93 0
-313 -35 -96 0
-313 -35 -97 0
-313 -35 -108 0
-313 -35 -109 0
-313 -35 -112 0
-313 -35 -113 0
-313 -35 -116 0
-313 -35 -117 0
-313 -36 159 0
-313 -36 -3 -10 0
-313 -36 -73 0
-313 -36 -93 0
-313 -36 -97 0
-313 -36 -109 0
-313 -36 -113 0
-313 -36 -117 0
-314 146 0
-314 153 0
-314 -30 0
-314 -37 0
-314 -34 157 0
-314 -34 -4 -8 0
-314 -34 -75 0
-314 -34 -76 0
-314 -34 -77 0
-314 -34 -95 0
-314 -34 -96 0
-314 -34 -97 0
-314 -34 -99 0
-314 -34 -100 0
-314 -34 -101 0
-314 -34 -111 0
-314 -34 -112 0
-314 -34 -113 0
-314 -34 -115 0
-314 -34 -116 0
-314 -34 -117 0
-314 -34 -119 0
-314 -34 -120 0
-314 -34 -121 0
-314 -35 158 0
-314 -35 -4 -9 0
-314 -35 -76 0
-314 -35 -77 0
-314 -35 -96 0
-314 -35 -97 0
-314 -35 -100 0
-314 -35 -101 0
-314 -35 -112 0
-314 -35 -113 0
-314 -35 -116 0
-314 -35 -117 0
-314 -35 -120 0
-314 -35 -121 0
-314 -36 159 0
-314 -36 -4 -10 0
-314 -36 -77 0
-314 -36 -97 0
-314 -36 -101 0
-314 -36 -113 0
-314 -36 -117 0
-314 -36 -121 0
-315 146 0
-315 154 0
-315 -30 0
-315 -31 0
-315 -37 0
-315 -34 157 0
-315 -34 -5 -8 0
-315 -34 -79 0
-315 -34 -80 0
-315 -34 -81 0
-315 -34 -99 0
-315 -34 -100 0
-315 -34 -101 0
-315 -34 -103 0
-315 -34 -104 0
-315 -34 -105 0
-315 -34 -115 0
-315 -34 -116 0
-315 -34 -117 0
-315 -34 -119 0
-315 -34 -120 0
-315 -34 -121 0
-315 -35 158 0
-315 -35 -5 -9 0
-315 -35 -80 0
-315 -35 -81 0
-315 -35 -100 0
-315 -35 -101 0
-315 -35 -104 0
-315 -35 -105 0
-315 -35 -116 0
-315 -35 -117 0
-315 -35 -120 0
-315 -35 -121 0
-315 -36 159 0
-315 -36 -5 -10 0
-315 -36 -81 0
-315 -36 -101 0
-315 -36 -105 0
-315 -36 -117 0
-315 -36 -121 0
-316 146 0
-316 155 0
-316 -30 0
-316 -31 0
-316 -32 0
-316 -37 0
-316 -34 157 0
-316 -34 -6 -8 0
-316 -34 -83 0
-316 -34 -84 0
-316 -34 -85 0
-316 -34 -103 0
-316 -34 -104 0
-316 -34 -105 0
-316 -34 -119 0
-316 -34 -120 0
-316 -34 -121 0
-316 -35 158 0
-316 -35 -6 -9 0
-316 -35 -84 0
-316 -35 -85 0
-316 -35 -104 0
-316 -35 -105 0
-316 -35 -120 0
-316 -35 -121 0
-316 -36 159 0
-316 -36 -6 -10 0
-316 -36 -85 0
-316 -36 -105 0
-316 -36 -121 0
-317 146 0
-317 150 0
-317 156 0
-317 -1 -7 0
-317 -62 0
-317 -63 0
-317 -64 0
-317 -65 0
-317 -86 0
-317 -87 0
-317 -88 0
-317 -89 0
-317 -106 0
-317 -107 0
-317 -108 0
-317 -109 0
-318 146 0
-318 151 0
-318 156 0
-318 -2 -7 0
-318 -66 0
-318 -67 0
-318 -68 0
-318 -69 0
-318 -86 0
-318 -87 0
-318 -88 0
-318 -89 0
-318 -90 0
-318 -91 0
-318 -92 0
-318 -93 0
-318 -106 0
-318 -107 0
-318 -108 0
-318 -109 0
-318 -110 0
-318 -111 0
-318 -112 0
-318 -113 0
-319 146 0
-319 152 0
-319 156 0
-319 -3 -7 0
-319 -70 0
-319 -71 0
-319 -72 0
-319 -73 0
-319 -90 0
-319 -91 0
-319 -92 0
-319 -93 0
-319 -94 0
-319 -95 0
-319 -96 0
-319 -97 0
-319 -106 0
-319 -107 0
-319 -108 0
-319 -109 0
-319 -110 0
-319 -111 0
-319 -112 0
-319 -113 0
-319 -114 0
-319 -115 0
-319 -116 0
-319 -117 0
-320 146 0
-320 153 0
-320 156 0
-320 -4 -7 0
-320 -74 0
-320 -75 0
-320 -76 0
-320 -77 0
-320 -94 0
-320 -95 0
-320 -96 0
-320 -97 0
-320 -98 0
-320 -99 0
-320 -100 0
-320 -101 0
-320 -110 0
-320 -111 0
-320 -112 0
-320 -113 0
-320 -114 0
-320 -115 0
-320 -116 0
-320 -117 0
-320 -118 0
-320 -119 0
-320 -120 0
-320 -121 0
-321 146 0
-321 154 0
-321 156 0
-321 -5 -7 0
-321 -78 0
-321 -79 0
-321 -80 0
-321 -81 0
-321 -98 0
-321 -99 0
-321 -100 0
-321 -101 0
-321 -102 0
-321 -103 0
-321 -104 0
-321 -105 0
-321 -114 0
-321 -115 0
-321 -116 0
-321 -117 0
-321 -118 0
-321 -119 0
-321 -120 0
-321 -121 0
-322 146 0
-322 155 0
-322 156 0
-322 -6 -7 0
-322 -82 0
-322 -83 0
-322 -84 0
-322 -85 0
-322 -102 0
-322 -103 0
-322 -104 0
-322 -105 0
-322 -118 0
-322 -119 0
-322 -120 0
-322 -121 0
-323 147 0
-323 160 0
-323 -2 0
-323 -3 0
-323 -4 0
-323 -5 0
-323 -6 0
-323 -10 0
-323 -7 167 0
-323 -7 -11 -18 0
-323 -7 -39 0
-323 -7 -40 0
-323 -7 -41 0
-323 -7 -87 0
-323 -7 -88 0
-323 -7 -89 0
-323 -7 -107 0
-323 -7 -108 0
-323 -7 -109 0
-323 -8 168 0
-323 -8 -11 -19 0
-323 -8 -40 0
-323 -8 -41 0
-323 -8 -88 0
-323 -8 -89 0
-323 -8 -108 0
-323 -8 -109 0
-323 -9 169 0
-323 -9 -11 -20 0
-323 -9 -41 0
-323 -9 -89 0
-323 -9 -109 0
-324 147 0
-324 161 0
-324 -1 0
-324 -3 0
-324 -4 0
-324 -5 0
-324 -6 0
-324 -10 0
-324 -7 167 0
-324 -7 -12 -18 0
-324 -7 -43 0
-324 -7 -44 0
-324 -7 -45 0
-324 -7 -87 0
-324 -7 -88 0
-324 -7 -89 0
-324 -7 -91 0
-324 -7 -92 0
-324 -7 -93 0
-324 -7 -107 0
-324 -7 -108 0
-324 -7 -109 0
-324 -7 -111 0
-324 -7 -112 0
-324 -7 -113 0
-324 -8 168 0
-324 -8 -12 -19 0
-324 -8 -44 0
-324 -8 -45 0
-324 -8 -88 0
-324 -8 -89 0
-324 -8 -92 0
-324 -8 -93 0
-324 -8 -108 0
-324 -8 -109 0
-324 -8 -112 0
-324 -8 -113 0
-324 -9 169 0
-324 -9 -12 -20 0
-324 -9 -45 0
-324 -9 -89 0
-324 -9 -93 0
-324 -9 -109 0
-324 -9 -113 0
-325 147 0
-325 162 0
-325 -1 0
-325 -2 0
-325 -4 0
-325 -5 0
-325 -6 0
-325 -10 0
-325 -7 167 0
-325 -7 -13 -18 0
-325 -7 -47 0
-325 -7 -48 0
-325 -7 -49 0
-325 -7 -91 0
-325 -7 -92 0
-325 -7 -93 0
-325 -7 -95 0
-325 -7 -96 0
-325 -7 -97 0
-325 -7 -107 0
-325 -7 -108 0
-325 -7 -109 0
-325 -7 -111 0
-325 -7 -112 0
-325 -7 -113 0
-325 -7 -115 0
-325 -7 -116 0
-325 -7 -117 0
-325 -8 168 0
-325 -8 -13 -19 0
-325 -8 -48 0
-325 -8 -49 0
-325 -8 -92 0
-325 -8 -93 0
-325 -8 -96 0
-325 -8 -97 0
-325 -8 -108 0
-325 -8 -109 0
-325 -8 -112 0
-325 -8 -113 0
-325 -8 -116 0
-325 -8 -117 0
-325 -9 169 0
-325 -9 -13 -20 0
-325 -9 -49 0
-325 -9 -93 0
-325 -9 -97 0
-325 -9 -109 0
-325 -9 -113 0
-325 -9 -117 0
-326 147 0
-326 163 0
-326 -1 0
-326 -2 0
-326 -3 0
-326 -5 0
-326 -6 0
-326 -10 0
-326 -7 167 0
-326 -7 -14 -18 0
-326 -7 -51 0
-326 -7 -52 0
-326 -7 -53 0
-326 -7 -95 0
-326 -7 -96 0
-326 -7 -97 0
-326 -7 -99 0
-326 -7 -100 0
-326 -7 -101 0
-326 -7 -111 0
-326 -7 -112 0
-326 -7 -113 0
-326 -7 -115 0
-326 -7 -116 0
-326 -7 -117 0
-326 -7 -119 0
-326 -7 -120 0
-326 -7 -121 0
-326 -8 168 0
-326 -8 -14 -19 0
-326 -8 -52 0
-326 -8 -53 0
-326 -8 -96 0
-326 -8 -97 0
-326 -8 -100 0
-326 -8 -101 0
-326 -8 -112 0
-326 -8 -113 0
-326 -8 -116 0
-326 -8 -117 0
-326 -8 -120 0
-326 -8 -121 0
-326 -9 169 0
-326 -9 -14 -20 0
-326 -9 -53 0
-326 -9 -97 0
-326 -9 -101 0
-326 -9 -113 0
-326 -9 -117 0
-326 -9 -121 0
-327 147 0
-327 164 0
-327 -1 0
-327 -2 0
-327 -3 0
-327 -4 0
-327 -6 0
-327 -10 0
-327 -7 167 0
-327 -7 -15 -18 0
-327 -7 -55 0
-327 -7 -56 0
-327 -7 -57 0
-327 -7 -99 0
-327 -7 -100 0
-327 -7 -101 0
-327 -7 -103 0
-327 -7 -104 0
-327 -7 -105 0
-327 -7 -115 0
-327 -7 -116 0
-327 -7 -117 0
-327 -7 -119 0
-327 -7 -120 0
-327 -7 -121 0
-327 -8 168 0
-327 -8 -15 -19 0
-327 -8 -56 0
-327 -8 -57 0
-327 -8 -100 0
-327 -8 -101 0
-327 -8 -104 0
-327 -8 -105 0
-327 -8 -116 0
-327 -8 -117 0
-327 -8 -120 0
-327 -8 -121 0
-327 -9 169 0
-327 -9 -15 -20 0
-327 -9 -57 0
-327 -9 -101 0
-327 -9 -105 0
-327 -9 -117 0
-327 -9 -121 0
-328 147 0
-328 165 0
-328 -1 0
-328 -2 0
-328 -3 0
-328 -4 0
-328 -5 0
-328 -10 0
-328 -7 167 0
-328 -7 -16 -18 0
-328 -7 -59 0
-328 -7 -60 0
-328 -7 -61 0
-328 -7 -103 0
-328 -7 -104 0
-328 -7 -105 0
-328 -7 -119 0
-328 -7 -120 0
-328 -7 -121 0
-328 -8 168 0
-328 -8 -16 -19 0
-328 -8 -60 0
-328 -8 -61 0
-328 -8 -104 0
-328 -8 -105 0
-328 -8 -120 0
-328 -8 -121 0
-328 -9 169 0
-328 -9 -16 -20 0
-328 -9 -61 0
-328 -9 -105 0
-328 -9 -121 0
-329 147 0
-329 160 0
-329 -22 0
-329 -23 0
-329 -24 0
-329 -25 0
-329 -29 0
-329 -26 167 0
-329 -26 -11 -18 0
-329 -26 -39 0
-329 -26 -40 0
-329 -26 -41 0
-329 -26 -87 0
-329 -26 -88 0
-329 -26 -89 0
-329 -26 -107 0
-329 -26 -108 0
-329 -26 -109 0
-329 -27 168 0
-329 -27 -11 -19 0
-329 -27 -40 0
-329 -27 -41 0
-329 -27 -88 0
-329 -27 -89 0
-329 -27 -108 0
-329 -27 -109 0
-329 -28 169 0
-329 -28 -11 -20 0
-329 -28 -41 0
-329 -28 -89 0
-329 -28 -109 0
-330 147 0
-330 161 0
-330 -23 0
-330 -24 0
-330 -25 0
-330 -29 0
-330 -26 167 0
-330 -26 -12 -18 0
-330 -26 -43 0
-330 -26 -44 0
-330 -26 -45 0
-330 -26 -87 0
-330 -26 -88 0
-330 -26 -89 0
-330 -26 -91 0
-330 -26 -92 0
-330 -26 -93 0
-330 -26 -107 0
-330 -26 -108 0
-330 -26 -109 0
-330 -26 -111 0
-330 -26 -112 0
-330 -26 -113 0
-330 -27 168 0
-330 -27 -12 -19 0
-330 -27 -44 0
-330 -27 -45 0
-330 -27 -88 0
-330 -27 -89 0
-330 -27 -92 0
-330 -27 -93 0
-330 -27 -108 0
-330 -27 -109 0
-330 -27 -112 0
-330 -27 -113 0
-330 -28 169 0
-330 -28 -12 -20 0
-330 -28 -45 0
-330 -28 -89 0
-330 -28 -93 0
-330 -28 -109 0
-330 -28 -113 0
-331 147 0
-331 162 0
-331 -21 0
-331 -24 0
-331 -25 0
-331 -29 0
-331 -26 167 0
-331 -26 -13 -18 0
-331 -26 -47 0
-331 -26 -48 0
-331 -26 -49 0
-331 -26 -91 0
-331 -26 -92 0
-331 -26 -93 0
-331 -26 -95 0
-331 -26 -96 0
-331 -26 -97 0
-331 -26 -107 0
-331 -26 -108 0
-331 -26 -109 0
-331 -26 -111 0
-331 -26 -112 0
-331 -26 -113 0
-331 -26 -115 0
-331 -26 -116 0
-331 -26 -117 0
-331 -27 168 0
-331 -27 -13 -19 0
-331 -27 -48 0
-331 -27 -49 0
-331 -27 -92 0
-331 -27 -93 0
-331 -27 -96 0
-331 -27 -97 0
-331 -27 -108 0
-331 -27 -109 0
-331 -27 -112 0
-331 -27 -113 0
-331 -27 -116 0
-331 -27 -117 0
-331 -28 169 0
-331 -28 -13 -20 0
-331 -28 -49 0
-331 -28 -93 0
-331 -28 -97 0
-331 -28 -109 0
-331 -28 -113 0
-331 -28 -117 0
-332 147 0
-332 163 0
-332 -21 0
-332 -22 0
-332 -25 0
-332 -29 0
-332 -26 167 0
-332 -26 -14 -18 0
-332 -26 -51 0
-332 -26 -52 0
-332 -26 -53 0
-332 -26 -95 0
-332 -26 -96 0
-332 -26 -97 0
-332 -26 -99 0
-332 -26 -100 0
-332 -26 -101 0
-332 -26 -111 0
-332 -26 -112 0
-332 -26 -113 0
-332 -26 -115 0
-332 -26 -116 0
-332 -26 -117 0
-332 -26 -119 0
-332 -26 -120 0
-332 -26 -121 0
-332 -27 168 0
-332 -27 -14 -19 0
-332 -27 -52 0
-332 -27 -53 0
-332 -27 -96 0
-332 -27 -97 0
-332 -27 -100 0
-332 -27 -101 0
-332 -27 -112 0
-332 -27 -113 0
-332 -27 -116 0
-332 -27 -117 0
-332 -27 -120 0
-332 -27 -121 0
-332 -28 169 0
-332 -28 -14 -20 0
-332 -28 -53 0
-332 -28 -97 0
-332 -28 -101 0
-332 -28 -113 0
-332 -28 -117 0
-332 -28 -121 0
-333 147 0
-333 164 0
-333 -21 0
-333 -22 0
-333 -23 0
-333 -29 0
-333 -26 167 0
-333 -26 -15 -18 0
-333 -26 -55 0
-333 -26 -56 0
-333 -26 -57 0
-333 -26 -99 0
-333 -26 -100 0
-333 -26 -101 0
-333 -26 -103 0
-333 -26 -104 0
-333 -26 -105 0
-333 -26 -115 0
-333 -26 -116 0
-333 -26 -117 0
-333 -26 -119 0
-333 -26 -120 0
-333 -26 -121 0
-333 -27 168 0
-333 -27 -15 -19 0
-333 -27 -56 0
-333 -27 -57 0
-333 -27 -100 0
-333 -27 -101 0
-333 -27 -104 0
-333 -27 -105 0
-333 -27 -116 0
-333 -27 -117 0
-333 -27 -120 0
-333 -27 -121 0
-333 -28 169 0
-333 -28 -15 -20 0
-333 -28 -57 0
-333 -28 -101 0
-333 -28 -105 0
-333 -28 -117 0
-333 -28 -121 0
-334 147 0
-334 165 0
-334 -21 0
-334 -22 0
-334 -23 0
-334 -24 0
-334 -29 0
-334 -26 167 0
-334 -26 -16 -18 0
-334 -26 -59 0
-334 -26 -60 0
-334 -26 -61 0
-334 -26 -103 0
-334 -26 -104 0
-334 -26 -105 0
-334 -26 -119 0
-334 -26 -120 0
-334 -26 -121 0
-334 -27 168 0
-334 -27 -16 -19 0
-334 -27 -60 0
-334 -27 -61 0
-334 -27 -104 0
-334 -27 -105 0
-334 -27 -120 0
-334 -27 -121 0
-334 -28 169 0
-334 -28 -16 -20 0
-334 -28 -61 0
-334 -28 -105 0
-334 -28 -121 0
-335 147 0
-335 160 0
-335 -31 0
-335 -32 0
-335 -33 0
-335 -37 0
-335 -34 167 0
-335 -34 -11 -18 0
-335 -34 -39 0
-335 -34 -40 0
-335 -34 -41 0
-335 -34 -87 0
-335 -34 -88 0
-335 -34 -89 0
-335 -34 -107 0
-335 -34 -108 0
-335 -34 -109 0
-335 -35 168 0
-335 -35 -11 -19 0
-335 -35 -40 0
-335 -35 -41 0
-335 -35 -88 0
-335 -35 -89 0
-335 -35 -108 0
-335 -35 -109 0
-335 -36 169 0
-335 -36 -11 -20 0
-335 -36 -41 0
-335 -36 -89 0
-335 -36 -109 0
-336 147 0
-336 161 0
-336 -32 0
-336 -33 0
-336 -37 0
-336 -34 167 0
-336 -34 -12 -18 0
-336 -34 -43 0
-336 -34 -44 0
-336 -34 -45 0
-336 -34 -87 0
-336 -34 -88 0
-336 -34 -89 0
-336 -34 -91 0
-336 -34 -92 0
-336 -34 -93 0
-336 -34 -107 0
-336 -34 -108 0
-336 -34 -109 0
-336 -34 -111 0
-336 -34 -112 0
-336 -34 -113 0
-336 -35 168 0
-336 -35 -12 -19 0
-336 -35 -44 0
-336 -35 -45 0
-336 -35 -88 0
-336 -35 -89 0
-336 -35 -92 0
-336 -35 -93 0
-336 -35 -108 0
-336 -35 -109 0
-336 -35 -112 0
-336 -35 -113 0
-336 -36 169 0
-336 -36 -12 -20 0
-336 -36 -45 0
-336 -36 -89 0
-336 -36 -93 0
-336 -36 -109 0
-336 -36 -113 0
-337 147 0
-337 162 0
-337 -33 0
-337 -37 0
-337 -34 167 0
-337 -34 -13 -18 0
-337 -34 -47 0
-337 -34 -48 0
-337 -34 -49 0
-337 -34 -91 0
-337 -34 -92 0
-337 -34 -93 0
-337 -34 -95 0
-337 -34 -96 0
-337 -34 -97 0
-337 -34 -107 0
-337 -34 -108 0
-337 -34 -109 0
-337 -34 -111 0
-337 -34 -112 0
-337 -34 -113 0
-337 -34 -115 0
-337 -34 -116 0
-337 -34 -117 0
-337 -35 168 0
-337 -35 -13 -19 0
-337 -35 -48 0
-337 -35 -49 0
-337 -35 -92 0
-337 -35 -93 0
-337 -35 -96 0
-337 -35 -97 0
-337 -35 -108 0
-337 -35 -109 0
-337 -35 -112 0
-337 -35 -113 0
-337 -35 -116 0
-337 -35 -117 0
-337 -36 169 0
-337 -36 -13 -20 0
-337 -36 -49 0
-337 -36 -93 0
-337 -36 -97 0
-337 -36 -109 0
-337 -36 -113 0
-337 -36 -117 0
-338 147 0
-338 163 0
-338 -30 0
-338 -37 0
-338 -34 167 0
-338 -34 -14 -18 0
-338 -34 -51 0
-338 -34 -52 0
-338 -34 -53 0
-338 -34 -95 0
-338 -34 -96 0
-338 -34 -97 0
-338 -34 -99 0
-338 -34 -100 0
-338 -34 -101 0
-338 -34 -111 0
-338 -34 -112 0
-338 -34 -113 0
-338 -34 -115 0
-338 -34 -116 0
-338 -34 -117 0
-338 -34 -119 0
-338 -34 -120 0
-338 -34 -121 0
-338 -35 168 0
-338 -35 -14 -19 0
-338 -35 -52 0
-338 -35 -53 0
-338 -35 -96 0
-338 -35 -97 0
-338 -35 -100 0
-338 -35 -101 0
-338 -35 -112 0
-338 -35 -113 0
-338 -35 -116 0
-338 -35 -117 0
-338 -35 -120 0
-338 -35 -121 0
-338 -36 169 0
-338 -36 -14 -20 0
-338 -36 -53 0
-338 -36 -97 0
-338 -36 -101 0
-338 -36 -113 0
-338 -36 -117 0
-338 -36 -121 0
-339 147 0
-339 164 0
-339 -30 0
-339 -31 0
-339 -37 0
-339 -34 167 0
-339 -34 -15 -18 0
-339 -34 -55 0
-339 -34 -56 0
-339 -34 -57 0
-339 -34 -99 0
-339 -34 -100 0
-339 -34 -101 0
-339 -34 -103 0
-339 -34 -104 0
-339 -34 -105 0
-339 -34 -115 0
-339 -34 -116 0
-339 -34 -117 0
-339 -34 -119 0
-339 -34 -120 0
-339 -34 -121 0
-339 -35 168 0
-339 -35 -15 -19 0
-339 -35 -56 0
-339 -35 -57 0
-339 -35 -100 0
-339 -35 -101 0
-339 -35 -104 0
-339 -35 -105 0
-339 -35 -116 0
-339 -35 -117 0
-339 -35 -120 0
-339 -35 -121 0
-339 -36 169 0
-339 -36 -15 -20 0
-339 -36 -57 0
-339 -36 -101 0
-339 -36 -105 0
-339 -36 -117 0
-339 -36 -121 0
-340 147 0
-340 165 0
-340 -30 0
-340 -31 0
-340 -32 0
-340 -37 0
-340 -34 167 0
-340 -34 -16 -18 0
-340 -34 -59 0
-340 -34 -60 0
-340 -34 -61 0
-340 -34 -103 0
-340 -34 -104 0
-340 -34 -105 0
-340 -34 -119 0
-340 -34 -120 0
-340 -34 -121 0
-340 -35 168 0
-340 -35 -16 -19 0
-340 -35 -60 0
-340 -35 -61 0
-340 -35 -104 0
-340 -35 -105 0
-340 -35 -120 0
-340 -35 -121 0
-340 -36 169 0
-340 -36 -16 -20 0
-340 -36 -61 0
-340 -36 -105 0
-340 -36 -121 0
-341 147 0
-341 160 0
-341 166 0
-341 -11 -17 0
-341 -38 0
-341 -39 0
-341 -40 0
-341 -41 0
-341 -86 0
-341 -87 0
-341 -88 0
-341 -89 0
-341 -106 0
-341 -107 0
-341 -108 0
-341 -109 0
-342 147 0
-342 161 0
-342 166 0
-342 -12 -17 0
-342 -42 0
-342 -43 0
-342 -44 0
-342 -45 0
-342 -86 0
-342 -87 0
-342 -88 0
-342 -89 0
-342 -90 0
-342 -91 0
-342 -92 0
-342 -93 0
-342 -106 0
-342 -107 0
-342 -108 0
-342 -109 0
-342 -110 0
-342 -111 0
-342 -112 0
-342 -113 0
-343 147 0
-343 162 0
-343 166 0
-343 -13 -17 0
-343 -46 0
-343 -47 0
-343 -48 0
-343 -49 0
-343 -90 0
-343 -91 0
-343 -92 0
-343 -93 0
-343 -94 0
-343 -95 0
-343 -96 0
-343 -97 0
-343 -106 0
-343 -107 0
-343 -108 0
-343 -109 0
-343 -110 0
-343 -111 0
-343 -112 0
-343 -113 0
-343 -114 0
-343 -115 0
-343 -116 0
-343 -117 0
-344 147 0
-344 163 0
-344 166 0
-344 -14 -17 0
-344 -50 0
-344 -51 0
-344 -52 0
-344 -53 0
-344 -94 0
-344 -95 0
-344 -96 0
-344 -97 0
-344 -98 0
-344 -99 0
-344 -100 0
-344 -101 0
-344 -110 0
-344 -111 0
-344 -112 0
-344 -113 0
-344 -114 0
-344 -115 0
-344 -116 0
-344 -117 0
-344 -118 0
-344 -119 0
-344 -120 0
-344 -121 0
-345 147 0
-345 164 0
-345 166 0
-345 -15 -17 0
-345 -54 0
-345 -55 0
-345 -56 0
-345 -57 0
-345 -98 0
-345 -99 0
-345 -100 0
-345 -101 0
-345 -102 0
-345 -103 0
-345 -104 0
-345 -105 0
-345 -114 0
-345 -115 0
-345 -116 0
-345 -117 0
-345 -118 0
-345 -119 0
-345 -120 0
-345 -121 0
-346 147 0
-346 165 0
-346 166 0
-346 -16 -17 0
-346 -58 0
-346 -59 0
-346 -60 0
-346 -61 0
-346 -102 0
-346 -103 0
-346 -104 0
-346 -105 0
-346 -118 0
-346 -119 0
-346 -120 0
-346 -121 0
-347 148 0
-347 170 0
-347 -3 0
-347 -4 0
-347 -5 0
-347 -6 0
-347 -10 0
-347 -7 176 0
-347 -7 -21 -27 0
-347 -7 -39 0
-347 -7 -40 0
-347 -7 -41 0
-347 -7 -43 0
-347 -7 -44 0
-347 -7 -45 0
-347 -7 -63 0
-347 -7 -64 0
-347 -7 -65 0
-347 -7 -67 0
-347 -7 -68 0
-347 -7 -69 0
-347 -7 -107 0
-347 -7 -108 0
-347 -7 -109 0
-347 -7 -111 0
-347 -7 -112 0
-347 -7 -113 0
-347 -8 177 0
-347 -8 -21 -28 0
-347 -8 -40 0
-347 -8 -41 0
-347 -8 -44 0
-347 -8 -45 0
-347 -8 -64 0
-347 -8 -65 0
-347 -8 -68 0
-347 -8 -69 0
-347 -8 -108 0
-347 -8 -109 0
-347 -8 -112 0
-347 -8 -113 0
-347 -9 178 0
-347 -9 -21 -29 0
-347 -9 -41 0
-347 -9 -45 0
-347 -9 -65 0
-347 -9 -69 0
-347 -9 -109 0
-347 -9 -113 0
-348 148 0
-348 171 0
-348 -1 0
-348 -4 0
-348 -5 0
-348 -6 0
-348 -10 0
-348 -7 176 0
-348 -7 -22 -27 0
-348 -7 -43 0
-348 -7 -44 0
-348 -7 -45 0
-348 -7 -47 0
-348 -7 -48 0
-348 -7 -49 0
-348 -7 -67 0
-348 -7 -68 0
-348 -7 -69 0
-348 -7 -71 0
-348 -7 -72 0
-348 -7 -73 0
-348 -7 -107 0
-348 -7 -108 0
-348 -7 -109 0
-348 -7 -111 0
-348 -7 -112 0
-348 -7 -113 0
-348 -7 -115 0
-348 -7 -116 0
-348 -7 -117 0
-348 -8 177 0
-348 -8 -22 -28 0
-348 -8 -44 0
-348 -8 -45 0
-348 -8 -48 0
-348 -8 -49 0
-348 -8 -68 0
-348 -8 -69 0
-348 -8 -72 0
-348 -8 -73 0
-348 -8 -108 0
-348 -8 -109 0
-348 -8 -112 0
-348 -8 -113 0
-348 -8 -116 0
-348 -8 -117 0
-348 -9 178 0
-348 -9 -22 -29 0
-348 -9 -45 0
-348 -9 -49 0
-348 -9 -69 0
-348 -9 -73 0
-348 -9 -109 0
-348 -9 -113 0
-348 -9 -117 0
-349 148 0
-349 172 0
-349 -1 0
-349 -2 0
-349 -5 0
-349 -6 0
-349 -10 0
-349 -7 176 0
-349 -7 -23 -27 0
-349 -7 -47 0
-349 -7 -48 0
-349 -7 -49 0
-349 -7 -51 0
-349 -7 -52 0
-349 -7 -53 0
-349 -7 -71 0
-349 -7 -72 0
-349 -7 -73 0
-349 -7 -75 0
-349 -7 -76 0
-349 -7 -77 0
-349 -7 -107 0
-349 -7 -108 0
-349 -7 -109 0
-349 -7 -111 0
-349 -7 -112 0
-349 -7 -113 0
-349 -7 -115 0
-349 -7 -116 0
-349 -7 -117 0
-349 -7 -119 0
-349 -7 -120 0
-349 -7 -121 0
-349 -8 177 0
-349 -8 -23 -28 0
-349 -8 -48 0
-349 -8 -49 0
-349 -8 -52 0
-349 -8 -53 0
-349 -8 -72 0
-349 -8 -73 0
-349 -8 -76 0
-349 -8 -77 0
-349 -8 -108 0
-349 -8 -109 0
-349 -8 -112 0
-349 -8 -113 0
-349 -8 -116 0
-349 -8 -117 0
-349 -8 -120 0
-349 -8 -121 0
-349 -9 178 0
-349 -9 -23 -29 0
-349 -9 -49 0
-349 -9 -53 0
-349 -9 -73 0
-349 -9 -77 0
-349 -9 -109 0
-349 -9 -113 0
-349 -9 -117 0
-349 -9 -121 0
-350 148 0
-350 173 0
-350 -1 0
-350 -2 0
-350 -3 0
-350 -6 0
-350 -10 0
-350 -7 176 0
-350 -7 -24 -27 0
-350 -7 -51 0
-350 -7 -52 0
-350 -7 -53 0
-350 -7 -55 0
-350 -7 -56 0
-350 -7 -57 0
-350 -7 -75 0
-350 -7 -76 0
-350 -7 -77 0
-350 -7 -79 0
-350 -7 -80 0
-350 -7 -81 0
-350 -7 -111 0
-350 -7 -112 0
-350 -7 -113 0
-350 -7 -115 0
-350 -7 -116 0
-350 -7 -117 0
-350 -7 -119 0
-350 -7 -120 0
-350 -7 -121 0
-350 -8 177 0
-350 -8 -24 -28 0
-350 -8 -52 0
-350 -8 -53 0
-350 -8 -56 0
-350 -8 -57 0
-350 -8 -76 0
-350 -8 -77 0
-350 -8 -80 0
-350 -8 -81 0
-350 -8 -112 0
-350 -8 -113 0
-350 -8 -116 0
-350 -8 -117 0
-350 -8 -120 0
-350 -8 -121 0
-350 -9 178 0
-350 -9 -24 -29 0
-350 -9 -53 0
-350 -9 -57 0
-350 -9 -77 0
-350 -9 -81 0
-350 -9 -113 0
-350 -9 -117 0
-350 -9 -121 0
-351 148 0
-351 174 0
-351 -1 0
-351 -2 0
-351 -3 0
-351 -4 0
-351 -10 0
-351 -7 176 0
-351 -7 -25 -27 0
-351 -7 -55 0
-351 -7 -56 0
-351 -7 -57 0
-351 -7 -59 0
-351 -7 -60 0
-351 -7 -61 0
-351 -7 -79 0
-351 -7 -80 0
-351 -7 -81 0
-351 -7 -83 0
-351 -7 -84 0
-351 -7 -85 0
-351 -7 -115 0
-351 -7 -116 0
-351 -7 -117 0
-351 -7 -119 0
-351 -7 -120 0
-351 -7 -121 0
-351 -8 177 0
-351 -8 -25 -28 0
-351 -8 -56 0
-351 -8 -57 0
-351 -8 -60 0
-351 -8 -61 0
-351 -8 -80 0
-351 -8 -81 0
-351 -8 -84 0
-351 -8 -85 0
-351 -8 -116 0
-351 -8 -117 0
-351 -8 -120 0
-351 -8 -121 0
-351 -9 178 0
-351 -9 -25 -29 0
-351 -9 -57 0
-351 -9 -61 0
-351 -9 -81 0
-351 -9 -85 0
-351 -9 -117 0
-351 -9 -121 0
-352 148 0
-352 170 0
-352 -13 0
-352 -14 0
-352 -15 0
-352 -16 0
-352 -20 0
-352 -17 176 0
-352 -17 -21 -27 0
-352 -17 -39 0
-352 -17 -40 0
-352 -17 -41 0
-352 -17 -43 0
-352 -17 -44 0
-352 -17 -45 0
-352 -17 -63 0
-352 -17 -64 0
-352 -17 -65 0
-352 -17 -67 0
-352 -17 -68 0
-352 -17 -69 0
-352 -17 -107 0
-352 -17 -108 0
-352 -17 -109 0
-352 -17 -111 0
-352 -17 -112 0
-352 -17 -113 0
-352 -18 177 0
-352 -18 -21 -28 0
-352 -18 -40 0
-352 -18 -41 0
-352 -18 -44 0
-352 -18 -45 0
-352 -18 -64 0
-352 -18 -65 0
-352 -18 -68 0
-352 -18 -69 0
-352 -18 -108 0
-352 -18 -109 0
-352 -18 -112 0
-352 -18 -113 0
-352 -19 178 0
-352 -19 -21 -29 0
-352 -19 -41 0
-352 -19 -45 0
-352 -19 -65 0
-352 -19 -69 0
-352 -19 -109 0
-352 -19 -113 0
-353 148 0
-353 171 0
-353 -11 0
-353 -14 0
-353 -15 0
-353 -16 0
-353 -20 0
-353 -17 176 0
-353 -17 -22 -27 0
-353 -17 -43 0
-353 -17 -44 0
-353 -17 -45 0
-353 -17 -47 0
-353 -17 -48 0
-353 -17 -49 0
-353 -17 -67 0
-353 -17 -68 0
-353 -17 -69 0
-353 -17 -71 0
-353 -17 -72 0
-353 -17 -73 0
-353 -17 -107 0
-353 -17 -108 0
-353 -17 -109 0
-353 -17 -111 0
-353 -17 -112 0
-353 -17 -113 0
-353 -17 -115 0
-353 -17 -116 0
-353 -17 -117 0
-353 -18 177 0
-353 -18 -22 -28 0
-353 -18 -44 0
-353 -18 -45 0
-353 -18 -48 0
-353 -18 -49 0
-353 -18 -68 0
-353 -18 -69 0
-353 -18 -72 0
-353 -18 -73 0
-353 -18 -108 0
-353 -18 -109 0
-353 -18 -112 0
-353 -18 -113 0
-353 -18 -116 0
-353 -18 -117 0
-353 -19 178 0
-353 -19 -22 -29 0
-353 -19 -45 0
-353 -19 -49 0
-353 -19 -69 0
-353 -19 -73 0
-353 -19 -109 0
-353 -19 -113 0
-353 -19 -117 0
-354 148 0
-354 172 0
-354 -11 0
-354 -12 0
-354 -15 0
-354 -16 0
-354 -20 0
-354 -17 176 0
-354 -17 -23 -27 0
-354 -17 -47 0
-354 -17 -48 0
-354 -17 -49 0
-354 -17 -51 0
-354 -17 -52 0
-354 -17 -53 0
-354 -17 -71 0
-354 -17 -72 0
-354 -17 -73 0
-354 -17 -75 0
-354 -17 -76 0
-354 -17 -77 0
-354 -17 -107 0
-354 -17 -108 0
-354 -17 -109 0
-354 -17 -111 0
-354 -17 -112 0
-354 -17 -113 0
-354 -17 -115 0
-354 -17 -116 0
-354 -17 -117 0
-354 -17 -119 0
-354 -17 -120 0
-354 -17 -121 0
-354 -18 177 0
-354 -18 -23 -28 0
-354 -18 -48 0
-354 -18 -49 0
-354 -18 -52 0
-354 -18 -53 0
-354 -18 -72 0
-354 -18 -73 0
-354 -18 -76 0
-354 -18 -77 0
-354 -18 -108 0
-354 -18 -109 0
-354 -18 -112 0
-354 -18 -113 0
-354 -18 -116 0
-354 -18 -117 0
-354 -18 -120 0
-354 -18 -121 0
-354 -19 178 0
-354 -19 -23 -29 0
-354 -19 -49 0
-354 -19 -53 0
-354 -19 -73 0
-354 -19 -77 0
-354 -19 -109 0
-354 -19 -113 0
-354 -19 -117 0
-354 -19 -121 0
-355 148 0
-355 173 0
-355 -11 0
-355 -12 0
-355 -13 0
-355 -16 0
-355 -20 0
-355 -17 176 0
-355 -17 -24 -27 0
-355 -17 -51 0
-355 -17 -52 0
-355 -17 -53 0
-355 -17 -55 0
-355 -17 -56 0
-355 -17 -57 0
-355 -17 -75 0
-355 -17 -76 0
-355 -17 -77 0
-355 -17 -79 0
-355 -17 -80 0
-355 -17 -81 0
-355 -17 -111 0
-355 -17 -112 0
-355 -17 -113 0
-355 -17 -115 0
-355 -17 -116 0
-355 -17 -117 0
-355 -17 -119 0
-355 -17 -120 0
-355 -17 -121 0
-355 -18 177 0
-355 -18 -24 -28 0
-355 -18 -52 0
-355 -18 -53 0
-355 -18 -56 0
-355 -18 -57 0
-355 -18 -76 0
-355 -18 -77 0
-355 -18 -80 0
-355 -18 -81 0
-355 -18 -112 0
-355 -18 -113 0
-355 -18 -116 0
-355 -18 -117 0
-355 -18 -120 0
-355 -18 -121 0
-355 -19 178 0
-355 -19 -24 -29 0
-355 -19 -53 0
-355 -19 -57 0
-355 -19 -77 0
-355 -19 -81 0
-355 -19 -113 0
-355 -19 -117 0
-355 -19 -121 0
-356 148 0
-356 174 0
-356 -11 0
-356 -12 0
-356 -13 0
-356 -14 0
-356 -20 0
-356 -17 176 0
-356 -17 -25 -27 0
-356 -17 -55 0
-356 -17 -56 0
-356 -17 -57 0
-356 -17 -59 0
-356 -17 -60 0
-356 -17 -61 0
-356 -17 -79 0
-356 -17 -80 0
-356 -17 -81 0
-356 -17 -83 0
-356 -17 -84 0
-356 -17 -85 0
-356 -17 -115 0
-356 -17 -116 0
-356 -17 -117 0
-356 -17 -119 0
-356 -17 -120 0
-356 -17 -121 0
-356 -18 177 0
-356 -18 -25 -28 0
-356 -18 -56 0
-356 -18 -57 0
-356 -18 -60 0
-356 -18 -61 0
-356 -18 -80 0
-356 -18 -81 0
-356 -18 -84 0
-356 -18 -85 0
-356 -18 -116 0
-356 -18 -117 0
-356 -18 -120 0
-356 -18 -121 0
-356 -19 178 0
-356 -19 -25 -29 0
-356 -19 -57 0
-356 -19 -61 0
-356 -19 -81 0
-356 -19 -85 0
-356 -19 -117 0
-356 -19 -121 0
-357 148 0
-357 170 0
-357 -32 0
-357 -33 0
-357 -37 0
-357 -34 176 0
-357 -34 -21 -27 0
-357 -34 -39 0
-357 -34 -40 0
-357 -34 -41 0
-357 -34 -43 0
-357 -34 -44 0
-357 -34 -45 0
-357 -34 -63 0
-357 -34 -64 0
-357 -34 -65 0
-357 -34 -67 0
-357 -34 -68 0
-357 -34 -69 0
-357 -34 -107 0
-357 -34 -108 0
-357 -34 -109 0
-357 -34 -111 0
-357 -34 -112 0
-357 -34 -113 0
-357 -35 177 0
-357 -35 -21 -28 0
-357 -35 -40 0
-357 -35 -41 0
-357 -35 -44 0
-357 -35 -45 0
-357 -35 -64 0
-357 -35 -65 0
-357 -35 -68 0
-357 -35 -69 0
-357 -35 -108 0
-357 -35 -109 0
-357 -35 -112 0
-357 -35 -113 0
-357 -36 178 0
-357 -36 -21 -29 0
-357 -36 -41 0
-357 -36 -45 0
-357 -36 -65 0
-357 -36 -69 0
-357 -36 -109 0
-357 -36 -113 0
-358 148 0
-358 171 0
-358 -33 0
-358 -37 0
-358 -34 176 0
-358 -34 -22 -27 0
-358 -34 -43 0
-358 -34 -44 0
-358 -34 -45 0
-358 -34 -47 0
-358 -34 -48 0
-358 -34 -49 0
-358 -34 -67 0
-358 -34 -68 0
-358 -34 -69 0
-358 -34 -71 0
-358 -34 -72 0
-358 -34 -73 0
-358 -34 -107 0
-358 -34 -108 0
-358 -34 -109 0
-358 -34 -111 0
-358 -34 -112 0
-358 -34 -113 0
-358 -34 -115 0
-358 -34 -116 0
-358 -34 -117 0
-358 -35 177 0
-358 -35 -22 -28 0
-358 -35 -44 0
-358 -35 -45 0
-358 -35 -48 0
-358 -35 -49 0
-358 -35 -68 0
-358 -35 -69 0
-358 -35 -72 0
-358 -35 -73 0
-358 -35 -108 0
-358 -35 -109 0
-358 -35 -112 0
-358 -35 -113 0
-358 -35 -116 0
-358 -35 -117 0
-358 -36 178 0
-358 -36 -22 -29 0
-358 -36 -45 0
-358 -36 -49 0
-358 -36 -69 0
-358 -36 -73 0
-358 -36 -109 0
-358 -36 -113 0
-358 -36 -117 0
-359 148 0
-359 172 0
-359 -37 0
-359 -34 176 0
-359 -34 -23 -27 0
-359 -34 -47 0
-359 -34 -48 0
-359 -34 -49 0
-359 -34 -51 0
-359 -34 -52 0
-359 -34 -53 0
-359 -34 -71 0
-359 -34 -72 0
-359 -34 -73 0
-359 -34 -75 0
-359 -34 -76 0
-359 -34 -77 0
-359 -34 -107 0
-359 -34 -108 0
-359 -34 -109 0
-359 -34 -111 0
-359 -34 -112 0
-359 -34 -113 0
-359 -34 -115 0
-359 -34 -116 0
-359 -34 -117 0
-359 -34 -119 0
-359 -34 -120 0
-359 -34 -121 0
-359 -35 177 0
-359 -35 -23 -28 0
-359 -35 -48 0
-359 -35 -49 0
-359 -35 -52 0
-359 -35 -53 0
-359 -35 -72 0
-359 -35 -73 0
-359 -35 -76 0
-359 -35 -77 0
-359 -35 -108 0
-359 -35 -109 0
-359 -35 -112 0
-359 -35 -113 0
-359 -35 -116 0
-359 -35 -117 0
-359 -35 -120 0
-359 -35 -121 0
-359 -36 178 0
-359 -36 -23 -29 0
-359 -36 -49 0
-359 -36 -53 0
-359 -36 -73 0
-359 -36 -77 0
-359 -36 -109 0
-359 -36 -113 0
-359 -36 -117 0
-359 -36 -121 0
-360 148 0
-360 173 0
-360 -30 0
-360 -37 0
-360 -34 176 0
-360 -34 -24 -27 0
-360 -34 -51 0
-360 -34 -52 0
-360 -34 -53 0
-360 -34 -55 0
-360 -34 -56 0
-360 -34 -57 0
-360 -34 -75 0
-360 -34 -76 0
-360 -34 -77 0
-360 -34 -79 0
-360 -34 -80 0
-360 -34 -81 0
-360 -34 -111 0
-360 -34 -112 0
-360 -34 -113 0
-360 -34 -115 0
-360 -34 -116 0
-360 -34 -117 0
-360 -34 -119 0
-360 -34 -120 0
-360 -34 -121 0
-360 -35 177 0
-360 -35 -24 -28 0
-360 -35 -52 0
-360 -35 -53 0
-360 -35 -56 0
-360 -35 -57 0
-360 -35 -76 0
-360 -35 -77 0
-360 -35 -80 0
-360 -35 -81 0
-360 -35 -112 0
-360 -35 -113 0
-360 -35 -116 0
-360 -35 -117 0
-360 -35 -120 0
-360 -35 -121 0
-360 -36 178 0
-360 -36 -24 -29 0
-360 -36 -53 0
-360 -36 -57 0
-360 -36 -77 0
-360 -36 -81 0
-360 -36 -113 0
-360 -36 -117 0
-360 -36 -121 0
-361 148 0
-361 174 0
-361 -30 0
-361 -31 0
-361 -37 0
-361 -34 176 0
-361 -34 -25 -27 0
-361 -34 -55 0
-361 -34 -56 0
-361 -34 -57 0
-361 -34 -59 0
-361 -34 -60 0
-361 -34 -61 0
-361 -34 -79 0
-361 -34 -80 0
-361 -34 -81 0
-361 -34 -83 0
-361 -34 -84 0
-361 -34 -85 0
-361 -34 -115 0
-361 -34 -116 0
-361 -34 -117 0
-361 -34 -119 0
-361 -34 -120 0
-361 -34 -121 0
-361 -35 177 0
-361 -35 -25 -28 0
-361 -35 -56 0
-361 -35 -57 0
-361 -35 -60 0
-361 -35 -61 0
-361 -35 -80 0
-361 -35 -81 0
-361 -35 -84 0
-361 -35 -85 0
-361 -35 -116 0
-361 -35 -117 0
-361 -35 -120 0
-361 -35 -121 0
-361 -36 178 0
-361 -36 -25 -29 0
-361 -36 -57 0
-361 -36 -61 0
-361 -36 -81 0
-361 -36 -85 0
-361 -36 -117 0
-361 -36 -121 0
-362 148 0
-362 170 0
-362 175 0
-362 -21 -26 0
-362 -38 0
-362 -39 0
-362 -40 0
-362 -41 0
-362 -42 0
-362 -43 0
-362 -44 0
-362 -45 0
-362 -62 0
-362 -63 0
-362 -64 0
-362 -65 0
-362 -66 0
-362 -67 0
-362 -68 0
-362 -69 0
-362 -106 0
-362 -107 0
-362 -108 0
-362 -109 0
-362 -110 0
-362 -111 0
-362 -112 0
-362 -113 0
-363 148 0
-363 171 0
-363 175 0
-363 -22 -26 0
-363 -42 0
-363 -43 0
-363 -44 0
-363 -45 0
-363 -46 0
-363 -47 0
-363 -48 0
-363 -49 0
-363 -66 0
-363 -67 0
-363 -68 0
-363 -69 0
-363 -70 0
-363 -71 0
-363 -72 0
-363 -73 0
-363 -106 0
-363 -107 0
-363 -108 0
-363 -109 0
-363 -110 0
-363 -111 0
-363 -112 0
-363 -113 0
-363 -114 0
-363 -115 0
-363 -116 0
-363 -117 0
-364 148 0
-364 172 0
-364 175 0
-364 -23 -26 0
-364 -46 0
-364 -47 0
-364 -48 0
-364 -49 0
-364 -50 0
-364 -51 0
-364 -52 0
-364 -53 0
-364 -70 0
-364 -71 0
-364 -72 0
-364 -73 0
-364 -74 0
-364 -75 0
-364 -76 0
-364 -77 0
-364 -106 0
-364 -107 0
-364 -108 0
-364 -109 0
-364 -110 0
-364 -111 0
-364 -112 0
-364 -113 0
-364 -114 0
-364 -115 0
-364 -116 0
-364 -117 0
-364 -118 0
-364 -119 0
-364 -120 0
-364 -121 0
-365 148 0
-365 173 0
-365 175 0
-365 -24 -26 0
-365 -50 0
-365 -51 0
-365 -52 0
-365 -53 0
-365 -54 0
-365 -55 0
-365 -56 0
-365 -57 0
-365 -74 0
-365 -75 0
-365 -76 0
-365 -77 0
-365 -78 0
-365 -79 0
-365 -80 0
-365 -81 0
-365 -110 0
-365 -111 0
-365 -112 0
-365 -113 0
-365 -114 0
-365 -115 0
-365 -116 0
-365 -117 0
-365 -118 0
-365 -119 0
-365 -120 0
-365 -121 0
-366 148 0
-366 174 0
-366 175 0
-366 -25 -26 0
-366 -54 0
-366 -55 0
-366 -56 0
-366 -57 0
-366 -58 0
-366 -59 0
-366 -60 0
-366 -61 0
-366 -78 0
-366 -79 0
-366 -80 0
-366 -81 0
-366 -82 0
-366 -83 0
-366 -84 0
-366 -85 0
-366 -114 0
-366 -115 0
-366 -116 0
-366 -117 0
-366 -118 0
-366 -119 0
-366 -120 0
-366 -121 0
-367 149 0
-367 179 0
-367 -4 0
-367 -5 0
-367 -6 0
-367 -10 0
-367 -7 184 0
-367 -7 -30 -35 0
-367 -7 -39 0
-367 -7 -40 0
-367 -7 -41 0
-367 -7 -43 0
-367 -7 -44 0
-367 -7 -45 0
-367 -7 -47 0
-367 -7 -48 0
-367 -7 -49 0
-367 -7 -63 0
-367 -7 -64 0
-367 -7 -65 0
-367 -7 -67 0
-367 -7 -68 0
-367 -7 -69 0
-367 -7 -71 0
-367 -7 -72 0
-367 -7 -73 0
-367 -7 -87 0
-367 -7 -88 0
-367 -7 -89 0
-367 -7 -91 0
-367 -7 -92 0
-367 -7 -93 0
-367 -7 -95 0
-367 -7 -96 0
-367 -7 -97 0
-367 -8 185 0
-367 -8 -30 -36 0
-367 -8 -40 0
-367 -8 -41 0
-367 -8 -44 0
-367 -8 -45 0
-367 -8 -48 0
-367 -8 -49 0
-367 -8 -64 0
-367 -8 -65 0
-367 -8 -68 0
-367 -8 -69 0
-367 -8 -72 0
-367 -8 -73 0
-367 -8 -88 0
-367 -8 -89 0
-367 -8 -92 0
-367 -8 -93 0
-367 -8 -96 0
-367 -8 -97 0
-367 -9 186 0
-367 -9 -30 -37 0
-367 -9 -41 0
-367 -9 -45 0
-367 -9 -49 0
-367 -9 -65 0
-367 -9 -69 0
-367 -9 -73 0
-367 -9 -89 0
-367 -9 -93 0
-367 -9 -97 0
-368 149 0
-368 180 0
-368 -1 0
-368 -5 0
-368 -6 0
-368 -10 0
-368 -7 184 0
-368 -7 -31 -35 0
-368 -7 -43 0
-368 -7 -44 0
-368 -7 -45 0
-368 -7 -47 0
-368 -7 -48 0
-368 -7 -49 0
-368 -7 -51 0
-368 -7 -52 0
-368 -7 -53 0
-368 -7 -67 0
-368 -7 -68 0
-368 -7 -69 0
-368 -7 -71 0
-368 -7 -72 0
-368 -7 -73 0
-368 -7 -75 0
-368 -7 -76 0
-368 -7 -77 0
-368 -7 -87 0
-368 -7 -88 0
-368 -7 -89 0
-368 -7 -91 0
-368 -7 -92 0
-368 -7 -93 0
-368 -7 -95 0
-368 -7 -96 0
-368 -7 -97 0
-368 -7 -99 0
-368 -7 -100 0
-368 -7 -101 0
-368 -8 185 0
-368 -8 -31 -36 0
-368 -8 -44 0
-368 -8 -45 0
-368 -8 -48 0
-368 -8 -49 0
-368 -8 -52 0
-368 -8 -53 0
-368 -8 -68 0
-368 -8 -69 0
-368 -8 -72 0
-368 -8 -73 0
-368 -8 -76 0
-368 -8 -77 0
-368 -8 -88 0
-368 -8 -89 0
-368 -8 -92 0
-368 -8 -93 0
-368 -8 -96 0
-368 -8 -97 0
-368 -8 -100 0
-368 -8 -101 0
-368 -9 186 0
-368 -9 -31 -37 0
-368 -9 -45 0
-368 -9 -49 0
-368 -9 -53 0
-368 -9 -69 0
-368 -9 -73 0
-368 -9 -77 0
-368 -9 -89 0
-368 -9 -93 0
-368 -9 -97 0
-368 -9 -101 0
-369 149 0
-369 181 0
-369 -1 0
-369 -2 0
-369 -6 0
-369 -10 0
-369 -7 184 0
-369 -7 -32 -35 0
-369 -7 -47 0
-369 -7 -48 0
-369 -7 -49 0
-369 -7 -51 0
-369 -7 -52 0
-369 -7 -53 0
-369 -7 -55 0
-369 -7 -56 0
-369 -7 -57 0
-369 -7 -71 0
-369 -7 -72 0
-369 -7 -73 0
-369 -7 -75 0
-369 -7 -76 0
-369 -7 -77 0
-369 -7 -79 0
-369 -7 -80 0
-369 -7 -81 0
-369 -7 -91 0
-369 -7 -92 0
-369 -7 -93 0
-369 -7 -95 0
-369 -7 -96 0
-369 -7 -97 0
-369 -7 -99 0
-369 -7 -100 0
-369 -7 -101 0
-369 -7 -103 0
-369 -7 -104 0
-369 -7 -105 0
-369 -8 185 0
-369 -8 -32 -36 0
-369 -8 -48 0
-369 -8 -49 0
-369 -8 -52 0
-369 -8 -53 0
-369 -8 -56 0
-369 -8 -57 0
-369 -8 -72 0
-369 -8 -73 0
-369 -8 -76 0
-369 -8 -77 0
-369 -8 -80 0
-369 -8 -81 0
-369 -8 -92 0
-369 -8 -93 0
-369 -8 -96 0
-369 -8 -97 0
-369 -8 -100 0
-369 -8 -101 0
-369 -8 -104 0
-369 -8 -105 0
-369 -9 186 0
-369 -9 -32 -37 0
-369 -9 -49 0
-369 -9 -53 0
-369 -9 -57 0
-369 -9 -73 0
-369 -9 -77 0
-369 -9 -81 0
-369 -9 -93 0
-369 -9 -97 0
-369 -9 -101 0
-369 -9 -105 0
-370 149 0
-370 182 0
-370 -1 0
-370 -2 0
-370 -3 0
-370 -10 0
-370 -7 184 0
-370 -7 -33 -35 0
-370 -7 -51 0
-370 -7 -52 0
-370 -7 -53 0
-370 -7 -55 0
-370 -7 -56 0
-370 -7 -57 0
-370 -7 -59 0
-370 -7 -60 0
-370 -7 -61 0
-370 -7 -75 0
-370 -7 -76 0
-370 -7 -77 0
-370 -7 -79 0
-370 -7 -80 0
-370 -7 -81 0
-370 -7 -83 0
-370 -7 -84 0
-370 -7 -85 0
-370 -7 -95 0
-370 -7 -96 0
-370 -7 -97 0
-370 -7 -99 0
-370 -7 -100 0
-370 -7 -101 0
-370 -7 -103 0
-370 -7 -104 0
-370 -7 -105 0
-370 -8 185 0
-370 -8 -33 -36 0
-370 -8 -52 0
-370 -8 -53 0
-370 -8 -56 0
-370 -8 -57 0
-370 -8 -60 0
-370 -8 -61 0
-370 -8 -76 0
-370 -8 -77 0
-370 -8 -80 0
-370 -8 -81 0
-370 -8 -84 0
-370 -8 -85 0
-370 -8 -96 0
-370 -8 -97 0
-370 -8 -100 0
-370 -8 -101 0
-370 -8 -104 0
-370 -8 -105 0
-370 -9 186 0
-370 -9 -33 -37 0
-370 -9 -53 0
-370 -9 -57 0
-370 -9 -61 0
-370 -9 -77 0
-370 -9 -81 0
-370 -9 -85 0
-370 -9 -97 0
-370 -9 -101 0
-370 -9 -105 0
-371 149 0
-371 179 0
-371 -14 0
-371 -15 0
-371 -16 0
-371 -20 0
-371 -17 184 0
-371 -17 -30 -35 0
-371 -17 -39 0
-371 -17 -40 0
-371 -17 -41 0
-371 -17 -43 0
-371 -17 -44 0
-371 -17 -45 0
-371 -17 -47 0
-371 -17 -48 0
-371 -17 -49 0
-371 -17 -63 0
-371 -17 -64 0
-371 -17 -65 0
-371 -17 -67 0
-371 -17 -68 0
-371 -17 -69 0
-371 -17 -71 0
-371 -17 -72 0
-371 -17 -73 0
-371 -17 -87 0
-371 -17 -88 0
-371 -17 -89 0
-371 -17 -91 0
-371 -17 -92 0
-371 -17 -93 0
-371 -17 -95 0
-371 -17 -96 0
-371 -17 -97 0
-371 -18 185 0
-371 -18 -30 -36 0
-371 -18 -40 0
-371 -18 -41 0
-371 -18 -44 0
-371 -18 -45 0
-371 -18 -48 0
-371 -18 -49 0
-371 -18 -64 0
-371 -18 -65 0
-371 -18 -68 0
-371 -18 -69 0
-371 -18 -72 0
-371 -18 -73 0
-371 -18 -88 0
-371 -18 -89 0
-371 -18 -92 0
-371 -18 -93 0
-371 -18 -96 0
-371 -18 -97 0
-371 -19 186 0
-371 -19 -30 -37 0
-371 -19 -41 0
-371 -19 -45 0
-371 -19 -49 0
-371 -19 -65 0
-371 -19 -69 0
-371 -19 -73 0
-371 -19 -89 0
-371 -19 -93 0
-371 -19 -97 0
-372 149 0
-372 180 0
-372 -11 0
-372 -15 0
-372 -16 0
-372 -20 0
-372 -17 184 0
-372 -17 -31 -35 0
-372 -17 -43 0
-372 -17 -44 0
-372 -17 -45 0
-372 -17 -47 0
-372 -17 -48 0
-372 -17 -49 0
-372 -17 -51 0
-372 -17 -52 0
-372 -17 -53 0
-372 -17 -67 0
-372 -17 -68 0
-372 -17 -69 0
-372 -17 -71 0
-372 -17 -72 0
-372 -17 -73 0
-372 -17 -75 0
-372 -17 -76 0
-372 -17 -77 0
-372 -17 -87 0
-372 -17 -88 0
-372 -17 -89 0
-372 -17 -91 0
-372 -17 -92 0
-372 -17 -93 0
-372 -17 -95 0
-372 -17 -96 0
-372 -17 -97 0
-372 -17 -99 0
-372 -17 -100 0
-372 -17 -101 0
-372 -18 185 0
-372 -18 -31 -36 0
-372 -18 -44 0
-372 -18 -45 0
-372 -18 -48 0
-372 -18 -49 0
-372 -18 -52 0
-372 -18 -53 0
-372 -18 -68 0
-372 -18 -69 0
-372 -18 -72 0
-372 -18 -73 0
-372 -18 -76 0
-372 -18 -77 0
-372 -18 -88 0
-372 -18 -89 0
-372 -18 -92 0
-372 -18 -93 0
-372 -18 -96 0
-372 -18 -97 0
-372 -18 -100 0
-372 -18 -101 0
-372 -19 186 0
-372 -19 -31 -37 0
-372 -19 -45 0
-372 -19 -49 0
-372 -19 -53 0
-372 -19 -69 0
-372 -19 -73 0
-372 -19 -77 0
-372 -19 -89 0
-372 -19 -93 0
-372 -19 -97 0
-372 -19 -101 0
-373 149 0
-373 181 0
-373 -11 0
-373 -12 0
-373 -16 0
-373 -20 0
-373 -17 184 0
-373 -17 -32 -35 0
-373 -17 -47 0
-373 -17 -48 0
-373 -17 -49 0
-373 -17 -51 0
-373 -17 -52 0
-373 -17 -53 0
-373 -17 -55 0
-373 -17 -56 0
-373 -17 -57 0
-373 -17 -71 0
-373 -17 -72 0
-373 -17 -73 0
-373 -17 -75 0
-373 -17 -76 0
-373 -17 -77 0
-373 -17 -79 0
-373 -17 -80 0
-373 -17 -81 0
-373 -17 -91 0
-373 -17 -92 0
-373 -17 -93 0
-373 -17 -95 0
-373 -17 -96 0
-373 -17 -97 0
-373 -17 -99 0
-373 -17 -100 0
-373 -17 -101 0
-373 -17 -103 0
-373 -17 -104 0
-373 -17 -105 0
-373 -18 185 0
-373 -18 -32 -36 0
-373 -18 -48 0
-373 -18 -49 0
-373 -18 -52 0
-373 -18 -53 0
-373 -18 -56 0
-373 -18 -57 0
-373 -18 -72 0
-373 -18 -73 0
-373 -18 -76 0
-373 -18 -77 0
-373 -18 -80 0
-373 -18 -81 0
-373 -18 -92 0
-373 -18 -93 0
-373 -18 -96 0
-373 -18 -97 0
-373 -18 -100 0
-373 -18 -101 0
-373 -18 -104 0
-373 -18 -105 0
-373 -19 186 0
-373 -19 -32 -37 0
-373 -19 -49 0
-373 -19 -53 0
-373 -19 -57 0
-373 -19 -73 0
-373 -19 -77 0
-373 -19 -81 0
-373 -19 -93 0
-373 -19 -97 0
-373 -19 -101 0
-373 -19 -105 0
-374 149 0
-374 182 0
-374 -11 0
-374 -12 0
-374 -13 0
-374 -20 0
-374 -17 184 0
-374 -17 -33 -35 0
-374 -17 -51 0
-374 -17 -52 0
-374 -17 -53 0
-374 -17 -55 0
-374 -17 -56 0
-374 -17 -57 0
-374 -17 -59 0
-374 -17 -60 0
-374 -17 -61 0
-374 -17 -75 0
-374 -17 -76 0
-374 -17 -77 0
-374 -17 -79 0
-374 -17 -80 0
-374 -17 -81 0
-374 -17 -83 0
-374 -17 -84 0
-374 -17 -85 0
-374 -17 -95 0
-374 -17 -96 0
-374 -17 -97 0
-374 -17 -99 0
-374 -17 -100 0
-374 -17 -101 0
-374 -17 -103 0
-374 -17 -104 0
-374 -17 -105 0
-374 -18 185 0
-374 -18 -33 -36 0
-374 -18 -52 0
-374 -18 -53 0
-374 -18 -56 0
-374 -18 -57 0
-374 -18 -60 0
-374 -18 -61 0
-374 -18 -76 0
-374 -18 -77 0
-374 -18 -80 0
-374 -18 -81 0
-374 -18 -84 0
-374 -18 -85 0
-374 -18 -96 0
-374 -18 -97 0
-374 -18 -100 0
-374 -18 -101 0
-374 -18 -104 0
-374 -18 -105 0
-374 -19 186 0
-374 -19 -33 -37 0
-374 -19 -53 0
-374 -19 -57 0
-374 -19 -61 0
-374 -19 -77 0
-374 -19 -81 0
-374 -19 -85 0
-374 -19 -97 0
-374 -19 -101 0
-374 -19 -105 0
-375 149 0
-375 179 0
-375 -24 0
-375 -25 0
-375 -29 0
-375 -26 184 0
-375 -26 -30 -35 0
-375 -26 -39 0
-375 -26 -40 0
-375 -26 -41 0
-375 -26 -43 0
-375 -26 -44 0
-375 -26 -45 0
-375 -26 -47 0
-375 -26 -48 0
-375 -26 -49 0
-375 -26 -63 0
-375 -26 -64 0
-375 -26 -65 0
-375 -26 -67 0
-375 -26 -68 0
-375 -26 -69 0
-375 -26 -71 0
-375 -26 -72 0
-375 -26 -73 0
-375 -26 -87 0
-375 -26 -88 0
-375 -26 -89 0
-375 -26 -91 0
-375 -26 -92 0
-375 -26 -93 0
-375 -26 -95 0
-375 -26 -96 0
-375 -26 -97 0
-375 -27 185 0
-375 -27 -30 -36 0
-375 -27 -40 0
-375 -27 -41 0
-375 -27 -44 0
-375 -27 -45 0
-375 -27 -48 0
-375 -27 -49 0
-375 -27 -64 0
-375 -27 -65 0
-375 -27 -68 0
-375 -27 -69 0
-375 -27 -72 0
-375 -27 -73 0
-375 -27 -88 0
-375 -27 -89 0
-375 -27 -92 0
-375 -27 -93 0
-375 -27 -96 0
-375 -27 -97 0
-375 -28 186 0
-375 -28 -30 -37 0
-375 -28 -41 0
-375 -28 -45 0
-375 -28 -49 0
-375 -28 -65 0
-375 -28 -69 0
-375 -28 -73 0
-375 -28 -89 0
-375 -28 -93 0
-375 -28 -97 0
-376 149 0
-376 180 0
-376 -25 0
-376 -29 0
-376 -26 184 0
-376 -26 -31 -35 0
-376 -26 -43 0
-376 -26 -44 0
-376 -26 -45 0
-376 -26 -47 0
-376 -26 -48 0
-376 -26 -49 0
-376 -26 -51 0
-376 -26 -52 0
-376 -26 -53 0
-376 -26 -67 0
-376 -26 -68 0
-376 -26 -69 0
-376 -26 -71 0
-376 -26 -72 0
-376 -26 -73 0
-376 -26 -75 0
-376 -26 -76 0
-376 -26 -77 0
-376 -26 -87 0
-376 -26 -88 0
-376 -26 -89 0
-376 -26 -91 0
-376 -26 -92 0
-376 -26 -93 0
-376 -26 -95 0
-376 -26 -96 0
-376 -26 -97 0
-376 -26 -99 0
-376 -26 -100 0
-376 -26 -101 0
-376 -27 185 0
-376 -27 -31 -36 0
-376 -27 -44 0
-376 -27 -45 0
-376 -27 -48 0
-376 -27 -49 0
-376 -27 -52 0
-376 -27 -53 0
-376 -27 -68 0
-376 -27 -69 0
-376 -27 -72 0
-376 -27 -73 0
-376 -27 -76 0
-376 -27 -77 0
-376 -27 -88 0
-376 -27 -89 0
-376 -27 -92 0
-376 -27 -93 0
-376 -27 -96 0
-376 -27 -97 0
-376 -27 -100 0
-376 -27 -101 0
-376 -28 186 0
-376 -28 -31 -37 0
-376 -28 -45 0
-376 -28 -49 0
-376 -28 -53 0
-376 -28 -69 0
-376 -28 -73 0
-376 -28 -77 0
-376 -28 -89 0
-376 -28 -93 0
-376 -28 -97 0
-376 -28 -101 0
-377 149 0
-377 181 0
-377 -21 0
-377 -29 0
-377 -26 184 0
-377 -26 -32 -35 0
-377 -26 -47 0
-377 -26 -48 0
-377 -26 -49 0
-377 -26 -51 0
-377 -26 -52 0
-377 -26 -53 0
-377 -26 -55 0
-377 -26 -56 0
-377 -26 -57 0
-377 -26 -71 0
-377 -26 -72 0
-377 -26 -73 0
-377 -26 -75 0
-377 -26 -76 0
-377 -26 -77 0
-377 -26 -79 0
-377 -26 -80 0
-377 -26 -81 0
-377 -26 -91 0
-377 -26 -92 0
-377 -26 -93 0
-377 -26 -95 0
-377 -26 -96 0
-377 -26 -97 0
-377 -26 -99 0
-377 -26 -100 0
-377 -26 -101 0
-377 -26 -103 0
-377 -26 -104 0
-377 -26 -105 0
-377 -27 185 0
-377 -27 -32 -36 0
-377 -27 -48 0
-377 -27 -49 0
-377 -27 -52 0
-377 -27 -53 0
-377 -27 -56 0
-377 -27 -57 0
-377 -27 -72 0
-377 -27 -73 0
-377 -27 -76 0
-377 -27 -77 0
-377 -27 -80 0
-377 -27 -81 0
-377 -27 -92 0
-377 -27 -93 0
-377 -27 -96 0
-377 -27 -97 0
-377 -27 -100 0
-377 -27 -101 0
-377 -27 -104 0
-377 -27 -105 0
-377 -28 186 0
-377 -28 -32 -37 0
-377 -28 -49 0
-377 -28 -53 0
-377 -28 -57 0
-377 -28 -73 0
-377 -28 -77 0
-377 -28 -81 0
-377 -28 -93 0
-377 -28 -97 0
-377 -28 -101 0
-377 -28 -105 0
-378 149 0
-378 182 0
-378 -21 0
-378 -22 0
-378 -29 0
-378 -26 184 0
-378 -26 -33 -35 0
-378 -26 -51 0
-378 -26 -52 0
-378 -26 -53 0
-378 -26 -55 0
-378 -26 -56 0
-378 -26 -57 0
-378 -26 -59 0
-378 -26 -60 0
-378 -26 -61 0
-378 -26 -75 0
-378 -26 -76 0
-378 -26 -77 0
-378 -26 -79 0
-378 -26 -80 0
-378 -26 -81 0
-378 -26 -83 0
-378 -26 -84 0
-378 -26 -85 0
-378 -26 -95 0
-378 -26 -96 0
-378 -26 -97 0
-378 -26 -99 0
-378 -26 -100 0
-378 -26 -101 0
-378 -26 -103 0
-378 -26 -104 0
-378 -26 -105 0
-378 -27 185 0
-378 -27 -33 -36 0
-378 -27 -52 0
-378 -27 -53 0
-378 -27 -56 0
-378 -27 -57 0
-378 -27 -60 0
-378 -27 -61 0
-378 -27 -76 0
-378 -27 -77 0
-378 -27 -80 0
-378 -27 -81 0
-378 -27 -84 0
-378 -27 -85 0
-378 -27 -96 0
-378 -27 -97 0
-378 -27 -100 0
-378 -27 -101 0
-378 -27 -104 0
-378 -27 -105 0
-378 -28 186 0
-378 -28 -33 -37 0
-378 -28 -53 0
-378 -28 -57 0
-378 -28 -61 0
-378 -28 -77 0
-378 -28 -81 0
-378 -28 -85 0
-378 -28 -97 0
-378 -28 -101 0
-378 -28 -105 0
-379 149 0
-379 179 0
-379 183 0
-379 -30 -34 0
-379 -38 0
-379 -39 0
-379 -40 0
-379 -41 0
-379 -42 0
-379 -43 0
-379 -44 0
-379 -45 0
-379 -46 0
-379 -47 0
-379 -48 0
-379 -49 0
-379 -62 0
-379 -63 0
-379 -64 0
-379 -65 0
-379 -66 0
-379 -67 0
-379 -68 0
-379 -69 0
-379 -70 0
-379 -71 0
-379 -72 0
-379 -73 0
-379 -86 0
-379 -87 0
-379 -88 0
-379 -89 0
-379 -90 0
-379 -91 0
-379 -92 0
-379 -93 0
-379 -94 0
-379 -95 0
-379 -96 0
-379 -97 0
-380 149 0
-380 180 0
-380 183 0
-380 -31 -34 0
-380 -42 0
-380 -43 0
-380 -44 0
-380 -45 0
-380 -46 0
-380 -47 0
-380 -48 0
-380 -49 0
-380 -50 0
-380 -51 0
-380 -52 0
-380 -53 0
-380 -66 0
-380 -67 0
-380 -68 0
-380 -69 0
-380 -70 0
-380 -71 0
-380 -72 0
-380 -73 0
-380 -74 0
-380 -75 0
-380 -76 0
-380 -77 0
-380 -86 0
-380 -87 0
-380 -88 0
-380 -89 0
-380 -90 0
-380 -91 0
-380 -92 0
-380 -93 0
-380 -94 0
-380 -95 0
-380 -96 0
-380 -97 0
-380 -98 0
-380 -99 0
-380 -100 0
-380 -101 0
-381 149 0
-381 181 0
-381 183 0
-381 -32 -34 0
-381 -46 0
-381 -47 0
-381 -48 0
-381 -49 0
-381 -50 0
-381 -51 0
-381 -52 0
-381 -53 0
-381 -54 0
-381 -55 0
-381 -56 0
-381 -57 0
-381 -70 0
-381 -71 0
-381 -72 0
-381 -73 0
-381 -74 0
-381 -75 0
-381 -76 0
-381 -77 0
-381 -78 0
-381 -79 0
-381 -80 0
-381 -81 0
-381 -90 0
-381 -91 0
-381 -92 0
-381 -93 0
-381 -94 0
-381 -95 0
-381 -96 0
-381 -97 0
-381 -98 0
-381 -99 0
-381 -100 0
-381 -101 0
-381 -102 0
-381 -103 0
-381 -104 0
-381 -105 0
-382 149 0
-382 182 0
-382 183 0
-382 -33 -34 0
-382 -50 0
-382 -51 0
-382 -52 0
-382 -53 0
-382 -54 0
-382 -55 0
-382 -56 0
-382 -57 0
-382 -58 0
-382 -59 0
-382 -60 0
-382 -61 0
-382 -74 0
-382 -75 0
-382 -76 0
-382 -77 0
-382 -78 0
-382 -79 0
-382 -80 0
-382 -81 0
-382 -82 0
-382 -83 0
-382 -84 0
-382 -85 0
-382 -94 0
-382 -95 0
-382 -96 0
-382 -97 0
-382 -98 0
-382 -99 0
-382 -100 0
-382 -101 0
-382 -102 0
-382 -103 0
-382 -104 0
-382 -105 0
