p cnf 860 28704
1 2 3 4 5 6 0
-1 -2 0
-1 -3 0
-1 -4 0
-1 -5 0
-1 -6 0
-2 -3 0
-2 -4 0
-2 -5 0
-2 -6 0
-3 -4 0
-3 -5 0
-3 -6 0
-4 -5 0
-4 -6 0
-5 -6 0
7 8 9 10 0
-7 -8 0
-7 -9 0
-7 -10 0
-8 -9 0
-8 -10 0
-9 -10 0
11 12 13 14 15 16 0
-11 -12 0
-11 -13 0
-11 -14 0
-11 -15 0
-11 -16 0
-12 -13 0
-12 -14 0
-12 -15 0
-12 -16 0
-13 -14 0
-13 -15 0
-13 -16 0
-14 -15 0
-14 -16 0
-15 -16 0
17 18 19 20 0
-17 -18 0
-17 -19 0
-17 -20 0
-18 -19 0
-18 -20 0
-19 -20 0
21 22 23 24 25 0
-21 -22 0
-21 -23 0
-21 -24 0
-21 -25 0
-22 -23 0
-22 -24 0
-22 -25 0
-23 -24 0
-23 -25 0
-24 -25 0
26 27 28 29 0
-26 -27 0
-26 -28 0
-26 -29 0
-27 -28 0
-27 -29 0
-28 -29 0
30 31 32 33 0
-30 -31 0
-30 -32 0
-30 -33 0
-31 -32 0
-31 -33 0
-32 -33 0
34 35 36 37 0
-34 -35 0
-34 -36 0
-34 -37 0
-35 -36 0
-35 -37 0
-36 -37 0
-38 1 0
-38 7 0
-1 -7 38 0
-39 1 0
-39 8 0
-1 -8 39 0
-40 1 0
-40 9 0
-1 -9 40 0
-41 1 0
-41 10 0
-1 -10 41 0
-42 2 0
-42 7 0
-2 -7 42 0
-43 2 0
-43 8 0
-2 -8 43 0
-44 2 0
-44 9 0
-2 -9 44 0
-45 2 0
-45 10 0
-2 -10 45 0
-46 3 0
-46 7 0
-3 -7 46 0
-47 3 0
-47 8 0
-3 -8 47 0
-48 3 0
-48 9 0
-3 -9 48 0
-49 3 0
-49 10 0
-3 -10 49 0
-50 4 0
-50 7 0
-4 -7 50 0
-51 4 0
-51 8 0
-4 -8 51 0
-52 4 0
-52 9 0
-4 -9 52 0
-53 4 0
-53 10 0
-4 -10 53 0
-54 5 0
-54 7 0
-5 -7 54 0
-55 5 0
-55 8 0
-5 -8 55 0
-56 5 0
-56 9 0
-5 -9 56 0
-57 5 0
-57 10 0
-5 -10 57 0
-58 6 0
-58 7 0
-6 -7 58 0
-59 6 0
-59 8 0
-6 -8 59 0
-60 6 0
-60 9 0
-6 -9 60 0
-61 6 0
-61 10 0
-6 -10 61 0
-62 11 0
-62 17 0
-11 -17 62 0
-63 11 0
-63 18 0
-11 -18 63 0
-64 11 0
-64 19 0
-11 -19 64 0
-65 11 0
-65 20 0
-11 -20 65 0
-66 12 0
-66 17 0
-12 -17 66 0
-67 12 0
-67 18 0
-12 -18 67 0
-68 12 0
-68 19 0
-12 -19 68 0
-69 12 0
-69 20 0
-12 -20 69 0
-70 13 0
-70 17 0
-13 -17 70 0
-71 13 0
-71 18 0
-13 -18 71 0
-72 13 0
-72 19 0
-13 -19 72 0
-73 13 0
-73 20 0
-13 -20 73 0
-74 14 0
-74 17 0
-14 -17 74 0
-75 14 0
-75 18 0
-14 -18 75 0
-76 14 0
-76 19 0
-14 -19 76 0
-77 14 0
-77 20 0
-14 -20 77 0
-78 15 0
-78 17 0
-15 -17 78 0
-79 15 0
-79 18 0
-15 -18 79 0
-80 15 0
-80 19 0
-15 -19 80 0
-81 15 0
-81 20 0
-15 -20 81 0
-82 16 0
-82 17 0
-16 -17 82 0
-83 16 0
-83 18 0
-16 -18 83 0
-84 16 0
-84 19 0
-16 -19 84 0
-85 16 0
-85 20 0
-16 -20 85 0
-86 21 0
-86 26 0
-21 -26 86 0
-87 21 0
-87 27 0
-21 -27 87 0
-88 21 0
-88 28 0
-21 -28 88 0
-89 21 0
-89 29 0
-21 -29 89 0
-90 22 0
-90 26 0
-22 -26 90 0
-91 22 0
-91 27 0
-22 -27 91 0
-92 22 0
-92 28 0
-22 -28 92 0
-93 22 0
-93 29 0
-22 -29 93 0
-94 23 0
-94 26 0
-23 -26 94 0
-95 23 0
-95 27 0
-23 -27 95 0
-96 23 0
-96 28 0
-23 -28 96 0
-97 23 0
-97 29 0
-23 -29 97 0
-98 24 0
-98 26 0
-24 -26 98 0
-99 24 0
-99 27 0
-24 -27 99 0
-100 24 0
-100 28 0
-24 -28 100 0
-101 24 0
-101 29 0
-24 -29 101 0
-102 25 0
-102 26 0
-25 -26 102 0
-103 25 0
-103 27 0
-25 -27 103 0
-104 25 0
-104 28 0
-25 -28 104 0
-105 25 0
-105 29 0
-25 -29 105 0
-106 30 0
-106 34 0
-30 -34 106 0
-107 30 0
-107 35 0
-30 -35 107 0
-108 30 0
-108 36 0
-30 -36 108 0
-109 30 0
-109 37 0
-30 -37 109 0
-110 31 0
-110 34 0
-31 -34 110 0
-111 31 0
-111 35 0
-31 -35 111 0
-112 31 0
-112 36 0
-31 -36 112 0
-113 31 0
-113 37 0
-31 -37 113 0
-114 32 0
-114 34 0
-32 -34 114 0
-115 32 0
-115 35 0
-32 -35 115 0
-116 32 0
-116 36 0
-32 -36 116 0
-117 32 0
-117 37 0
-32 -37 117 0
-118 33 0
-118 34 0
-33 -34 118 0
-119 33 0
-119 35 0
-33 -35 119 0
-120 33 0
-120 36 0
-33 -36 120 0
-121 33 0
-121 37 0
-33 -37 121 0
-122 38 62 86 106 0
-38 122 0
-62 122 0
-86 122 0
-106 122 0
-123 39 63 87 107 0
-39 123 0
-63 123 0
-87 123 0
-107 123 0
-124 40 64 88 108 0
-40 124 0
-64 124 0
-88 124 0
-108 124 0
-125 41 65 89 109 0
-41 125 0
-65 125 0
-89 125 0
-109 125 0
-126 42 66 86 90 106 110 0
-42 126 0
-66 126 0
-86 126 0
-90 126 0
-106 126 0
-110 126 0
-127 43 67 87 91 107 111 0
-43 127 0
-67 127 0
-87 127 0
-91 127 0
-107 127 0
-111 127 0
-128 44 68 88 92 108 112 0
-44 128 0
-68 128 0
-88 128 0
-92 128 0
-108 128 0
-112 128 0
-129 45 69 89 93 109 113 0
-45 129 0
-69 129 0
-89 129 0
-93 129 0
-109 129 0
-113 129 0
-130 46 70 90 94 106 110 114 0
-46 130 0
-70 130 0
-90 130 0
-94 130 0
-106 130 0
-110 130 0
-114 130 0
-131 47 71 91 95 107 111 115 0
-47 131 0
-71 131 0
-91 131 0
-95 131 0
-107 131 0
-111 131 0
-115 131 0
-132 48 72 92 96 108 112 116 0
-48 132 0
-72 132 0
-92 132 0
-96 132 0
-108 132 0
-112 132 0
-116 132 0
-133 49 73 93 97 109 113 117 0
-49 133 0
-73 133 0
-93 133 0
-97 133 0
-109 133 0
-113 133 0
-117 133 0
-134 50 74 94 98 110 114 118 0
-50 134 0
-74 134 0
-94 134 0
-98 134 0
-110 134 0
-114 134 0
-118 134 0
-135 51 75 95 99 111 115 119 0
-51 135 0
-75 135 0
-95 135 0
-99 135 0
-111 135 0
-115 135 0
-119 135 0
-136 52 76 96 100 112 116 120 0
-52 136 0
-76 136 0
-96 136 0
-100 136 0
-112 136 0
-116 136 0
-120 136 0
-137 53 77 97 101 113 117 121 0
-53 137 0
-77 137 0
-97 137 0
-101 137 0
-113 137 0
-117 137 0
-121 137 0
-138 54 78 98 102 114 118 0
-54 138 0
-78 138 0
-98 138 0
-102 138 0
-114 138 0
-118 138 0
-139 55 79 99 103 115 119 0
-55 139 0
-79 139 0
-99 139 0
-103 139 0
-115 139 0
-119 139 0
-140 56 80 100 104 116 120 0
-56 140 0
-80 140 0
-100 140 0
-104 140 0
-116 140 0
-120 140 0
-141 57 81 101 105 117 121 0
-57 141 0
-81 141 0
-101 141 0
-105 141 0
-117 141 0
-121 141 0
-142 58 82 102 118 0
-58 142 0
-82 142 0
-102 142 0
-118 142 0
-143 59 83 103 119 0
-59 143 0
-83 143 0
-103 143 0
-119 143 0
-144 60 84 104 120 0
-60 144 0
-84 144 0
-104 144 0
-120 144 0
-145 61 85 105 121 0
-61 145 0
-85 145 0
-105 145 0
-121 145 0
-38 -62 0
-38 -86 0
-38 -106 0
-39 -63 0
-39 -87 0
-39 -107 0
-40 -64 0
-40 -88 0
-40 -108 0
-41 -65 0
-41 -89 0
-41 -109 0
-42 -66 0
-42 -86 0
-42 -90 0
-42 -106 0
-42 -110 0
-43 -67 0
-43 -87 0
-43 -91 0
-43 -107 0
-43 -111 0
-44 -68 0
-44 -88 0
-44 -92 0
-44 -108 0
-44 -112 0
-45 -69 0
-45 -89 0
-45 -93 0
-45 -109 0
-45 -113 0
-46 -70 0
-46 -90 0
-46 -94 0
-46 -106 0
-46 -110 0
-46 -114 0
-47 -71 0
-47 -91 0
-47 -95 0
-47 -107 0
-47 -111 0
-47 -115 0
-48 -72 0
-48 -92 0
-48 -96 0
-48 -108 0
-48 -112 0
-48 -116 0
-49 -73 0
-49 -93 0
-49 -97 0
-49 -109 0
-49 -113 0
-49 -117 0
-50 -74 0
-50 -94 0
-50 -98 0
-50 -110 0
-50 -114 0
-50 -118 0
-51 -75 0
-51 -95 0
-51 -99 0
-51 -111 0
-51 -115 0
-51 -119 0
-52 -76 0
-52 -96 0
-52 -100 0
-52 -112 0
-52 -116 0
-52 -120 0
-53 -77 0
-53 -97 0
-53 -101 0
-53 -113 0
-53 -117 0
-53 -121 0
-54 -78 0
-54 -98 0
-54 -102 0
-54 -114 0
-54 -118 0
-55 -79 0
-55 -99 0
-55 -103 0
-55 -115 0
-55 -119 0
-56 -80 0
-56 -100 0
-56 -104 0
-56 -116 0
-56 -120 0
-57 -81 0
-57 -101 0
-57 -105 0
-57 -117 0
-57 -121 0
-58 -82 0
-58 -102 0
-58 -118 0
-59 -83 0
-59 -103 0
-59 -119 0
-60 -84 0
-60 -104 0
-60 -120 0
-61 -85 0
-61 -105 0
-61 -121 0
-62 -86 0
-62 -106 0
-63 -87 0
-63 -107 0
-64 -88 0
-64 -108 0
-65 -89 0
-65 -109 0
-66 -86 0
-66 -90 0
-66 -106 0
-66 -110 0
-67 -87 0
-67 -91 0
-67 -107 0
-67 -111 0
-68 -88 0
-68 -92 0
-68 -108 0
-68 -112 0
-69 -89 0
-69 -93 0
-69 -109 0
-69 -113 0
-70 -90 0
-70 -94 0
-70 -106 0
-70 -110 0
-70 -114 0
-71 -91 0
-71 -95 0
-71 -107 0
-71 -111 0
-71 -115 0
-72 -92 0
-72 -96 0
-72 -108 0
-72 -112 0
-72 -116 0
-73 -93 0
-73 -97 0
-73 -109 0
-73 -113 0
-73 -117 0
-74 -94 0
-74 -98 0
-74 -110 0
-74 -114 0
-74 -118 0
-75 -95 0
-75 -99 0
-75 -111 0
-75 -115 0
-75 -119 0
-76 -96 0
-76 -100 0
-76 -112 0
-76 -116 0
-76 -120 0
-77 -97 0
-77 -101 0
-77 -113 0
-77 -117 0
-77 -121 0
-78 -98 0
-78 -102 0
-78 -114 0
-78 -118 0
-79 -99 0
-79 -103 0
-79 -115 0
-79 -119 0
-80 -100 0
-80 -104 0
-80 -116 0
-80 -120 0
-81 -101 0
-81 -105 0
-81 -117 0
-81 -121 0
-82 -102 0
-82 -118 0
-83 -103 0
-83 -119 0
-84 -104 0
-84 -120 0
-85 -105 0
-85 -121 0
-86 -106 0
-86 -110 0
-87 -107 0
-87 -111 0
-88 -108 0
-88 -112 0
-89 -109 0
-89 -113 0
-90 -106 0
-90 -110 0
-90 -114 0
-91 -107 0
-91 -111 0
-91 -115 0
-92 -108 0
-92 -112 0
-92 -116 0
-93 -109 0
-93 -113 0
-93 -117 0
-94 -106 0
-94 -110 0
-94 -114 0
-94 -118 0
-95 -107 0
-95 -111 0
-95 -115 0
-95 -119 0
-96 -108 0
-96 -112 0
-96 -116 0
-96 -120 0
-97 -109 0
-97 -113 0
-97 -117 0
-97 -121 0
-98 -110 0
-98 -114 0
-98 -118 0
-99 -111 0
-99 -115 0
-99 -119 0
-100 -112 0
-100 -116 0
-100 -120 0
-101 -113 0
-101 -117 0
-101 -121 0
-102 -114 0
-102 -118 0
-103 -115 0
-103 -119 0
-104 -116 0
-104 -120 0
-105 -117 0
-105 -121 0
-38 146 63 64 65 87 88 89 107 108 109 0
-38 -146 -63 0
-38 -146 -64 0
-38 -146 -65 0
-38 -146 -87 0
-38 -146 -88 0
-38 -146 -89 0
-38 -146 -107 0
-38 -146 -108 0
-38 -146 -109 0
-39 122 0
-39 146 64 65 88 89 108 109 0
-39 -146 -64 0
-39 -146 -65 0
-39 -146 -88 0
-39 -146 -89 0
-39 -146 -108 0
-39 -146 -109 0
-40 123 0
-40 146 65 89 109 0
-40 -146 -65 0
-40 -146 -89 0
-40 -146 -109 0
-41 124 0
-41 146 0
-42 146 67 68 69 87 88 89 91 92 93 107 108 109 111 112 113 0
-42 -146 -67 0
-42 -146 -68 0
-42 -146 -69 0
-42 -146 -87 0
-42 -146 -88 0
-42 -146 -89 0
-42 -146 -91 0
-42 -146 -92 0
-42 -146 -93 0
-42 -146 -107 0
-42 -146 -108 0
-42 -146 -109 0
-42 -146 -111 0
-42 -146 -112 0
-42 -146 -113 0
-43 126 0
-43 146 68 69 88 89 92 93 108 109 112 113 0
-43 -146 -68 0
-43 -146 -69 0
-43 -146 -88 0
-43 -146 -89 0
-43 -146 -92 0
-43 -146 -93 0
-43 -146 -108 0
-43 -146 -109 0
-43 -146 -112 0
-43 -146 -113 0
-44 127 0
-44 146 69 89 93 109 113 0
-44 -146 -69 0
-44 -146 -89 0
-44 -146 -93 0
-44 -146 -109 0
-44 -146 -113 0
-45 128 0
-45 146 0
-46 146 71 72 73 91 92 93 95 96 97 107 108 109 111 112 113 115 116 117 0
-46 -146 -71 0
-46 -146 -72 0
-46 -146 -73 0
-46 -146 -91 0
-46 -146 -92 0
-46 -146 -93 0
-46 -146 -95 0
-46 -146 -96 0
-46 -146 -97 0
-46 -146 -107 0
-46 -146 -108 0
-46 -146 -109 0
-46 -146 -111 0
-46 -146 -112 0
-46 -146 -113 0
-46 -146 -115 0
-46 -146 -116 0
-46 -146 -117 0
-47 130 0
-47 146 72 73 92 93 96 97 108 109 112 113 116 117 0
-47 -146 -72 0
-47 -146 -73 0
-47 -146 -92 0
-47 -146 -93 0
-47 -146 -96 0
-47 -146 -97 0
-47 -146 -108 0
-47 -146 -109 0
-47 -146 -112 0
-47 -146 -113 0
-47 -146 -116 0
-47 -146 -117 0
-48 131 0
-48 146 73 93 97 109 113 117 0
-48 -146 -73 0
-48 -146 -93 0
-48 -146 -97 0
-48 -146 -109 0
-48 -146 -113 0
-48 -146 -117 0
-49 132 0
-49 146 0
-50 146 75 76 77 95 96 97 99 100 101 111 112 113 115 116 117 119 120 121 0
-50 -146 -75 0
-50 -146 -76 0
-50 -146 -77 0
-50 -146 -95 0
-50 -146 -96 0
-50 -146 -97 0
-50 -146 -99 0
-50 -146 -100 0
-50 -146 -101 0
-50 -146 -111 0
-50 -146 -112 0
-50 -146 -113 0
-50 -146 -115 0
-50 -146 -116 0
-50 -146 -117 0
-50 -146 -119 0
-50 -146 -120 0
-50 -146 -121 0
-51 134 0
-51 146 76 77 96 97 100 101 112 113 116 117 120 121 0
-51 -146 -76 0
-51 -146 -77 0
-51 -146 -96 0
-51 -146 -97 0
-51 -146 -100 0
-51 -146 -101 0
-51 -146 -112 0
-51 -146 -113 0
-51 -146 -116 0
-51 -146 -117 0
-51 -146 -120 0
-51 -146 -121 0
-52 135 0
-52 146 77 97 101 113 117 121 0
-52 -146 -77 0
-52 -146 -97 0
-52 -146 -101 0
-52 -146 -113 0
-52 -146 -117 0
-52 -146 -121 0
-53 136 0
-53 146 0
-54 146 79 80 81 99 100 101 103 104 105 115 116 117 119 120 121 0
-54 -146 -79 0
-54 -146 -80 0
-54 -146 -81 0
-54 -146 -99 0
-54 -146 -100 0
-54 -146 -101 0
-54 -146 -103 0
-54 -146 -104 0
-54 -146 -105 0
-54 -146 -115 0
-54 -146 -116 0
-54 -146 -117 0
-54 -146 -119 0
-54 -146 -120 0
-54 -146 -121 0
-55 138 0
-55 146 80 81 100 101 104 105 116 117 120 121 0
-55 -146 -80 0
-55 -146 -81 0
-55 -146 -100 0
-55 -146 -101 0
-55 -146 -104 0
-55 -146 -105 0
-55 -146 -116 0
-55 -146 -117 0
-55 -146 -120 0
-55 -146 -121 0
-56 139 0
-56 146 81 101 105 117 121 0
-56 -146 -81 0
-56 -146 -101 0
-56 -146 -105 0
-56 -146 -117 0
-56 -146 -121 0
-57 140 0
-57 146 0
-58 146 83 84 85 103 104 105 119 120 121 0
-58 -146 -83 0
-58 -146 -84 0
-58 -146 -85 0
-58 -146 -103 0
-58 -146 -104 0
-58 -146 -105 0
-58 -146 -119 0
-58 -146 -120 0
-58 -146 -121 0
-59 142 0
-59 146 84 85 104 105 120 121 0
-59 -146 -84 0
-59 -146 -85 0
-59 -146 -104 0
-59 -146 -105 0
-59 -146 -120 0
-59 -146 -121 0
-60 143 0
-60 146 85 105 121 0
-60 -146 -85 0
-60 -146 -105 0
-60 -146 -121 0
-61 144 0
-61 146 0
-62 147 39 40 41 87 88 89 107 108 109 0
-62 -147 -39 0
-62 -147 -40 0
-62 -147 -41 0
-62 -147 -87 0
-62 -147 -88 0
-62 -147 -89 0
-62 -147 -107 0
-62 -147 -108 0
-62 -147 -109 0
-63 122 0
-63 147 40 41 88 89 108 109 0
-63 -147 -40 0
-63 -147 -41 0
-63 -147 -88 0
-63 -147 -89 0
-63 -147 -108 0
-63 -147 -109 0
-64 123 0
-64 147 41 89 109 0
-64 -147 -41 0
-64 -147 -89 0
-64 -147 -109 0
-65 124 0
-65 147 0
-66 147 43 44 45 87 88 89 91 92 93 107 108 109 111 112 113 0
-66 -147 -43 0
-66 -147 -44 0
-66 -147 -45 0
-66 -147 -87 0
-66 -147 -88 0
-66 -147 -89 0
-66 -147 -91 0
-66 -147 -92 0
-66 -147 -93 0
-66 -147 -107 0
-66 -147 -108 0
-66 -147 -109 0
-66 -147 -111 0
-66 -147 -112 0
-66 -147 -113 0
-67 126 0
-67 147 44 45 88 89 92 93 108 109 112 113 0
-67 -147 -44 0
-67 -147 -45 0
-67 -147 -88 0
-67 -147 -89 0
-67 -147 -92 0
-67 -147 -93 0
-67 -147 -108 0
-67 -147 -109 0
-67 -147 -112 0
-67 -147 -113 0
-68 127 0
-68 147 45 89 93 109 113 0
-68 -147 -45 0
-68 -147 -89 0
-68 -147 -93 0
-68 -147 -109 0
-68 -147 -113 0
-69 128 0
-69 147 0
-70 147 47 48 49 91 92 93 95 96 97 107 108 109 111 112 113 115 116 117 0
-70 -147 -47 0
-70 -147 -48 0
-70 -147 -49 0
-70 -147 -91 0
-70 -147 -92 0
-70 -147 -93 0
-70 -147 -95 0
-70 -147 -96 0
-70 -147 -97 0
-70 -147 -107 0
-70 -147 -108 0
-70 -147 -109 0
-70 -147 -111 0
-70 -147 -112 0
-70 -147 -113 0
-70 -147 -115 0
-70 -147 -116 0
-70 -147 -117 0
-71 130 0
-71 147 48 49 92 93 96 97 108 109 112 113 116 117 0
-71 -147 -48 0
-71 -147 -49 0
-71 -147 -92 0
-71 -147 -93 0
-71 -147 -96 0
-71 -147 -97 0
-71 -147 -108 0
-71 -147 -109 0
-71 -147 -112 0
-71 -147 -113 0
-71 -147 -116 0
-71 -147 -117 0
-72 131 0
-72 147 49 93 97 109 113 117 0
-72 -147 -49 0
-72 -147 -93 0
-72 -147 -97 0
-72 -147 -109 0
-72 -147 -113 0
-72 -147 -117 0
-73 132 0
-73 147 0
-74 147 51 52 53 95 96 97 99 100 101 111 112 113 115 116 117 119 120 121 0
-74 -147 -51 0
-74 -147 -52 0
-74 -147 -53 0
-74 -147 -95 0
-74 -147 -96 0
-74 -147 -97 0
-74 -147 -99 0
-74 -147 -100 0
-74 -147 -101 0
-74 -147 -111 0
-74 -147 -112 0
-74 -147 -113 0
-74 -147 -115 0
-74 -147 -116 0
-74 -147 -117 0
-74 -147 -119 0
-74 -147 -120 0
-74 -147 -121 0
-75 134 0
-75 147 52 53 96 97 100 101 112 113 116 117 120 121 0
-75 -147 -52 0
-75 -147 -53 0
-75 -147 -96 0
-75 -147 -97 0
-75 -147 -100 0
-75 -147 -101 0
-75 -147 -112 0
-75 -147 -113 0
-75 -147 -116 0
-75 -147 -117 0
-75 -147 -120 0
-75 -147 -121 0
-76 135 0
-76 147 53 97 101 113 117 121 0
-76 -147 -53 0
-76 -147 -97 0
-76 -147 -101 0
-76 -147 -113 0
-76 -147 -117 0
-76 -147 -121 0
-77 136 0
-77 147 0
-78 147 55 56 57 99 100 101 103 104 105 115 116 117 119 120 121 0
-78 -147 -55 0
-78 -147 -56 0
-78 -147 -57 0
-78 -147 -99 0
-78 -147 -100 0
-78 -147 -101 0
-78 -147 -103 0
-78 -147 -104 0
-78 -147 -105 0
-78 -147 -115 0
-78 -147 -116 0
-78 -147 -117 0
-78 -147 -119 0
-78 -147 -120 0
-78 -147 -121 0
-79 138 0
-79 147 56 57 100 101 104 105 116 117 120 121 0
-79 -147 -56 0
-79 -147 -57 0
-79 -147 -100 0
-79 -147 -101 0
-79 -147 -104 0
-79 -147 -105 0
-79 -147 -116 0
-79 -147 -117 0
-79 -147 -120 0
-79 -147 -121 0
-80 139 0
-80 147 57 101 105 117 121 0
-80 -147 -57 0
-80 -147 -101 0
-80 -147 -105 0
-80 -147 -117 0
-80 -147 -121 0
-81 140 0
-81 147 0
-82 147 59 60 61 103 104 105 119 120 121 0
-82 -147 -59 0
-82 -147 -60 0
-82 -147 -61 0
-82 -147 -103 0
-82 -147 -104 0
-82 -147 -105 0
-82 -147 -119 0
-82 -147 -120 0
-82 -147 -121 0
-83 142 0
-83 147 60 61 104 105 120 121 0
-83 -147 -60 0
-83 -147 -61 0
-83 -147 -104 0
-83 -147 -105 0
-83 -147 -120 0
-83 -147 -121 0
-84 143 0
-84 147 61 105 121 0
-84 -147 -61 0
-84 -147 -105 0
-84 -147 -121 0
-85 144 0
-85 147 0
-86 148 39 40 41 43 44 45 63 64 65 67 68 69 107 108 109 111 112 113 0
-86 -148 -39 0
-86 -148 -40 0
-86 -148 -41 0
-86 -148 -43 0
-86 -148 -44 0
-86 -148 -45 0
-86 -148 -63 0
-86 -148 -64 0
-86 -148 -65 0
-86 -148 -67 0
-86 -148 -68 0
-86 -148 -69 0
-86 -148 -107 0
-86 -148 -108 0
-86 -148 -109 0
-86 -148 -111 0
-86 -148 -112 0
-86 -148 -113 0
-87 122 126 0
-87 148 40 41 44 45 64 65 68 69 108 109 112 113 0
-87 -148 -40 0
-87 -148 -41 0
-87 -148 -44 0
-87 -148 -45 0
-87 -148 -64 0
-87 -148 -65 0
-87 -148 -68 0
-87 -148 -69 0
-87 -148 -108 0
-87 -148 -109 0
-87 -148 -112 0
-87 -148 -113 0
-88 123 127 0
-88 148 41 45 65 69 109 113 0
-88 -148 -41 0
-88 -148 -45 0
-88 -148 -65 0
-88 -148 -69 0
-88 -148 -109 0
-88 -148 -113 0
-89 124 128 0
-89 148 0
-90 148 43 44 45 47 48 49 67 68 69 71 72 73 107 108 109 111 112 113 115 116 117 0
-90 -148 -43 0
-90 -148 -44 0
-90 -148 -45 0
-90 -148 -47 0
-90 -148 -48 0
-90 -148 -49 0
-90 -148 -67 0
-90 -148 -68 0
-90 -148 -69 0
-90 -148 -71 0
-90 -148 -72 0
-90 -148 -73 0
-90 -148 -107 0
-90 -148 -108 0
-90 -148 -109 0
-90 -148 -111 0
-90 -148 -112 0
-90 -148 -113 0
-90 -148 -115 0
-90 -148 -116 0
-90 -148 -117 0
-91 126 130 0
-91 148 44 45 48 49 68 69 72 73 108 109 112 113 116 117 0
-91 -148 -44 0
-91 -148 -45 0
-91 -148 -48 0
-91 -148 -49 0
-91 -148 -68 0
-91 -148 -69 0
-91 -148 -72 0
-91 -148 -73 0
-91 -148 -108 0
-91 -148 -109 0
-91 -148 -112 0
-91 -148 -113 0
-91 -148 -116 0
-91 -148 -117 0
-92 127 131 0
-92 148 45 49 69 73 109 113 117 0
-92 -148 -45 0
-92 -148 -49 0
-92 -148 -69 0
-92 -148 -73 0
-92 -148 -109 0
-92 -148 -113 0
-92 -148 -117 0
-93 128 132 0
-93 148 0
-94 148 47 48 49 51 52 53 71 72 73 75 76 77 107 108 109 111 112 113 115 116 117 119 120 121 0
-94 -148 -47 0
-94 -148 -48 0
-94 -148 -49 0
-94 -148 -51 0
-94 -148 -52 0
-94 -148 -53 0
-94 -148 -71 0
-94 -148 -72 0
-94 -148 -73 0
-94 -148 -75 0
-94 -148 -76 0
-94 -148 -77 0
-94 -148 -107 0
-94 -148 -108 0
-94 -148 -109 0
-94 -148 -111 0
-94 -148 -112 0
-94 -148 -113 0
-94 -148 -115 0
-94 -148 -116 0
-94 -148 -117 0
-94 -148 -119 0
-94 -148 -120 0
-94 -148 -121 0
-95 130 134 0
-95 148 48 49 52 53 72 73 76 77 108 109 112 113 116 117 120 121 0
-95 -148 -48 0
-95 -148 -49 0
-95 -148 -52 0
-95 -148 -53 0
-95 -148 -72 0
-95 -148 -73 0
-95 -148 -76 0
-95 -148 -77 0
-95 -148 -108 0
-95 -148 -109 0
-95 -148 -112 0
-95 -148 -113 0
-95 -148 -116 0
-95 -148 -117 0
-95 -148 -120 0
-95 -148 -121 0
-96 131 135 0
-96 148 49 53 73 77 109 113 117 121 0
-96 -148 -49 0
-96 -148 -53 0
-96 -148 -73 0
-96 -148 -77 0
-96 -148 -109 0
-96 -148 -113 0
-96 -148 -117 0
-96 -148 -121 0
-97 132 136 0
-97 148 0
-98 148 51 52 53 55 56 57 75 76 77 79 80 81 111 112 113 115 116 117 119 120 121 0
-98 -148 -51 0
-98 -148 -52 0
-98 -148 -53 0
-98 -148 -55 0
-98 -148 -56 0
-98 -148 -57 0
-98 -148 -75 0
-98 -148 -76 0
-98 -148 -77 0
-98 -148 -79 0
-98 -148 -80 0
-98 -148 -81 0
-98 -148 -111 0
-98 -148 -112 0
-98 -148 -113 0
-98 -148 -115 0
-98 -148 -116 0
-98 -148 -117 0
-98 -148 -119 0
-98 -148 -120 0
-98 -148 -121 0
-99 134 138 0
-99 148 52 53 56 57 76 77 80 81 112 113 116 117 120 121 0
-99 -148 -52 0
-99 -148 -53 0
-99 -148 -56 0
-99 -148 -57 0
-99 -148 -76 0
-99 -148 -77 0
-99 -148 -80 0
-99 -148 -81 0
-99 -148 -112 0
-99 -148 -113 0
-99 -148 -116 0
-99 -148 -117 0
-99 -148 -120 0
-99 -148 -121 0
-100 135 139 0
-100 148 53 57 77 81 113 117 121 0
-100 -148 -53 0
-100 -148 -57 0
-100 -148 -77 0
-100 -148 -81 0
-100 -148 -113 0
-100 -148 -117 0
-100 -148 -121 0
-101 136 140 0
-101 148 0
-102 148 55 56 57 59 60 61 79 80 81 83 84 85 115 116 117 119 120 121 0
-102 -148 -55 0
-102 -148 -56 0
-102 -148 -57 0
-102 -148 -59 0
-102 -148 -60 0
-102 -148 -61 0
-102 -148 -79 0
-102 -148 -80 0
-102 -148 -81 0
-102 -148 -83 0
-102 -148 -84 0
-102 -148 -85 0
-102 -148 -115 0
-102 -148 -116 0
-102 -148 -117 0
-102 -148 -119 0
-102 -148 -120 0
-102 -148 -121 0
-103 138 142 0
-103 148 56 57 60 61 80 81 84 85 116 117 120 121 0
-103 -148 -56 0
-103 -148 -57 0
-103 -148 -60 0
-103 -148 -61 0
-103 -148 -80 0
-103 -148 -81 0
-103 -148 -84 0
-103 -148 -85 0
-103 -148 -116 0
-103 -148 -117 0
-103 -148 -120 0
-103 -148 -121 0
-104 139 143 0
-104 148 57 61 81 85 117 121 0
-104 -148 -57 0
-104 -148 -61 0
-104 -148 -81 0
-104 -148 -85 0
-104 -148 -117 0
-104 -148 -121 0
-105 140 144 0
-105 148 0
-106 149 39 40 41 43 44 45 47 48 49 63 64 65 67 68 69 71 72 73 87 88 89 91 92 93 95 96 97 0
-106 -149 -39 0
-106 -149 -40 0
-106 -149 -41 0
-106 -149 -43 0
-106 -149 -44 0
-106 -149 -45 0
-106 -149 -47 0
-106 -149 -48 0
-106 -149 -49 0
-106 -149 -63 0
-106 -149 -64 0
-106 -149 -65 0
-106 -149 -67 0
-106 -149 -68 0
-106 -149 -69 0
-106 -149 -71 0
-106 -149 -72 0
-106 -149 -73 0
-106 -149 -87 0
-106 -149 -88 0
-106 -149 -89 0
-106 -149 -91 0
-106 -149 -92 0
-106 -149 -93 0
-106 -149 -95 0
-106 -149 -96 0
-106 -149 -97 0
-107 122 126 0
-107 122 130 0
-107 126 130 0
-107 149 40 41 44 45 48 49 64 65 68 69 72 73 88 89 92 93 96 97 0
-107 -149 -40 0
-107 -149 -41 0
-107 -149 -44 0
-107 -149 -45 0
-107 -149 -48 0
-107 -149 -49 0
-107 -149 -64 0
-107 -149 -65 0
-107 -149 -68 0
-107 -149 -69 0
-107 -149 -72 0
-107 -149 -73 0
-107 -149 -88 0
-107 -149 -89 0
-107 -149 -92 0
-107 -149 -93 0
-107 -149 -96 0
-107 -149 -97 0
-108 123 127 0
-108 123 131 0
-108 127 131 0
-108 149 41 45 49 65 69 73 89 93 97 0
-108 -149 -41 0
-108 -149 -45 0
-108 -149 -49 0
-108 -149 -65 0
-108 -149 -69 0
-108 -149 -73 0
-108 -149 -89 0
-108 -149 -93 0
-108 -149 -97 0
-109 124 128 0
-109 124 132 0
-109 128 132 0
-109 149 0
-110 149 43 44 45 47 48 49 51 52 53 67 68 69 71 72 73 75 76 77 87 88 89 91 92 93 95 96 97 99 100 101 0
-110 -149 -43 0
-110 -149 -44 0
-110 -149 -45 0
-110 -149 -47 0
-110 -149 -48 0
-110 -149 -49 0
-110 -149 -51 0
-110 -149 -52 0
-110 -149 -53 0
-110 -149 -67 0
-110 -149 -68 0
-110 -149 -69 0
-110 -149 -71 0
-110 -149 -72 0
-110 -149 -73 0
-110 -149 -75 0
-110 -149 -76 0
-110 -149 -77 0
-110 -149 -87 0
-110 -149 -88 0
-110 -149 -89 0
-110 -149 -91 0
-110 -149 -92 0
-110 -149 -93 0
-110 -149 -95 0
-110 -149 -96 0
-110 -149 -97 0
-110 -149 -99 0
-110 -149 -100 0
-110 -149 -101 0
-111 126 130 0
-111 126 134 0
-111 130 134 0
-111 149 44 45 48 49 52 53 68 69 72 73 76 77 88 89 92 93 96 97 100 101 0
-111 -149 -44 0
-111 -149 -45 0
-111 -149 -48 0
-111 -149 -49 0
-111 -149 -52 0
-111 -149 -53 0
-111 -149 -68 0
-111 -149 -69 0
-111 -149 -72 0
-111 -149 -73 0
-111 -149 -76 0
-111 -149 -77 0
-111 -149 -88 0
-111 -149 -89 0
-111 -149 -92 0
-111 -149 -93 0
-111 -149 -96 0
-111 -149 -97 0
-111 -149 -100 0
-111 -149 -101 0
-112 127 131 0
-112 127 135 0
-112 131 135 0
-112 149 45 49 53 69 73 77 89 93 97 101 0
-112 -149 -45 0
-112 -149 -49 0
-112 -149 -53 0
-112 -149 -69 0
-112 -149 -73 0
-112 -149 -77 0
-112 -149 -89 0
-112 -149 -93 0
-112 -149 -97 0
-112 -149 -101 0
-113 128 132 0
-113 128 136 0
-113 132 136 0
-113 149 0
-114 149 47 48 49 51 52 53 55 56 57 71 72 73 75 76 77 79 80 81 91 92 93 95 96 97 99 100 101 103 104 105 0
-114 -149 -47 0
-114 -149 -48 0
-114 -149 -49 0
-114 -149 -51 0
-114 -149 -52 0
-114 -149 -53 0
-114 -149 -55 0
-114 -149 -56 0
-114 -149 -57 0
-114 -149 -71 0
-114 -149 -72 0
-114 -149 -73 0
-114 -149 -75 0
-114 -149 -76 0
-114 -149 -77 0
-114 -149 -79 0
-114 -149 -80 0
-114 -149 -81 0
-114 -149 -91 0
-114 -149 -92 0
-114 -149 -93 0
-114 -149 -95 0
-114 -149 -96 0
-114 -149 -97 0
-114 -149 -99 0
-114 -149 -100 0
-114 -149 -101 0
-114 -149 -103 0
-114 -149 -104 0
-114 -149 -105 0
-115 130 134 0
-115 130 138 0
-115 134 138 0
-115 149 48 49 52 53 56 57 72 73 76 77 80 81 92 93 96 97 100 101 104 105 0
-115 -149 -48 0
-115 -149 -49 0
-115 -149 -52 0
-115 -149 -53 0
-115 -149 -56 0
-115 -149 -57 0
-115 -149 -72 0
-115 -149 -73 0
-115 -149 -76 0
-115 -149 -77 0
-115 -149 -80 0
-115 -149 -81 0
-115 -149 -92 0
-115 -149 -93 0
-115 -149 -96 0
-115 -149 -97 0
-115 -149 -100 0
-115 -149 -101 0
-115 -149 -104 0
-115 -149 -105 0
-116 131 135 0
-116 131 139 0
-116 135 139 0
-116 149 49 53 57 73 77 81 93 97 101 105 0
-116 -149 -49 0
-116 -149 -53 0
-116 -149 -57 0
-116 -149 -73 0
-116 -149 -77 0
-116 -149 -81 0
-116 -149 -93 0
-116 -149 -97 0
-116 -149 -101 0
-116 -149 -105 0
-117 132 136 0
-117 132 140 0
-117 136 140 0
-117 149 0
-118 149 51 52 53 55 56 57 59 60 61 75 76 77 79 80 81 83 84 85 95 96 97 99 100 101 103 104 105 0
-118 -149 -51 0
-118 -149 -52 0
-118 -149 -53 0
-118 -149 -55 0
-118 -149 -56 0
-118 -149 -57 0
-118 -149 -59 0
-118 -149 -60 0
-118 -149 -61 0
-118 -149 -75 0
-118 -149 -76 0
-118 -149 -77 0
-118 -149 -79 0
-118 -149 -80 0
-118 -149 -81 0
-118 -149 -83 0
-118 -149 -84 0
-118 -149 -85 0
-118 -149 -95 0
-118 -149 -96 0
-118 -149 -97 0
-118 -149 -99 0
-118 -149 -100 0
-118 -149 -101 0
-118 -149 -103 0
-118 -149 -104 0
-118 -149 -105 0
-119 134 138 0
-119 134 142 0
-119 138 142 0
-119 149 52 53 56 57 60 61 76 77 80 81 84 85 96 97 100 101 104 105 0
-119 -149 -52 0
-119 -149 -53 0
-119 -149 -56 0
-119 -149 -57 0
-119 -149 -60 0
-119 -149 -61 0
-119 -149 -76 0
-119 -149 -77 0
-119 -149 -80 0
-119 -149 -81 0
-119 -149 -84 0
-119 -149 -85 0
-119 -149 -96 0
-119 -149 -97 0
-119 -149 -100 0
-119 -149 -101 0
-119 -149 -104 0
-119 -149 -105 0
-120 135 139 0
-120 135 143 0
-120 139 143 0
-120 149 53 57 61 77 81 85 97 101 105 0
-120 -149 -53 0
-120 -149 -57 0
-120 -149 -61 0
-120 -149 -77 0
-120 -149 -81 0
-120 -149 -85 0
-120 -149 -97 0
-120 -149 -101 0
-120 -149 -105 0
-121 136 140 0
-121 136 144 0
-121 140 144 0
-121 149 0
150 151 152 153 154 155 0
-150 -151 0
-150 -152 0
-150 -153 0
-150 -154 0
-150 -155 0
-151 -152 0
-151 -153 0
-151 -154 0
-151 -155 0
-152 -153 0
-152 -154 0
-152 -155 0
-153 -154 0
-153 -155 0
-154 -155 0
156 157 158 159 0
-156 -157 0
-156 -158 0
-156 -159 0
-157 -158 0
-157 -159 0
-158 -159 0
160 161 162 163 164 165 0
-160 -161 0
-160 -162 0
-160 -163 0
-160 -164 0
-160 -165 0
-161 -162 0
-161 -163 0
-161 -164 0
-161 -165 0
-162 -163 0
-162 -164 0
-162 -165 0
-163 -164 0
-163 -165 0
-164 -165 0
166 167 168 169 0
-166 -167 0
-166 -168 0
-166 -169 0
-167 -168 0
-167 -169 0
-168 -169 0
170 171 172 173 174 0
-170 -171 0
-170 -172 0
-170 -173 0
-170 -174 0
-171 -172 0
-171 -173 0
-171 -174 0
-172 -173 0
-172 -174 0
-173 -174 0
175 176 177 178 0
-175 -176 0
-175 -177 0
-175 -178 0
-176 -177 0
-176 -178 0
-177 -178 0
179 180 181 182 0
-179 -180 0
-179 -181 0
-179 -182 0
-180 -181 0
-180 -182 0
-181 -182 0
183 184 185 186 0
-183 -184 0
-183 -185 0
-183 -186 0
-184 -185 0
-184 -186 0
-185 -186 0
-187 150 0
-187 156 0
-150 -156 187 0
-188 150 0
-188 157 0
-150 -157 188 0
-189 150 0
-189 158 0
-150 -158 189 0
-190 150 0
-190 159 0
-150 -159 190 0
-191 151 0
-191 156 0
-151 -156 191 0
-192 151 0
-192 157 0
-151 -157 192 0
-193 151 0
-193 158 0
-151 -158 193 0
-194 151 0
-194 159 0
-151 -159 194 0
-195 152 0
-195 156 0
-152 -156 195 0
-196 152 0
-196 157 0
-152 -157 196 0
-197 152 0
-197 158 0
-152 -158 197 0
-198 152 0
-198 159 0
-152 -159 198 0
-199 153 0
-199 156 0
-153 -156 199 0
-200 153 0
-200 157 0
-153 -157 200 0
-201 153 0
-201 158 0
-153 -158 201 0
-202 153 0
-202 159 0
-153 -159 202 0
-203 154 0
-203 156 0
-154 -156 203 0
-204 154 0
-204 157 0
-154 -157 204 0
-205 154 0
-205 158 0
-154 -158 205 0
-206 154 0
-206 159 0
-154 -159 206 0
-207 155 0
-207 156 0
-155 -156 207 0
-208 155 0
-208 157 0
-155 -157 208 0
-209 155 0
-209 158 0
-155 -158 209 0
-210 155 0
-210 159 0
-155 -159 210 0
-211 160 0
-211 166 0
-160 -166 211 0
-212 160 0
-212 167 0
-160 -167 212 0
-213 160 0
-213 168 0
-160 -168 213 0
-214 160 0
-214 169 0
-160 -169 214 0
-215 161 0
-215 166 0
-161 -166 215 0
-216 161 0
-216 167 0
-161 -167 216 0
-217 161 0
-217 168 0
-161 -168 217 0
-218 161 0
-218 169 0
-161 -169 218 0
-219 162 0
-219 166 0
-162 -166 219 0
-220 162 0
-220 167 0
-162 -167 220 0
-221 162 0
-221 168 0
-162 -168 221 0
-222 162 0
-222 169 0
-162 -169 222 0
-223 163 0
-223 166 0
-163 -166 223 0
-224 163 0
-224 167 0
-163 -167 224 0
-225 163 0
-225 168 0
-163 -168 225 0
-226 163 0
-226 169 0
-163 -169 226 0
-227 164 0
-227 166 0
-164 -166 227 0
-228 164 0
-228 167 0
-164 -167 228 0
-229 164 0
-229 168 0
-164 -168 229 0
-230 164 0
-230 169 0
-164 -169 230 0
-231 165 0
-231 166 0
-165 -166 231 0
-232 165 0
-232 167 0
-165 -167 232 0
-233 165 0
-233 168 0
-165 -168 233 0
-234 165 0
-234 169 0
-165 -169 234 0
-235 170 0
-235 175 0
-170 -175 235 0
-236 170 0
-236 176 0
-170 -176 236 0
-237 170 0
-237 177 0
-170 -177 237 0
-238 170 0
-238 178 0
-170 -178 238 0
-239 171 0
-239 175 0
-171 -175 239 0
-240 171 0
-240 176 0
-171 -176 240 0
-241 171 0
-241 177 0
-171 -177 241 0
-242 171 0
-242 178 0
-171 -178 242 0
-243 172 0
-243 175 0
-172 -175 243 0
-244 172 0
-244 176 0
-172 -176 244 0
-245 172 0
-245 177 0
-172 -177 245 0
-246 172 0
-246 178 0
-172 -178 246 0
-247 173 0
-247 175 0
-173 -175 247 0
-248 173 0
-248 176 0
-173 -176 248 0
-249 173 0
-249 177 0
-173 -177 249 0
-250 173 0
-250 178 0
-173 -178 250 0
-251 174 0
-251 175 0
-174 -175 251 0
-252 174 0
-252 176 0
-174 -176 252 0
-253 174 0
-253 177 0
-174 -177 253 0
-254 174 0
-254 178 0
-174 -178 254 0
-255 179 0
-255 183 0
-179 -183 255 0
-256 179 0
-256 184 0
-179 -184 256 0
-257 179 0
-257 185 0
-179 -185 257 0
-258 179 0
-258 186 0
-179 -186 258 0
-259 180 0
-259 183 0
-180 -183 259 0
-260 180 0
-260 184 0
-180 -184 260 0
-261 180 0
-261 185 0
-180 -185 261 0
-262 180 0
-262 186 0
-180 -186 262 0
-263 181 0
-263 183 0
-181 -183 263 0
-264 181 0
-264 184 0
-181 -184 264 0
-265 181 0
-265 185 0
-181 -185 265 0
-266 181 0
-266 186 0
-181 -186 266 0
-267 182 0
-267 183 0
-182 -183 267 0
-268 182 0
-268 184 0
-182 -184 268 0
-269 182 0
-269 185 0
-182 -185 269 0
-270 182 0
-270 186 0
-182 -186 270 0
-271 187 211 235 255 0
-187 271 0
-211 271 0
-235 271 0
-255 271 0
-272 188 212 236 256 0
-188 272 0
-212 272 0
-236 272 0
-256 272 0
-273 189 213 237 257 0
-189 273 0
-213 273 0
-237 273 0
-257 273 0
-274 190 214 238 258 0
-190 274 0
-214 274 0
-238 274 0
-258 274 0
-275 191 215 235 239 255 259 0
-191 275 0
-215 275 0
-235 275 0
-239 275 0
-255 275 0
-259 275 0
-276 192 216 236 240 256 260 0
-192 276 0
-216 276 0
-236 276 0
-240 276 0
-256 276 0
-260 276 0
-277 193 217 237 241 257 261 0
-193 277 0
-217 277 0
-237 277 0
-241 277 0
-257 277 0
-261 277 0
-278 194 218 238 242 258 262 0
-194 278 0
-218 278 0
-238 278 0
-242 278 0
-258 278 0
-262 278 0
-279 195 219 239 243 255 259 263 0
-195 279 0
-219 279 0
-239 279 0
-243 279 0
-255 279 0
-259 279 0
-263 279 0
-280 196 220 240 244 256 260 264 0
-196 280 0
-220 280 0
-240 280 0
-244 280 0
-256 280 0
-260 280 0
-264 280 0
-281 197 221 241 245 257 261 265 0
-197 281 0
-221 281 0
-241 281 0
-245 281 0
-257 281 0
-261 281 0
-265 281 0
-282 198 222 242 246 258 262 266 0
-198 282 0
-222 282 0
-242 282 0
-246 282 0
-258 282 0
-262 282 0
-266 282 0
-283 199 223 243 247 259 263 267 0
-199 283 0
-223 283 0
-243 283 0
-247 283 0
-259 283 0
-263 283 0
-267 283 0
-284 200 224 244 248 260 264 268 0
-200 284 0
-224 284 0
-244 284 0
-248 284 0
-260 284 0
-264 284 0
-268 284 0
-285 201 225 245 249 261 265 269 0
-201 285 0
-225 285 0
-245 285 0
-249 285 0
-261 285 0
-265 285 0
-269 285 0
-286 202 226 246 250 262 266 270 0
-202 286 0
-226 286 0
-246 286 0
-250 286 0
-262 286 0
-266 286 0
-270 286 0
-287 203 227 247 251 263 267 0
-203 287 0
-227 287 0
-247 287 0
-251 287 0
-263 287 0
-267 287 0
-288 204 228 248 252 264 268 0
-204 288 0
-228 288 0
-248 288 0
-252 288 0
-264 288 0
-268 288 0
-289 205 229 249 253 265 269 0
-205 289 0
-229 289 0
-249 289 0
-253 289 0
-265 289 0
-269 289 0
-290 206 230 250 254 266 270 0
-206 290 0
-230 290 0
-250 290 0
-254 290 0
-266 290 0
-270 290 0
-291 207 231 251 267 0
-207 291 0
-231 291 0
-251 291 0
-267 291 0
-292 208 232 252 268 0
-208 292 0
-232 292 0
-252 292 0
-268 292 0
-293 209 233 253 269 0
-209 293 0
-233 293 0
-253 293 0
-269 293 0
-294 210 234 254 270 0
-210 294 0
-234 294 0
-254 294 0
-270 294 0
-187 -211 0
-187 -235 0
-187 -255 0
-188 -212 0
-188 -236 0
-188 -256 0
-189 -213 0
-189 -237 0
-189 -257 0
-190 -214 0
-190 -238 0
-190 -258 0
-191 -215 0
-191 -235 0
-191 -239 0
-191 -255 0
-191 -259 0
-192 -216 0
-192 -236 0
-192 -240 0
-192 -256 0
-192 -260 0
-193 -217 0
-193 -237 0
-193 -241 0
-193 -257 0
-193 -261 0
-194 -218 0
-194 -238 0
-194 -242 0
-194 -258 0
-194 -262 0
-195 -219 0
-195 -239 0
-195 -243 0
-195 -255 0
-195 -259 0
-195 -263 0
-196 -220 0
-196 -240 0
-196 -244 0
-196 -256 0
-196 -260 0
-196 -264 0
-197 -221 0
-197 -241 0
-197 -245 0
-197 -257 0
-197 -261 0
-197 -265 0
-198 -222 0
-198 -242 0
-198 -246 0
-198 -258 0
-198 -262 0
-198 -266 0
-199 -223 0
-199 -243 0
-199 -247 0
-199 -259 0
-199 -263 0
-199 -267 0
-200 -224 0
-200 -244 0
-200 -248 0
-200 -260 0
-200 -264 0
-200 -268 0
-201 -225 0
-201 -245 0
-201 -249 0
-201 -261 0
-201 -265 0
-201 -269 0
-202 -226 0
-202 -246 0
-202 -250 0
-202 -262 0
-202 -266 0
-202 -270 0
-203 -227 0
-203 -247 0
-203 -251 0
-203 -263 0
-203 -267 0
-204 -228 0
-204 -248 0
-204 -252 0
-204 -264 0
-204 -268 0
-205 -229 0
-205 -249 0
-205 -253 0
-205 -265 0
-205 -269 0
-206 -230 0
-206 -250 0
-206 -254 0
-206 -266 0
-206 -270 0
-207 -231 0
-207 -251 0
-207 -267 0
-208 -232 0
-208 -252 0
-208 -268 0
-209 -233 0
-209 -253 0
-209 -269 0
-210 -234 0
-210 -254 0
-210 -270 0
-211 -235 0
-211 -255 0
-212 -236 0
-212 -256 0
-213 -237 0
-213 -257 0
-214 -238 0
-214 -258 0
-215 -235 0
-215 -239 0
-215 -255 0
-215 -259 0
-216 -236 0
-216 -240 0
-216 -256 0
-216 -260 0
-217 -237 0
-217 -241 0
-217 -257 0
-217 -261 0
-218 -238 0
-218 -242 0
-218 -258 0
-218 -262 0
-219 -239 0
-219 -243 0
-219 -255 0
-219 -259 0
-219 -263 0
-220 -240 0
-220 -244 0
-220 -256 0
-220 -260 0
-220 -264 0
-221 -241 0
-221 -245 0
-221 -257 0
-221 -261 0
-221 -265 0
-222 -242 0
-222 -246 0
-222 -258 0
-222 -262 0
-222 -266 0
-223 -243 0
-223 -247 0
-223 -259 0
-223 -263 0
-223 -267 0
-224 -244 0
-224 -248 0
-224 -260 0
-224 -264 0
-224 -268 0
-225 -245 0
-225 -249 0
-225 -261 0
-225 -265 0
-225 -269 0
-226 -246 0
-226 -250 0
-226 -262 0
-226 -266 0
-226 -270 0
-227 -247 0
-227 -251 0
-227 -263 0
-227 -267 0
-228 -248 0
-228 -252 0
-228 -264 0
-228 -268 0
-229 -249 0
-229 -253 0
-229 -265 0
-229 -269 0
-230 -250 0
-230 -254 0
-230 -266 0
-230 -270 0
-231 -251 0
-231 -267 0
-232 -252 0
-232 -268 0
-233 -253 0
-233 -269 0
-234 -254 0
-234 -270 0
-235 -255 0
-235 -259 0
-236 -256 0
-236 -260 0
-237 -257 0
-237 -261 0
-238 -258 0
-238 -262 0
-239 -255 0
-239 -259 0
-239 -263 0
-240 -256 0
-240 -260 0
-240 -264 0
-241 -257 0
-241 -261 0
-241 -265 0
-242 -258 0
-242 -262 0
-242 -266 0
-243 -255 0
-243 -259 0
-243 -263 0
-243 -267 0
-244 -256 0
-244 -260 0
-244 -264 0
-244 -268 0
-245 -257 0
-245 -261 0
-245 -265 0
-245 -269 0
-246 -258 0
-246 -262 0
-246 -266 0
-246 -270 0
-247 -259 0
-247 -263 0
-247 -267 0
-248 -260 0
-248 -264 0
-248 -268 0
-249 -261 0
-249 -265 0
-249 -269 0
-250 -262 0
-250 -266 0
-250 -270 0
-251 -263 0
-251 -267 0
-252 -264 0
-252 -268 0
-253 -265 0
-253 -269 0
-254 -266 0
-254 -270 0
-187 295 212 213 214 236 237 238 256 257 258 0
-187 -295 -212 0
-187 -295 -213 0
-187 -295 -214 0
-187 -295 -236 0
-187 -295 -237 0
-187 -295 -238 0
-187 -295 -256 0
-187 -295 -257 0
-187 -295 -258 0
-188 271 0
-188 295 213 214 237 238 257 258 0
-188 -295 -213 0
-188 -295 -214 0
-188 -295 -237 0
-188 -295 -238 0
-188 -295 -257 0
-188 -295 -258 0
-189 272 0
-189 295 214 238 258 0
-189 -295 -214 0
-189 -295 -238 0
-189 -295 -258 0
-190 273 0
-190 295 0
-191 295 216 217 218 236 237 238 240 241 242 256 257 258 260 261 262 0
-191 -295 -216 0
-191 -295 -217 0
-191 -295 -218 0
-191 -295 -236 0
-191 -295 -237 0
-191 -295 -238 0
-191 -295 -240 0
-191 -295 -241 0
-191 -295 -242 0
-191 -295 -256 0
-191 -295 -257 0
-191 -295 -258 0
-191 -295 -260 0
-191 -295 -261 0
-191 -295 -262 0
-192 275 0
-192 295 217 218 237 238 241 242 257 258 261 262 0
-192 -295 -217 0
-192 -295 -218 0
-192 -295 -237 0
-192 -295 -238 0
-192 -295 -241 0
-192 -295 -242 0
-192 -295 -257 0
-192 -295 -258 0
-192 -295 -261 0
-192 -295 -262 0
-193 276 0
-193 295 218 238 242 258 262 0
-193 -295 -218 0
-193 -295 -238 0
-193 -295 -242 0
-193 -295 -258 0
-193 -295 -262 0
-194 277 0
-194 295 0
-195 295 220 221 222 240 241 242 244 245 246 256 257 258 260 261 262 264 265 266 0
-195 -295 -220 0
-195 -295 -221 0
-195 -295 -222 0
-195 -295 -240 0
-195 -295 -241 0
-195 -295 -242 0
-195 -295 -244 0
-195 -295 -245 0
-195 -295 -246 0
-195 -295 -256 0
-195 -295 -257 0
-195 -295 -258 0
-195 -295 -260 0
-195 -295 -261 0
-195 -295 -262 0
-195 -295 -264 0
-195 -295 -265 0
-195 -295 -266 0
-196 279 0
-196 295 221 222 241 242 245 246 257 258 261 262 265 266 0
-196 -295 -221 0
-196 -295 -222 0
-196 -295 -241 0
-196 -295 -242 0
-196 -295 -245 0
-196 -295 -246 0
-196 -295 -257 0
-196 -295 -258 0
-196 -295 -261 0
-196 -295 -262 0
-196 -295 -265 0
-196 -295 -266 0
-197 280 0
-197 295 222 242 246 258 262 266 0
-197 -295 -222 0
-197 -295 -242 0
-197 -295 -246 0
-197 -295 -258 0
-197 -295 -262 0
-197 -295 -266 0
-198 281 0
-198 295 0
-199 295 224 225 226 244 245 246 248 249 250 260 261 262 264 265 266 268 269 270 0
-199 -295 -224 0
-199 -295 -225 0
-199 -295 -226 0
-199 -295 -244 0
-199 -295 -245 0
-199 -295 -246 0
-199 -295 -248 0
-199 -295 -249 0
-199 -295 -250 0
-199 -295 -260 0
-199 -295 -261 0
-199 -295 -262 0
-199 -295 -264 0
-199 -295 -265 0
-199 -295 -266 0
-199 -295 -268 0
-199 -295 -269 0
-199 -295 -270 0
-200 283 0
-200 295 225 226 245 246 249 250 261 262 265 266 269 270 0
-200 -295 -225 0
-200 -295 -226 0
-200 -295 -245 0
-200 -295 -246 0
-200 -295 -249 0
-200 -295 -250 0
-200 -295 -261 0
-200 -295 -262 0
-200 -295 -265 0
-200 -295 -266 0
-200 -295 -269 0
-200 -295 -270 0
-201 284 0
-201 295 226 246 250 262 266 270 0
-201 -295 -226 0
-201 -295 -246 0
-201 -295 -250 0
-201 -295 -262 0
-201 -295 -266 0
-201 -295 -270 0
-202 285 0
-202 295 0
-203 295 228 229 230 248 249 250 252 253 254 264 265 266 268 269 270 0
-203 -295 -228 0
-203 -295 -229 0
-203 -295 -230 0
-203 -295 -248 0
-203 -295 -249 0
-203 -295 -250 0
-203 -295 -252 0
-203 -295 -253 0
-203 -295 -254 0
-203 -295 -264 0
-203 -295 -265 0
-203 -295 -266 0
-203 -295 -268 0
-203 -295 -269 0
-203 -295 -270 0
-204 287 0
-204 295 229 230 249 250 253 254 265 266 269 270 0
-204 -295 -229 0
-204 -295 -230 0
-204 -295 -249 0
-204 -295 -250 0
-204 -295 -253 0
-204 -295 -254 0
-204 -295 -265 0
-204 -295 -266 0
-204 -295 -269 0
-204 -295 -270 0
-205 288 0
-205 295 230 250 254 266 270 0
-205 -295 -230 0
-205 -295 -250 0
-205 -295 -254 0
-205 -295 -266 0
-205 -295 -270 0
-206 289 0
-206 295 0
-207 295 232 233 234 252 253 254 268 269 270 0
-207 -295 -232 0
-207 -295 -233 0
-207 -295 -234 0
-207 -295 -252 0
-207 -295 -253 0
-207 -295 -254 0
-207 -295 -268 0
-207 -295 -269 0
-207 -295 -270 0
-208 291 0
-208 295 233 234 253 254 269 270 0
-208 -295 -233 0
-208 -295 -234 0
-208 -295 -253 0
-208 -295 -254 0
-208 -295 -269 0
-208 -295 -270 0
-209 292 0
-209 295 234 254 270 0
-209 -295 -234 0
-209 -295 -254 0
-209 -295 -270 0
-210 293 0
-210 295 0
-211 296 188 189 190 236 237 238 256 257 258 0
-211 -296 -188 0
-211 -296 -189 0
-211 -296 -190 0
-211 -296 -236 0
-211 -296 -237 0
-211 -296 -238 0
-211 -296 -256 0
-211 -296 -257 0
-211 -296 -258 0
-212 271 0
-212 296 189 190 237 238 257 258 0
-212 -296 -189 0
-212 -296 -190 0
-212 -296 -237 0
-212 -296 -238 0
-212 -296 -257 0
-212 -296 -258 0
-213 272 0
-213 296 190 238 258 0
-213 -296 -190 0
-213 -296 -238 0
-213 -296 -258 0
-214 273 0
-214 296 0
-215 296 192 193 194 236 237 238 240 241 242 256 257 258 260 261 262 0
-215 -296 -192 0
-215 -296 -193 0
-215 -296 -194 0
-215 -296 -236 0
-215 -296 -237 0
-215 -296 -238 0
-215 -296 -240 0
-215 -296 -241 0
-215 -296 -242 0
-215 -296 -256 0
-215 -296 -257 0
-215 -296 -258 0
-215 -296 -260 0
-215 -296 -261 0
-215 -296 -262 0
-216 275 0
-216 296 193 194 237 238 241 242 257 258 261 262 0
-216 -296 -193 0
-216 -296 -194 0
-216 -296 -237 0
-216 -296 -238 0
-216 -296 -241 0
-216 -296 -242 0
-216 -296 -257 0
-216 -296 -258 0
-216 -296 -261 0
-216 -296 -262 0
-217 276 0
-217 296 194 238 242 258 262 0
-217 -296 -194 0
-217 -296 -238 0
-217 -296 -242 0
-217 -296 -258 0
-217 -296 -262 0
-218 277 0
-218 296 0
-219 296 196 197 198 240 241 242 244 245 246 256 257 258 260 261 262 264 265 266 0
-219 -296 -196 0
-219 -296 -197 0
-219 -296 -198 0
-219 -296 -240 0
-219 -296 -241 0
-219 -296 -242 0
-219 -296 -244 0
-219 -296 -245 0
-219 -296 -246 0
-219 -296 -256 0
-219 -296 -257 0
-219 -296 -258 0
-219 -296 -260 0
-219 -296 -261 0
-219 -296 -262 0
-219 -296 -264 0
-219 -296 -265 0
-219 -296 -266 0
-220 279 0
-220 296 197 198 241 242 245 246 257 258 261 262 265 266 0
-220 -296 -197 0
-220 -296 -198 0
-220 -296 -241 0
-220 -296 -242 0
-220 -296 -245 0
-220 -296 -246 0
-220 -296 -257 0
-220 -296 -258 0
-220 -296 -261 0
-220 -296 -262 0
-220 -296 -265 0
-220 -296 -266 0
-221 280 0
-221 296 198 242 246 258 262 266 0
-221 -296 -198 0
-221 -296 -242 0
-221 -296 -246 0
-221 -296 -258 0
-221 -296 -262 0
-221 -296 -266 0
-222 281 0
-222 296 0
-223 296 200 201 202 244 245 246 248 249 250 260 261 262 264 265 266 268 269 270 0
-223 -296 -200 0
-223 -296 -201 0
-223 -296 -202 0
-223 -296 -244 0
-223 -296 -245 0
-223 -296 -246 0
-223 -296 -248 0
-223 -296 -249 0
-223 -296 -250 0
-223 -296 -260 0
-223 -296 -261 0
-223 -296 -262 0
-223 -296 -264 0
-223 -296 -265 0
-223 -296 -266 0
-223 -296 -268 0
-223 -296 -269 0
-223 -296 -270 0
-224 283 0
-224 296 201 202 245 246 249 250 261 262 265 266 269 270 0
-224 -296 -201 0
-224 -296 -202 0
-224 -296 -245 0
-224 -296 -246 0
-224 -296 -249 0
-224 -296 -250 0
-224 -296 -261 0
-224 -296 -262 0
-224 -296 -265 0
-224 -296 -266 0
-224 -296 -269 0
-224 -296 -270 0
-225 284 0
-225 296 202 246 250 262 266 270 0
-225 -296 -202 0
-225 -296 -246 0
-225 -296 -250 0
-225 -296 -262 0
-225 -296 -266 0
-225 -296 -270 0
-226 285 0
-226 296 0
-227 296 204 205 206 248 249 250 252 253 254 264 265 266 268 269 270 0
-227 -296 -204 0
-227 -296 -205 0
-227 -296 -206 0
-227 -296 -248 0
-227 -296 -249 0
-227 -296 -250 0
-227 -296 -252 0
-227 -296 -253 0
-227 -296 -254 0
-227 -296 -264 0
-227 -296 -265 0
-227 -296 -266 0
-227 -296 -268 0
-227 -296 -269 0
-227 -296 -270 0
-228 287 0
-228 296 205 206 249 250 253 254 265 266 269 270 0
-228 -296 -205 0
-228 -296 -206 0
-228 -296 -249 0
-228 -296 -250 0
-228 -296 -253 0
-228 -296 -254 0
-228 -296 -265 0
-228 -296 -266 0
-228 -296 -269 0
-228 -296 -270 0
-229 288 0
-229 296 206 250 254 266 270 0
-229 -296 -206 0
-229 -296 -250 0
-229 -296 -254 0
-229 -296 -266 0
-229 -296 -270 0
-230 289 0
-230 296 0
-231 296 208 209 210 252 253 254 268 269 270 0
-231 -296 -208 0
-231 -296 -209 0
-231 -296 -210 0
-231 -296 -252 0
-231 -296 -253 0
-231 -296 -254 0
-231 -296 -268 0
-231 -296 -269 0
-231 -296 -270 0
-232 291 0
-232 296 209 210 253 254 269 270 0
-232 -296 -209 0
-232 -296 -210 0
-232 -296 -253 0
-232 -296 -254 0
-232 -296 -269 0
-232 -296 -270 0
-233 292 0
-233 296 210 254 270 0
-233 -296 -210 0
-233 -296 -254 0
-233 -296 -270 0
-234 293 0
-234 296 0
-235 297 188 189 190 192 193 194 212 213 214 216 217 218 256 257 258 260 261 262 0
-235 -297 -188 0
-235 -297 -189 0
-235 -297 -190 0
-235 -297 -192 0
-235 -297 -193 0
-235 -297 -194 0
-235 -297 -212 0
-235 -297 -213 0
-235 -297 -214 0
-235 -297 -216 0
-235 -297 -217 0
-235 -297 -218 0
-235 -297 -256 0
-235 -297 -257 0
-235 -297 -258 0
-235 -297 -260 0
-235 -297 -261 0
-235 -297 -262 0
-236 271 275 0
-236 297 189 190 193 194 213 214 217 218 257 258 261 262 0
-236 -297 -189 0
-236 -297 -190 0
-236 -297 -193 0
-236 -297 -194 0
-236 -297 -213 0
-236 -297 -214 0
-236 -297 -217 0
-236 -297 -218 0
-236 -297 -257 0
-236 -297 -258 0
-236 -297 -261 0
-236 -297 -262 0
-237 272 276 0
-237 297 190 194 214 218 258 262 0
-237 -297 -190 0
-237 -297 -194 0
-237 -297 -214 0
-237 -297 -218 0
-237 -297 -258 0
-237 -297 -262 0
-238 273 277 0
-238 297 0
-239 297 192 193 194 196 197 198 216 217 218 220 221 222 256 257 258 260 261 262 264 265 266 0
-239 -297 -192 0
-239 -297 -193 0
-239 -297 -194 0
-239 -297 -196 0
-239 -297 -197 0
-239 -297 -198 0
-239 -297 -216 0
-239 -297 -217 0
-239 -297 -218 0
-239 -297 -220 0
-239 -297 -221 0
-239 -297 -222 0
-239 -297 -256 0
-239 -297 -257 0
-239 -297 -258 0
-239 -297 -260 0
-239 -297 -261 0
-239 -297 -262 0
-239 -297 -264 0
-239 -297 -265 0
-239 -297 -266 0
-240 275 279 0
-240 297 193 194 197 198 217 218 221 222 257 258 261 262 265 266 0
-240 -297 -193 0
-240 -297 -194 0
-240 -297 -197 0
-240 -297 -198 0
-240 -297 -217 0
-240 -297 -218 0
-240 -297 -221 0
-240 -297 -222 0
-240 -297 -257 0
-240 -297 -258 0
-240 -297 -261 0
-240 -297 -262 0
-240 -297 -265 0
-240 -297 -266 0
-241 276 280 0
-241 297 194 198 218 222 258 262 266 0
-241 -297 -194 0
-241 -297 -198 0
-241 -297 -218 0
-241 -297 -222 0
-241 -297 -258 0
-241 -297 -262 0
-241 -297 -266 0
-242 277 281 0
-242 297 0
-243 297 196 197 198 200 201 202 220 221 222 224 225 226 256 257 258 260 261 262 264 265 266 268 269 270 0
-243 -297 -196 0
-243 -297 -197 0
-243 -297 -198 0
-243 -297 -200 0
-243 -297 -201 0
-243 -297 -202 0
-243 -297 -220 0
-243 -297 -221 0
-243 -297 -222 0
-243 -297 -224 0
-243 -297 -225 0
-243 -297 -226 0
-243 -297 -256 0
-243 -297 -257 0
-243 -297 -258 0
-243 -297 -260 0
-243 -297 -261 0
-243 -297 -262 0
-243 -297 -264 0
-243 -297 -265 0
-243 -297 -266 0
-243 -297 -268 0
-243 -297 -269 0
-243 -297 -270 0
-244 279 283 0
-244 297 197 198 201 202 221 222 225 226 257 258 261 262 265 266 269 270 0
-244 -297 -197 0
-244 -297 -198 0
-244 -297 -201 0
-244 -297 -202 0
-244 -297 -221 0
-244 -297 -222 0
-244 -297 -225 0
-244 -297 -226 0
-244 -297 -257 0
-244 -297 -258 0
-244 -297 -261 0
-244 -297 -262 0
-244 -297 -265 0
-244 -297 -266 0
-244 -297 -269 0
-244 -297 -270 0
-245 280 284 0
-245 297 198 202 222 226 258 262 266 270 0
-245 -297 -198 0
-245 -297 -202 0
-245 -297 -222 0
-245 -297 -226 0
-245 -297 -258 0
-245 -297 -262 0
-245 -297 -266 0
-245 -297 -270 0
-246 281 285 0
-246 297 0
-247 297 200 201 202 204 205 206 224 225 226 228 229 230 260 261 262 264 265 266 268 269 270 0
-247 -297 -200 0
-247 -297 -201 0
-247 -297 -202 0
-247 -297 -204 0
-247 -297 -205 0
-247 -297 -206 0
-247 -297 -224 0
-247 -297 -225 0
-247 -297 -226 0
-247 -297 -228 0
-247 -297 -229 0
-247 -297 -230 0
-247 -297 -260 0
-247 -297 -261 0
-247 -297 -262 0
-247 -297 -264 0
-247 -297 -265 0
-247 -297 -266 0
-247 -297 -268 0
-247 -297 -269 0
-247 -297 -270 0
-248 283 287 0
-248 297 201 202 205 206 225 226 229 230 261 262 265 266 269 270 0
-248 -297 -201 0
-248 -297 -202 0
-248 -297 -205 0
-248 -297 -206 0
-248 -297 -225 0
-248 -297 -226 0
-248 -297 -229 0
-248 -297 -230 0
-248 -297 -261 0
-248 -297 -262 0
-248 -297 -265 0
-248 -297 -266 0
-248 -297 -269 0
-248 -297 -270 0
-249 284 288 0
-249 297 202 206 226 230 262 266 270 0
-249 -297 -202 0
-249 -297 -206 0
-249 -297 -226 0
-249 -297 -230 0
-249 -297 -262 0
-249 -297 -266 0
-249 -297 -270 0
-250 285 289 0
-250 297 0
-251 297 204 205 206 208 209 210 228 229 230 232 233 234 264 265 266 268 269 270 0
-251 -297 -204 0
-251 -297 -205 0
-251 -297 -206 0
-251 -297 -208 0
-251 -297 -209 0
-251 -297 -210 0
-251 -297 -228 0
-251 -297 -229 0
-251 -297 -230 0
-251 -297 -232 0
-251 -297 -233 0
-251 -297 -234 0
-251 -297 -264 0
-251 -297 -265 0
-251 -297 -266 0
-251 -297 -268 0
-251 -297 -269 0
-251 -297 -270 0
-252 287 291 0
-252 297 205 206 209 210 229 230 233 234 265 266 269 270 0
-252 -297 -205 0
-252 -297 -206 0
-252 -297 -209 0
-252 -297 -210 0
-252 -297 -229 0
-252 -297 -230 0
-252 -297 -233 0
-252 -297 -234 0
-252 -297 -265 0
-252 -297 -266 0
-252 -297 -269 0
-252 -297 -270 0
-253 288 292 0
-253 297 206 210 230 234 266 270 0
-253 -297 -206 0
-253 -297 -210 0
-253 -297 -230 0
-253 -297 -234 0
-253 -297 -266 0
-253 -297 -270 0
-254 289 293 0
-254 297 0
-255 298 188 189 190 192 193 194 196 197 198 212 213 214 216 217 218 220 221 222 236 237 238 240 241 242 244 245 246 0
-255 -298 -188 0
-255 -298 -189 0
-255 -298 -190 0
-255 -298 -192 0
-255 -298 -193 0
-255 -298 -194 0
-255 -298 -196 0
-255 -298 -197 0
-255 -298 -198 0
-255 -298 -212 0
-255 -298 -213 0
-255 -298 -214 0
-255 -298 -216 0
-255 -298 -217 0
-255 -298 -218 0
-255 -298 -220 0
-255 -298 -221 0
-255 -298 -222 0
-255 -298 -236 0
-255 -298 -237 0
-255 -298 -238 0
-255 -298 -240 0
-255 -298 -241 0
-255 -298 -242 0
-255 -298 -244 0
-255 -298 -245 0
-255 -298 -246 0
-256 271 275 0
-256 271 279 0
-256 275 279 0
-256 298 189 190 193 194 197 198 213 214 217 218 221 222 237 238 241 242 245 246 0
-256 -298 -189 0
-256 -298 -190 0
-256 -298 -193 0
-256 -298 -194 0
-256 -298 -197 0
-256 -298 -198 0
-256 -298 -213 0
-256 -298 -214 0
-256 -298 -217 0
-256 -298 -218 0
-256 -298 -221 0
-256 -298 -222 0
-256 -298 -237 0
-256 -298 -238 0
-256 -298 -241 0
-256 -298 -242 0
-256 -298 -245 0
-256 -298 -246 0
-257 272 276 0
-257 272 280 0
-257 276 280 0
-257 298 190 194 198 214 218 222 238 242 246 0
-257 -298 -190 0
-257 -298 -194 0
-257 -298 -198 0
-257 -298 -214 0
-257 -298 -218 0
-257 -298 -222 0
-257 -298 -238 0
-257 -298 -242 0
-257 -298 -246 0
-258 273 277 0
-258 273 281 0
-258 277 281 0
-258 298 0
-259 298 192 193 194 196 197 198 200 201 202 216 217 218 220 221 222 224 225 226 236 237 238 240 241 242 244 245 246 248 249 250 0
-259 -298 -192 0
-259 -298 -193 0
-259 -298 -194 0
-259 -298 -196 0
-259 -298 -197 0
-259 -298 -198 0
-259 -298 -200 0
-259 -298 -201 0
-259 -298 -202 0
-259 -298 -216 0
-259 -298 -217 0
-259 -298 -218 0
-259 -298 -220 0
-259 -298 -221 0
-259 -298 -222 0
-259 -298 -224 0
-259 -298 -225 0
-259 -298 -226 0
-259 -298 -236 0
-259 -298 -237 0
-259 -298 -238 0
-259 -298 -240 0
-259 -298 -241 0
-259 -298 -242 0
-259 -298 -244 0
-259 -298 -245 0
-259 -298 -246 0
-259 -298 -248 0
-259 -298 -249 0
-259 -298 -250 0
-260 275 279 0
-260 275 283 0
-260 279 283 0
-260 298 193 194 197 198 201 202 217 218 221 222 225 226 237 238 241 242 245 246 249 250 0
-260 -298 -193 0
-260 -298 -194 0
-260 -298 -197 0
-260 -298 -198 0
-260 -298 -201 0
-260 -298 -202 0
-260 -298 -217 0
-260 -298 -218 0
-260 -298 -221 0
-260 -298 -222 0
-260 -298 -225 0
-260 -298 -226 0
-260 -298 -237 0
-260 -298 -238 0
-260 -298 -241 0
-260 -298 -242 0
-260 -298 -245 0
-260 -298 -246 0
-260 -298 -249 0
-260 -298 -250 0
-261 276 280 0
-261 276 284 0
-261 280 284 0
-261 298 194 198 202 218 222 226 238 242 246 250 0
-261 -298 -194 0
-261 -298 -198 0
-261 -298 -202 0
-261 -298 -218 0
-261 -298 -222 0
-261 -298 -226 0
-261 -298 -238 0
-261 -298 -242 0
-261 -298 -246 0
-261 -298 -250 0
-262 277 281 0
-262 277 285 0
-262 281 285 0
-262 298 0
-263 298 196 197 198 200 201 202 204 205 206 220 221 222 224 225 226 228 229 230 240 241 242 244 245 246 248 249 250 252 253 254 0
-263 -298 -196 0
-263 -298 -197 0
-263 -298 -198 0
-263 -298 -200 0
-263 -298 -201 0
-263 -298 -202 0
-263 -298 -204 0
-263 -298 -205 0
-263 -298 -206 0
-263 -298 -220 0
-263 -298 -221 0
-263 -298 -222 0
-263 -298 -224 0
-263 -298 -225 0
-263 -298 -226 0
-263 -298 -228 0
-263 -298 -229 0
-263 -298 -230 0
-263 -298 -240 0
-263 -298 -241 0
-263 -298 -242 0
-263 -298 -244 0
-263 -298 -245 0
-263 -298 -246 0
-263 -298 -248 0
-263 -298 -249 0
-263 -298 -250 0
-263 -298 -252 0
-263 -298 -253 0
-263 -298 -254 0
-264 279 283 0
-264 279 287 0
-264 283 287 0
-264 298 197 198 201 202 205 206 221 222 225 226 229 230 241 242 245 246 249 250 253 254 0
-264 -298 -197 0
-264 -298 -198 0
-264 -298 -201 0
-264 -298 -202 0
-264 -298 -205 0
-264 -298 -206 0
-264 -298 -221 0
-264 -298 -222 0
-264 -298 -225 0
-264 -298 -226 0
-264 -298 -229 0
-264 -298 -230 0
-264 -298 -241 0
-264 -298 -242 0
-264 -298 -245 0
-264 -298 -246 0
-264 -298 -249 0
-264 -298 -250 0
-264 -298 -253 0
-264 -298 -254 0
-265 280 284 0
-265 280 288 0
-265 284 288 0
-265 298 198 202 206 222 226 230 242 246 250 254 0
-265 -298 -198 0
-265 -298 -202 0
-265 -298 -206 0
-265 -298 -222 0
-265 -298 -226 0
-265 -298 -230 0
-265 -298 -242 0
-265 -298 -246 0
-265 -298 -250 0
-265 -298 -254 0
-266 281 285 0
-266 281 289 0
-266 285 289 0
-266 298 0
-267 298 200 201 202 204 205 206 208 209 210 224 225 226 228 229 230 232 233 234 244 245 246 248 249 250 252 253 254 0
-267 -298 -200 0
-267 -298 -201 0
-267 -298 -202 0
-267 -298 -204 0
-267 -298 -205 0
-267 -298 -206 0
-267 -298 -208 0
-267 -298 -209 0
-267 -298 -210 0
-267 -298 -224 0
-267 -298 -225 0
-267 -298 -226 0
-267 -298 -228 0
-267 -298 -229 0
-267 -298 -230 0
-267 -298 -232 0
-267 -298 -233 0
-267 -298 -234 0
-267 -298 -244 0
-267 -298 -245 0
-267 -298 -246 0
-267 -298 -248 0
-267 -298 -249 0
-267 -298 -250 0
-267 -298 -252 0
-267 -298 -253 0
-267 -298 -254 0
-268 283 287 0
-268 283 291 0
-268 287 291 0
-268 298 201 202 205 206 209 210 225 226 229 230 233 234 245 246 249 250 253 254 0
-268 -298 -201 0
-268 -298 -202 0
-268 -298 -205 0
-268 -298 -206 0
-268 -298 -209 0
-268 -298 -210 0
-268 -298 -225 0
-268 -298 -226 0
-268 -298 -229 0
-268 -298 -230 0
-268 -298 -233 0
-268 -298 -234 0
-268 -298 -245 0
-268 -298 -246 0
-268 -298 -249 0
-268 -298 -250 0
-268 -298 -253 0
-268 -298 -254 0
-269 284 288 0
-269 284 292 0
-269 288 292 0
-269 298 202 206 210 226 230 234 246 250 254 0
-269 -298 -202 0
-269 -298 -206 0
-269 -298 -210 0
-269 -298 -226 0
-269 -298 -230 0
-269 -298 -234 0
-269 -298 -246 0
-269 -298 -250 0
-269 -298 -254 0
-270 285 289 0
-270 285 293 0
-270 289 293 0
-270 298 0
299 300 301 302 303 304 0
-299 -300 0
-299 -301 0
-299 -302 0
-299 -303 0
-299 -304 0
-300 -301 0
-300 -302 0
-300 -303 0
-300 -304 0
-301 -302 0
-301 -303 0
-301 -304 0
-302 -303 0
-302 -304 0
-303 -304 0
305 306 307 308 0
-305 -306 0
-305 -307 0
-305 -308 0
-306 -307 0
-306 -308 0
-307 -308 0
309 310 311 312 313 314 0
-309 -310 0
-309 -311 0
-309 -312 0
-309 -313 0
-309 -314 0
-310 -311 0
-310 -312 0
-310 -313 0
-310 -314 0
-311 -312 0
-311 -313 0
-311 -314 0
-312 -313 0
-312 -314 0
-313 -314 0
315 316 317 318 0
-315 -316 0
-315 -317 0
-315 -318 0
-316 -317 0
-316 -318 0
-317 -318 0
319 320 321 322 323 0
-319 -320 0
-319 -321 0
-319 -322 0
-319 -323 0
-320 -321 0
-320 -322 0
-320 -323 0
-321 -322 0
-321 -323 0
-322 -323 0
324 325 326 327 0
-324 -325 0
-324 -326 0
-324 -327 0
-325 -326 0
-325 -327 0
-326 -327 0
328 329 330 331 0
-328 -329 0
-328 -330 0
-328 -331 0
-329 -330 0
-329 -331 0
-330 -331 0
332 333 334 335 0
-332 -333 0
-332 -334 0
-332 -335 0
-333 -334 0
-333 -335 0
-334 -335 0
-336 299 0
-336 305 0
-299 -305 336 0
-337 299 0
-337 306 0
-299 -306 337 0
-338 299 0
-338 307 0
-299 -307 338 0
-339 299 0
-339 308 0
-299 -308 339 0
-340 300 0
-340 305 0
-300 -305 340 0
-341 300 0
-341 306 0
-300 -306 341 0
-342 300 0
-342 307 0
-300 -307 342 0
-343 300 0
-343 308 0
-300 -308 343 0
-344 301 0
-344 305 0
-301 -305 344 0
-345 301 0
-345 306 0
-301 -306 345 0
-346 301 0
-346 307 0
-301 -307 346 0
-347 301 0
-347 308 0
-301 -308 347 0
-348 302 0
-348 305 0
-302 -305 348 0
-349 302 0
-349 306 0
-302 -306 349 0
-350 302 0
-350 307 0
-302 -307 350 0
-351 302 0
-351 308 0
-302 -308 351 0
-352 303 0
-352 305 0
-303 -305 352 0
-353 303 0
-353 306 0
-303 -306 353 0
-354 303 0
-354 307 0
-303 -307 354 0
-355 303 0
-355 308 0
-303 -308 355 0
-356 304 0
-356 305 0
-304 -305 356 0
-357 304 0
-357 306 0
-304 -306 357 0
-358 304 0
-358 307 0
-304 -307 358 0
-359 304 0
-359 308 0
-304 -308 359 0
-360 309 0
-360 315 0
-309 -315 360 0
-361 309 0
-361 316 0
-309 -316 361 0
-362 309 0
-362 317 0
-309 -317 362 0
-363 309 0
-363 318 0
-309 -318 363 0
-364 310 0
-364 315 0
-310 -315 364 0
-365 310 0
-365 316 0
-310 -316 365 0
-366 310 0
-366 317 0
-310 -317 366 0
-367 310 0
-367 318 0
-310 -318 367 0
-368 311 0
-368 315 0
-311 -315 368 0
-369 311 0
-369 316 0
-311 -316 369 0
-370 311 0
-370 317 0
-311 -317 370 0
-371 311 0
-371 318 0
-311 -318 371 0
-372 312 0
-372 315 0
-312 -315 372 0
-373 312 0
-373 316 0
-312 -316 373 0
-374 312 0
-374 317 0
-312 -317 374 0
-375 312 0
-375 318 0
-312 -318 375 0
-376 313 0
-376 315 0
-313 -315 376 0
-377 313 0
-377 316 0
-313 -316 377 0
-378 313 0
-378 317 0
-313 -317 378 0
-379 313 0
-379 318 0
-313 -318 379 0
-380 314 0
-380 315 0
-314 -315 380 0
-381 314 0
-381 316 0
-314 -316 381 0
-382 314 0
-382 317 0
-314 -317 382 0
-383 314 0
-383 318 0
-314 -318 383 0
-384 319 0
-384 324 0
-319 -324 384 0
-385 319 0
-385 325 0
-319 -325 385 0
-386 319 0
-386 326 0
-319 -326 386 0
-387 319 0
-387 327 0
-319 -327 387 0
-388 320 0
-388 324 0
-320 -324 388 0
-389 320 0
-389 325 0
-320 -325 389 0
-390 320 0
-390 326 0
-320 -326 390 0
-391 320 0
-391 327 0
-320 -327 391 0
-392 321 0
-392 324 0
-321 -324 392 0
-393 321 0
-393 325 0
-321 -325 393 0
-394 321 0
-394 326 0
-321 -326 394 0
-395 321 0
-395 327 0
-321 -327 395 0
-396 322 0
-396 324 0
-322 -324 396 0
-397 322 0
-397 325 0
-322 -325 397 0
-398 322 0
-398 326 0
-322 -326 398 0
-399 322 0
-399 327 0
-322 -327 399 0
-400 323 0
-400 324 0
-323 -324 400 0
-401 323 0
-401 325 0
-323 -325 401 0
-402 323 0
-402 326 0
-323 -326 402 0
-403 323 0
-403 327 0
-323 -327 403 0
-404 328 0
-404 332 0
-328 -332 404 0
-405 328 0
-405 333 0
-328 -333 405 0
-406 328 0
-406 334 0
-328 -334 406 0
-407 328 0
-407 335 0
-328 -335 407 0
-408 329 0
-408 332 0
-329 -332 408 0
-409 329 0
-409 333 0
-329 -333 409 0
-410 329 0
-410 334 0
-329 -334 410 0
-411 329 0
-411 335 0
-329 -335 411 0
-412 330 0
-412 332 0
-330 -332 412 0
-413 330 0
-413 333 0
-330 -333 413 0
-414 330 0
-414 334 0
-330 -334 414 0
-415 330 0
-415 335 0
-330 -335 415 0
-416 331 0
-416 332 0
-331 -332 416 0
-417 331 0
-417 333 0
-331 -333 417 0
-418 331 0
-418 334 0
-331 -334 418 0
-419 331 0
-419 335 0
-331 -335 419 0
-420 336 360 384 404 0
-336 420 0
-360 420 0
-384 420 0
-404 420 0
-421 337 361 385 405 0
-337 421 0
-361 421 0
-385 421 0
-405 421 0
-422 338 362 386 406 0
-338 422 0
-362 422 0
-386 422 0
-406 422 0
-423 339 363 387 407 0
-339 423 0
-363 423 0
-387 423 0
-407 423 0
-424 340 364 384 388 404 408 0
-340 424 0
-364 424 0
-384 424 0
-388 424 0
-404 424 0
-408 424 0
-425 341 365 385 389 405 409 0
-341 425 0
-365 425 0
-385 425 0
-389 425 0
-405 425 0
-409 425 0
-426 342 366 386 390 406 410 0
-342 426 0
-366 426 0
-386 426 0
-390 426 0
-406 426 0
-410 426 0
-427 343 367 387 391 407 411 0
-343 427 0
-367 427 0
-387 427 0
-391 427 0
-407 427 0
-411 427 0
-428 344 368 388 392 404 408 412 0
-344 428 0
-368 428 0
-388 428 0
-392 428 0
-404 428 0
-408 428 0
-412 428 0
-429 345 369 389 393 405 409 413 0
-345 429 0
-369 429 0
-389 429 0
-393 429 0
-405 429 0
-409 429 0
-413 429 0
-430 346 370 390 394 406 410 414 0
-346 430 0
-370 430 0
-390 430 0
-394 430 0
-406 430 0
-410 430 0
-414 430 0
-431 347 371 391 395 407 411 415 0
-347 431 0
-371 431 0
-391 431 0
-395 431 0
-407 431 0
-411 431 0
-415 431 0
-432 348 372 392 396 408 412 416 0
-348 432 0
-372 432 0
-392 432 0
-396 432 0
-408 432 0
-412 432 0
-416 432 0
-433 349 373 393 397 409 413 417 0
-349 433 0
-373 433 0
-393 433 0
-397 433 0
-409 433 0
-413 433 0
-417 433 0
-434 350 374 394 398 410 414 418 0
-350 434 0
-374 434 0
-394 434 0
-398 434 0
-410 434 0
-414 434 0
-418 434 0
-435 351 375 395 399 411 415 419 0
-351 435 0
-375 435 0
-395 435 0
-399 435 0
-411 435 0
-415 435 0
-419 435 0
-436 352 376 396 400 412 416 0
-352 436 0
-376 436 0
-396 436 0
-400 436 0
-412 436 0
-416 436 0
-437 353 377 397 401 413 417 0
-353 437 0
-377 437 0
-397 437 0
-401 437 0
-413 437 0
-417 437 0
-438 354 378 398 402 414 418 0
-354 438 0
-378 438 0
-398 438 0
-402 438 0
-414 438 0
-418 438 0
-439 355 379 399 403 415 419 0
-355 439 0
-379 439 0
-399 439 0
-403 439 0
-415 439 0
-419 439 0
-440 356 380 400 416 0
-356 440 0
-380 440 0
-400 440 0
-416 440 0
-441 357 381 401 417 0
-357 441 0
-381 441 0
-401 441 0
-417 441 0
-442 358 382 402 418 0
-358 442 0
-382 442 0
-402 442 0
-418 442 0
-443 359 383 403 419 0
-359 443 0
-383 443 0
-403 443 0
-419 443 0
-336 -360 0
-336 -384 0
-336 -404 0
-337 -361 0
-337 -385 0
-337 -405 0
-338 -362 0
-338 -386 0
-338 -406 0
-339 -363 0
-339 -387 0
-339 -407 0
-340 -364 0
-340 -384 0
-340 -388 0
-340 -404 0
-340 -408 0
-341 -365 0
-341 -385 0
-341 -389 0
-341 -405 0
-341 -409 0
-342 -366 0
-342 -386 0
-342 -390 0
-342 -406 0
-342 -410 0
-343 -367 0
-343 -387 0
-343 -391 0
-343 -407 0
-343 -411 0
-344 -368 0
-344 -388 0
-344 -392 0
-344 -404 0
-344 -408 0
-344 -412 0
-345 -369 0
-345 -389 0
-345 -393 0
-345 -405 0
-345 -409 0
-345 -413 0
-346 -370 0
-346 -390 0
-346 -394 0
-346 -406 0
-346 -410 0
-346 -414 0
-347 -371 0
-347 -391 0
-347 -395 0
-347 -407 0
-347 -411 0
-347 -415 0
-348 -372 0
-348 -392 0
-348 -396 0
-348 -408 0
-348 -412 0
-348 -416 0
-349 -373 0
-349 -393 0
-349 -397 0
-349 -409 0
-349 -413 0
-349 -417 0
-350 -374 0
-350 -394 0
-350 -398 0
-350 -410 0
-350 -414 0
-350 -418 0
-351 -375 0
-351 -395 0
-351 -399 0
-351 -411 0
-351 -415 0
-351 -419 0
-352 -376 0
-352 -396 0
-352 -400 0
-352 -412 0
-352 -416 0
-353 -377 0
-353 -397 0
-353 -401 0
-353 -413 0
-353 -417 0
-354 -378 0
-354 -398 0
-354 -402 0
-354 -414 0
-354 -418 0
-355 -379 0
-355 -399 0
-355 -403 0
-355 -415 0
-355 -419 0
-356 -380 0
-356 -400 0
-356 -416 0
-357 -381 0
-357 -401 0
-357 -417 0
-358 -382 0
-358 -402 0
-358 -418 0
-359 -383 0
-359 -403 0
-359 -419 0
-360 -384 0
-360 -404 0
-361 -385 0
-361 -405 0
-362 -386 0
-362 -406 0
-363 -387 0
-363 -407 0
-364 -384 0
-364 -388 0
-364 -404 0
-364 -408 0
-365 -385 0
-365 -389 0
-365 -405 0
-365 -409 0
-366 -386 0
-366 -390 0
-366 -406 0
-366 -410 0
-367 -387 0
-367 -391 0
-367 -407 0
-367 -411 0
-368 -388 0
-368 -392 0
-368 -404 0
-368 -408 0
-368 -412 0
-369 -389 0
-369 -393 0
-369 -405 0
-369 -409 0
-369 -413 0
-370 -390 0
-370 -394 0
-370 -406 0
-370 -410 0
-370 -414 0
-371 -391 0
-371 -395 0
-371 -407 0
-371 -411 0
-371 -415 0
-372 -392 0
-372 -396 0
-372 -408 0
-372 -412 0
-372 -416 0
-373 -393 0
-373 -397 0
-373 -409 0
-373 -413 0
-373 -417 0
-374 -394 0
-374 -398 0
-374 -410 0
-374 -414 0
-374 -418 0
-375 -395 0
-375 -399 0
-375 -411 0
-375 -415 0
-375 -419 0
-376 -396 0
-376 -400 0
-376 -412 0
-376 -416 0
-377 -397 0
-377 -401 0
-377 -413 0
-377 -417 0
-378 -398 0
-378 -402 0
-378 -414 0
-378 -418 0
-379 -399 0
-379 -403 0
-379 -415 0
-379 -419 0
-380 -400 0
-380 -416 0
-381 -401 0
-381 -417 0
-382 -402 0
-382 -418 0
-383 -403 0
-383 -419 0
-384 -404 0
-384 -408 0
-385 -405 0
-385 -409 0
-386 -406 0
-386 -410 0
-387 -407 0
-387 -411 0
-388 -404 0
-388 -408 0
-388 -412 0
-389 -405 0
-389 -409 0
-389 -413 0
-390 -406 0
-390 -410 0
-390 -414 0
-391 -407 0
-391 -411 0
-391 -415 0
-392 -404 0
-392 -408 0
-392 -412 0
-392 -416 0
-393 -405 0
-393 -409 0
-393 -413 0
-393 -417 0
-394 -406 0
-394 -410 0
-394 -414 0
-394 -418 0
-395 -407 0
-395 -411 0
-395 -415 0
-395 -419 0
-396 -408 0
-396 -412 0
-396 -416 0
-397 -409 0
-397 -413 0
-397 -417 0
-398 -410 0
-398 -414 0
-398 -418 0
-399 -411 0
-399 -415 0
-399 -419 0
-400 -412 0
-400 -416 0
-401 -413 0
-401 -417 0
-402 -414 0
-402 -418 0
-403 -415 0
-403 -419 0
-336 444 361 362 363 385 386 387 405 406 407 0
-336 -444 -361 0
-336 -444 -362 0
-336 -444 -363 0
-336 -444 -385 0
-336 -444 -386 0
-336 -444 -387 0
-336 -444 -405 0
-336 -444 -406 0
-336 -444 -407 0
-337 420 0
-337 444 362 363 386 387 406 407 0
-337 -444 -362 0
-337 -444 -363 0
-337 -444 -386 0
-337 -444 -387 0
-337 -444 -406 0
-337 -444 -407 0
-338 421 0
-338 444 363 387 407 0
-338 -444 -363 0
-338 -444 -387 0
-338 -444 -407 0
-339 422 0
-339 444 0
-340 444 365 366 367 385 386 387 389 390 391 405 406 407 409 410 411 0
-340 -444 -365 0
-340 -444 -366 0
-340 -444 -367 0
-340 -444 -385 0
-340 -444 -386 0
-340 -444 -387 0
-340 -444 -389 0
-340 -444 -390 0
-340 -444 -391 0
-340 -444 -405 0
-340 -444 -406 0
-340 -444 -407 0
-340 -444 -409 0
-340 -444 -410 0
-340 -444 -411 0
-341 424 0
-341 444 366 367 386 387 390 391 406 407 410 411 0
-341 -444 -366 0
-341 -444 -367 0
-341 -444 -386 0
-341 -444 -387 0
-341 -444 -390 0
-341 -444 -391 0
-341 -444 -406 0
-341 -444 -407 0
-341 -444 -410 0
-341 -444 -411 0
-342 425 0
-342 444 367 387 391 407 411 0
-342 -444 -367 0
-342 -444 -387 0
-342 -444 -391 0
-342 -444 -407 0
-342 -444 -411 0
-343 426 0
-343 444 0
-344 444 369 370 371 389 390 391 393 394 395 405 406 407 409 410 411 413 414 415 0
-344 -444 -369 0
-344 -444 -370 0
-344 -444 -371 0
-344 -444 -389 0
-344 -444 -390 0
-344 -444 -391 0
-344 -444 -393 0
-344 -444 -394 0
-344 -444 -395 0
-344 -444 -405 0
-344 -444 -406 0
-344 -444 -407 0
-344 -444 -409 0
-344 -444 -410 0
-344 -444 -411 0
-344 -444 -413 0
-344 -444 -414 0
-344 -444 -415 0
-345 428 0
-345 444 370 371 390 391 394 395 406 407 410 411 414 415 0
-345 -444 -370 0
-345 -444 -371 0
-345 -444 -390 0
-345 -444 -391 0
-345 -444 -394 0
-345 -444 -395 0
-345 -444 -406 0
-345 -444 -407 0
-345 -444 -410 0
-345 -444 -411 0
-345 -444 -414 0
-345 -444 -415 0
-346 429 0
-346 444 371 391 395 407 411 415 0
-346 -444 -371 0
-346 -444 -391 0
-346 -444 -395 0
-346 -444 -407 0
-346 -444 -411 0
-346 -444 -415 0
-347 430 0
-347 444 0
-348 444 373 374 375 393 394 395 397 398 399 409 410 411 413 414 415 417 418 419 0
-348 -444 -373 0
-348 -444 -374 0
-348 -444 -375 0
-348 -444 -393 0
-348 -444 -394 0
-348 -444 -395 0
-348 -444 -397 0
-348 -444 -398 0
-348 -444 -399 0
-348 -444 -409 0
-348 -444 -410 0
-348 -444 -411 0
-348 -444 -413 0
-348 -444 -414 0
-348 -444 -415 0
-348 -444 -417 0
-348 -444 -418 0
-348 -444 -419 0
-349 432 0
-349 444 374 375 394 395 398 399 410 411 414 415 418 419 0
-349 -444 -374 0
-349 -444 -375 0
-349 -444 -394 0
-349 -444 -395 0
-349 -444 -398 0
-349 -444 -399 0
-349 -444 -410 0
-349 -444 -411 0
-349 -444 -414 0
-349 -444 -415 0
-349 -444 -418 0
-349 -444 -419 0
-350 433 0
-350 444 375 395 399 411 415 419 0
-350 -444 -375 0
-350 -444 -395 0
-350 -444 -399 0
-350 -444 -411 0
-350 -444 -415 0
-350 -444 -419 0
-351 434 0
-351 444 0
-352 444 377 378 379 397 398 399 401 402 403 413 414 415 417 418 419 0
-352 -444 -377 0
-352 -444 -378 0
-352 -444 -379 0
-352 -444 -397 0
-352 -444 -398 0
-352 -444 -399 0
-352 -444 -401 0
-352 -444 -402 0
-352 -444 -403 0
-352 -444 -413 0
-352 -444 -414 0
-352 -444 -415 0
-352 -444 -417 0
-352 -444 -418 0
-352 -444 -419 0
-353 436 0
-353 444 378 379 398 399 402 403 414 415 418 419 0
-353 -444 -378 0
-353 -444 -379 0
-353 -444 -398 0
-353 -444 -399 0
-353 -444 -402 0
-353 -444 -403 0
-353 -444 -414 0
-353 -444 -415 0
-353 -444 -418 0
-353 -444 -419 0
-354 437 0
-354 444 379 399 403 415 419 0
-354 -444 -379 0
-354 -444 -399 0
-354 -444 -403 0
-354 -444 -415 0
-354 -444 -419 0
-355 438 0
-355 444 0
-356 444 381 382 383 401 402 403 417 418 419 0
-356 -444 -381 0
-356 -444 -382 0
-356 -444 -383 0
-356 -444 -401 0
-356 -444 -402 0
-356 -444 -403 0
-356 -444 -417 0
-356 -444 -418 0
-356 -444 -419 0
-357 440 0
-357 444 382 383 402 403 418 419 0
-357 -444 -382 0
-357 -444 -383 0
-357 -444 -402 0
-357 -444 -403 0
-357 -444 -418 0
-357 -444 -419 0
-358 441 0
-358 444 383 403 419 0
-358 -444 -383 0
-358 -444 -403 0
-358 -444 -419 0
-359 442 0
-359 444 0
-360 445 337 338 339 385 386 387 405 406 407 0
-360 -445 -337 0
-360 -445 -338 0
-360 -445 -339 0
-360 -445 -385 0
-360 -445 -386 0
-360 -445 -387 0
-360 -445 -405 0
-360 -445 -406 0
-360 -445 -407 0
-361 420 0
-361 445 338 339 386 387 406 407 0
-361 -445 -338 0
-361 -445 -339 0
-361 -445 -386 0
-361 -445 -387 0
-361 -445 -406 0
-361 -445 -407 0
-362 421 0
-362 445 339 387 407 0
-362 -445 -339 0
-362 -445 -387 0
-362 -445 -407 0
-363 422 0
-363 445 0
-364 445 341 342 343 385 386 387 389 390 391 405 406 407 409 410 411 0
-364 -445 -341 0
-364 -445 -342 0
-364 -445 -343 0
-364 -445 -385 0
-364 -445 -386 0
-364 -445 -387 0
-364 -445 -389 0
-364 -445 -390 0
-364 -445 -391 0
-364 -445 -405 0
-364 -445 -406 0
-364 -445 -407 0
-364 -445 -409 0
-364 -445 -410 0
-364 -445 -411 0
-365 424 0
-365 445 342 343 386 387 390 391 406 407 410 411 0
-365 -445 -342 0
-365 -445 -343 0
-365 -445 -386 0
-365 -445 -387 0
-365 -445 -390 0
-365 -445 -391 0
-365 -445 -406 0
-365 -445 -407 0
-365 -445 -410 0
-365 -445 -411 0
-366 425 0
-366 445 343 387 391 407 411 0
-366 -445 -343 0
-366 -445 -387 0
-366 -445 -391 0
-366 -445 -407 0
-366 -445 -411 0
-367 426 0
-367 445 0
-368 445 345 346 347 389 390 391 393 394 395 405 406 407 409 410 411 413 414 415 0
-368 -445 -345 0
-368 -445 -346 0
-368 -445 -347 0
-368 -445 -389 0
-368 -445 -390 0
-368 -445 -391 0
-368 -445 -393 0
-368 -445 -394 0
-368 -445 -395 0
-368 -445 -405 0
-368 -445 -406 0
-368 -445 -407 0
-368 -445 -409 0
-368 -445 -410 0
-368 -445 -411 0
-368 -445 -413 0
-368 -445 -414 0
-368 -445 -415 0
-369 428 0
-369 445 346 347 390 391 394 395 406 407 410 411 414 415 0
-369 -445 -346 0
-369 -445 -347 0
-369 -445 -390 0
-369 -445 -391 0
-369 -445 -394 0
-369 -445 -395 0
-369 -445 -406 0
-369 -445 -407 0
-369 -445 -410 0
-369 -445 -411 0
-369 -445 -414 0
-369 -445 -415 0
-370 429 0
-370 445 347 391 395 407 411 415 0
-370 -445 -347 0
-370 -445 -391 0
-370 -445 -395 0
-370 -445 -407 0
-370 -445 -411 0
-370 -445 -415 0
-371 430 0
-371 445 0
-372 445 349 350 351 393 394 395 397 398 399 409 410 411 413 414 415 417 418 419 0
-372 -445 -349 0
-372 -445 -350 0
-372 -445 -351 0
-372 -445 -393 0
-372 -445 -394 0
-372 -445 -395 0
-372 -445 -397 0
-372 -445 -398 0
-372 -445 -399 0
-372 -445 -409 0
-372 -445 -410 0
-372 -445 -411 0
-372 -445 -413 0
-372 -445 -414 0
-372 -445 -415 0
-372 -445 -417 0
-372 -445 -418 0
-372 -445 -419 0
-373 432 0
-373 445 350 351 394 395 398 399 410 411 414 415 418 419 0
-373 -445 -350 0
-373 -445 -351 0
-373 -445 -394 0
-373 -445 -395 0
-373 -445 -398 0
-373 -445 -399 0
-373 -445 -410 0
-373 -445 -411 0
-373 -445 -414 0
-373 -445 -415 0
-373 -445 -418 0
-373 -445 -419 0
-374 433 0
-374 445 351 395 399 411 415 419 0
-374 -445 -351 0
-374 -445 -395 0
-374 -445 -399 0
-374 -445 -411 0
-374 -445 -415 0
-374 -445 -419 0
-375 434 0
-375 445 0
-376 445 353 354 355 397 398 399 401 402 403 413 414 415 417 418 419 0
-376 -445 -353 0
-376 -445 -354 0
-376 -445 -355 0
-376 -445 -397 0
-376 -445 -398 0
-376 -445 -399 0
-376 -445 -401 0
-376 -445 -402 0
-376 -445 -403 0
-376 -445 -413 0
-376 -445 -414 0
-376 -445 -415 0
-376 -445 -417 0
-376 -445 -418 0
-376 -445 -419 0
-377 436 0
-377 445 354 355 398 399 402 403 414 415 418 419 0
-377 -445 -354 0
-377 -445 -355 0
-377 -445 -398 0
-377 -445 -399 0
-377 -445 -402 0
-377 -445 -403 0
-377 -445 -414 0
-377 -445 -415 0
-377 -445 -418 0
-377 -445 -419 0
-378 437 0
-378 445 355 399 403 415 419 0
-378 -445 -355 0
-378 -445 -399 0
-378 -445 -403 0
-378 -445 -415 0
-378 -445 -419 0
-379 438 0
-379 445 0
-380 445 357 358 359 401 402 403 417 418 419 0
-380 -445 -357 0
-380 -445 -358 0
-380 -445 -359 0
-380 -445 -401 0
-380 -445 -402 0
-380 -445 -403 0
-380 -445 -417 0
-380 -445 -418 0
-380 -445 -419 0
-381 440 0
-381 445 358 359 402 403 418 419 0
-381 -445 -358 0
-381 -445 -359 0
-381 -445 -402 0
-381 -445 -403 0
-381 -445 -418 0
-381 -445 -419 0
-382 441 0
-382 445 359 403 419 0
-382 -445 -359 0
-382 -445 -403 0
-382 -445 -419 0
-383 442 0
-383 445 0
-384 446 337 338 339 341 342 343 361 362 363 365 366 367 405 406 407 409 410 411 0
-384 -446 -337 0
-384 -446 -338 0
-384 -446 -339 0
-384 -446 -341 0
-384 -446 -342 0
-384 -446 -343 0
-384 -446 -361 0
-384 -446 -362 0
-384 -446 -363 0
-384 -446 -365 0
-384 -446 -366 0
-384 -446 -367 0
-384 -446 -405 0
-384 -446 -406 0
-384 -446 -407 0
-384 -446 -409 0
-384 -446 -410 0
-384 -446 -411 0
-385 420 424 0
-385 446 338 339 342 343 362 363 366 367 406 407 410 411 0
-385 -446 -338 0
-385 -446 -339 0
-385 -446 -342 0
-385 -446 -343 0
-385 -446 -362 0
-385 -446 -363 0
-385 -446 -366 0
-385 -446 -367 0
-385 -446 -406 0
-385 -446 -407 0
-385 -446 -410 0
-385 -446 -411 0
-386 421 425 0
-386 446 339 343 363 367 407 411 0
-386 -446 -339 0
-386 -446 -343 0
-386 -446 -363 0
-386 -446 -367 0
-386 -446 -407 0
-386 -446 -411 0
-387 422 426 0
-387 446 0
-388 446 341 342 343 345 346 347 365 366 367 369 370 371 405 406 407 409 410 411 413 414 415 0
-388 -446 -341 0
-388 -446 -342 0
-388 -446 -343 0
-388 -446 -345 0
-388 -446 -346 0
-388 -446 -347 0
-388 -446 -365 0
-388 -446 -366 0
-388 -446 -367 0
-388 -446 -369 0
-388 -446 -370 0
-388 -446 -371 0
-388 -446 -405 0
-388 -446 -406 0
-388 -446 -407 0
-388 -446 -409 0
-388 -446 -410 0
-388 -446 -411 0
-388 -446 -413 0
-388 -446 -414 0
-388 -446 -415 0
-389 424 428 0
-389 446 342 343 346 347 366 367 370 371 406 407 410 411 414 415 0
-389 -446 -342 0
-389 -446 -343 0
-389 -446 -346 0
-389 -446 -347 0
-389 -446 -366 0
-389 -446 -367 0
-389 -446 -370 0
-389 -446 -371 0
-389 -446 -406 0
-389 -446 -407 0
-389 -446 -410 0
-389 -446 -411 0
-389 -446 -414 0
-389 -446 -415 0
-390 425 429 0
-390 446 343 347 367 371 407 411 415 0
-390 -446 -343 0
-390 -446 -347 0
-390 -446 -367 0
-390 -446 -371 0
-390 -446 -407 0
-390 -446 -411 0
-390 -446 -415 0
-391 426 430 0
-391 446 0
-392 446 345 346 347 349 350 351 369 370 371 373 374 375 405 406 407 409 410 411 413 414 415 417 418 419 0
-392 -446 -345 0
-392 -446 -346 0
-392 -446 -347 0
-392 -446 -349 0
-392 -446 -350 0
-392 -446 -351 0
-392 -446 -369 0
-392 -446 -370 0
-392 -446 -371 0
-392 -446 -373 0
-392 -446 -374 0
-392 -446 -375 0
-392 -446 -405 0
-392 -446 -406 0
-392 -446 -407 0
-392 -446 -409 0
-392 -446 -410 0
-392 -446 -411 0
-392 -446 -413 0
-392 -446 -414 0
-392 -446 -415 0
-392 -446 -417 0
-392 -446 -418 0
-392 -446 -419 0
-393 428 432 0
-393 446 346 347 350 351 370 371 374 375 406 407 410 411 414 415 418 419 0
-393 -446 -346 0
-393 -446 -347 0
-393 -446 -350 0
-393 -446 -351 0
-393 -446 -370 0
-393 -446 -371 0
-393 -446 -374 0
-393 -446 -375 0
-393 -446 -406 0
-393 -446 -407 0
-393 -446 -410 0
-393 -446 -411 0
-393 -446 -414 0
-393 -446 -415 0
-393 -446 -418 0
-393 -446 -419 0
-394 429 433 0
-394 446 347 351 371 375 407 411 415 419 0
-394 -446 -347 0
-394 -446 -351 0
-394 -446 -371 0
-394 -446 -375 0
-394 -446 -407 0
-394 -446 -411 0
-394 -446 -415 0
-394 -446 -419 0
-395 430 434 0
-395 446 0
-396 446 349 350 351 353 354 355 373 374 375 377 378 379 409 410 411 413 414 415 417 418 419 0
-396 -446 -349 0
-396 -446 -350 0
-396 -446 -351 0
-396 -446 -353 0
-396 -446 -354 0
-396 -446 -355 0
-396 -446 -373 0
-396 -446 -374 0
-396 -446 -375 0
-396 -446 -377 0
-396 -446 -378 0
-396 -446 -379 0
-396 -446 -409 0
-396 -446 -410 0
-396 -446 -411 0
-396 -446 -413 0
-396 -446 -414 0
-396 -446 -415 0
-396 -446 -417 0
-396 -446 -418 0
-396 -446 -419 0
-397 432 436 0
-397 446 350 351 354 355 374 375 378 379 410 411 414 415 418 419 0
-397 -446 -350 0
-397 -446 -351 0
-397 -446 -354 0
-397 -446 -355 0
-397 -446 -374 0
-397 -446 -375 0
-397 -446 -378 0
-397 -446 -379 0
-397 -446 -410 0
-397 -446 -411 0
-397 -446 -414 0
-397 -446 -415 0
-397 -446 -418 0
-397 -446 -419 0
-398 433 437 0
-398 446 351 355 375 379 411 415 419 0
-398 -446 -351 0
-398 -446 -355 0
-398 -446 -375 0
-398 -446 -379 0
-398 -446 -411 0
-398 -446 -415 0
-398 -446 -419 0
-399 434 438 0
-399 446 0
-400 446 353 354 355 357 358 359 377 378 379 381 382 383 413 414 415 417 418 419 0
-400 -446 -353 0
-400 -446 -354 0
-400 -446 -355 0
-400 -446 -357 0
-400 -446 -358 0
-400 -446 -359 0
-400 -446 -377 0
-400 -446 -378 0
-400 -446 -379 0
-400 -446 -381 0
-400 -446 -382 0
-400 -446 -383 0
-400 -446 -413 0
-400 -446 -414 0
-400 -446 -415 0
-400 -446 -417 0
-400 -446 -418 0
-400 -446 -419 0
-401 436 440 0
-401 446 354 355 358 359 378 379 382 383 414 415 418 419 0
-401 -446 -354 0
-401 -446 -355 0
-401 -446 -358 0
-401 -446 -359 0
-401 -446 -378 0
-401 -446 -379 0
-401 -446 -382 0
-401 -446 -383 0
-401 -446 -414 0
-401 -446 -415 0
-401 -446 -418 0
-401 -446 -419 0
-402 437 441 0
-402 446 355 359 379 383 415 419 0
-402 -446 -355 0
-402 -446 -359 0
-402 -446 -379 0
-402 -446 -383 0
-402 -446 -415 0
-402 -446 -419 0
-403 438 442 0
-403 446 0
-404 447 337 338 339 341 342 343 345 346 347 361 362 363 365 366 367 369 370 371 385 386 387 389 390 391 393 394 395 0
-404 -447 -337 0
-404 -447 -338 0
-404 -447 -339 0
-404 -447 -341 0
-404 -447 -342 0
-404 -447 -343 0
-404 -447 -345 0
-404 -447 -346 0
-404 -447 -347 0
-404 -447 -361 0
-404 -447 -362 0
-404 -447 -363 0
-404 -447 -365 0
-404 -447 -366 0
-404 -447 -367 0
-404 -447 -369 0
-404 -447 -370 0
-404 -447 -371 0
-404 -447 -385 0
-404 -447 -386 0
-404 -447 -387 0
-404 -447 -389 0
-404 -447 -390 0
-404 -447 -391 0
-404 -447 -393 0
-404 -447 -394 0
-404 -447 -395 0
-405 420 424 0
-405 420 428 0
-405 424 428 0
-405 447 338 339 342 343 346 347 362 363 366 367 370 371 386 387 390 391 394 395 0
-405 -447 -338 0
-405 -447 -339 0
-405 -447 -342 0
-405 -447 -343 0
-405 -447 -346 0
-405 -447 -347 0
-405 -447 -362 0
-405 -447 -363 0
-405 -447 -366 0
-405 -447 -367 0
-405 -447 -370 0
-405 -447 -371 0
-405 -447 -386 0
-405 -447 -387 0
-405 -447 -390 0
-405 -447 -391 0
-405 -447 -394 0
-405 -447 -395 0
-406 421 425 0
-406 421 429 0
-406 425 429 0
-406 447 339 343 347 363 367 371 387 391 395 0
-406 -447 -339 0
-406 -447 -343 0
-406 -447 -347 0
-406 -447 -363 0
-406 -447 -367 0
-406 -447 -371 0
-406 -447 -387 0
-406 -447 -391 0
-406 -447 -395 0
-407 422 426 0
-407 422 430 0
-407 426 430 0
-407 447 0
-408 447 341 342 343 345 346 347 349 350 351 365 366 367 369 370 371 373 374 375 385 386 387 389 390 391 393 394 395 397 398 399 0
-408 -447 -341 0
-408 -447 -342 0
-408 -447 -343 0
-408 -447 -345 0
-408 -447 -346 0
-408 -447 -347 0
-408 -447 -349 0
-408 -447 -350 0
-408 -447 -351 0
-408 -447 -365 0
-408 -447 -366 0
-408 -447 -367 0
-408 -447 -369 0
-408 -447 -370 0
-408 -447 -371 0
-408 -447 -373 0
-408 -447 -374 0
-408 -447 -375 0
-408 -447 -385 0
-408 -447 -386 0
-408 -447 -387 0
-408 -447 -389 0
-408 -447 -390 0
-408 -447 -391 0
-408 -447 -393 0
-408 -447 -394 0
-408 -447 -395 0
-408 -447 -397 0
-408 -447 -398 0
-408 -447 -399 0
-409 424 428 0
-409 424 432 0
-409 428 432 0
-409 447 342 343 346 347 350 351 366 367 370 371 374 375 386 387 390 391 394 395 398 399 0
-409 -447 -342 0
-409 -447 -343 0
-409 -447 -346 0
-409 -447 -347 0
-409 -447 -350 0
-409 -447 -351 0
-409 -447 -366 0
-409 -447 -367 0
-409 -447 -370 0
-409 -447 -371 0
-409 -447 -374 0
-409 -447 -375 0
-409 -447 -386 0
-409 -447 -387 0
-409 -447 -390 0
-409 -447 -391 0
-409 -447 -394 0
-409 -447 -395 0
-409 -447 -398 0
-409 -447 -399 0
-410 425 429 0
-410 425 433 0
-410 429 433 0
-410 447 343 347 351 367 371 375 387 391 395 399 0
-410 -447 -343 0
-410 -447 -347 0
-410 -447 -351 0
-410 -447 -367 0
-410 -447 -371 0
-410 -447 -375 0
-410 -447 -387 0
-410 -447 -391 0
-410 -447 -395 0
-410 -447 -399 0
-411 426 430 0
-411 426 434 0
-411 430 434 0
-411 447 0
-412 447 345 346 347 349 350 351 353 354 355 369 370 371 373 374 375 377 378 379 389 390 391 393 394 395 397 398 399 401 402 403 0
-412 -447 -345 0
-412 -447 -346 0
-412 -447 -347 0
-412 -447 -349 0
-412 -447 -350 0
-412 -447 -351 0
-412 -447 -353 0
-412 -447 -354 0
-412 -447 -355 0
-412 -447 -369 0
-412 -447 -370 0
-412 -447 -371 0
-412 -447 -373 0
-412 -447 -374 0
-412 -447 -375 0
-412 -447 -377 0
-412 -447 -378 0
-412 -447 -379 0
-412 -447 -389 0
-412 -447 -390 0
-412 -447 -391 0
-412 -447 -393 0
-412 -447 -394 0
-412 -447 -395 0
-412 -447 -397 0
-412 -447 -398 0
-412 -447 -399 0
-412 -447 -401 0
-412 -447 -402 0
-412 -447 -403 0
-413 428 432 0
-413 428 436 0
-413 432 436 0
-413 447 346 347 350 351 354 355 370 371 374 375 378 379 390 391 394 395 398 399 402 403 0
-413 -447 -346 0
-413 -447 -347 0
-413 -447 -350 0
-413 -447 -351 0
-413 -447 -354 0
-413 -447 -355 0
-413 -447 -370 0
-413 -447 -371 0
-413 -447 -374 0
-413 -447 -375 0
-413 -447 -378 0
-413 -447 -379 0
-413 -447 -390 0
-413 -447 -391 0
-413 -447 -394 0
-413 -447 -395 0
-413 -447 -398 0
-413 -447 -399 0
-413 -447 -402 0
-413 -447 -403 0
-414 429 433 0
-414 429 437 0
-414 433 437 0
-414 447 347 351 355 371 375 379 391 395 399 403 0
-414 -447 -347 0
-414 -447 -351 0
-414 -447 -355 0
-414 -447 -371 0
-414 -447 -375 0
-414 -447 -379 0
-414 -447 -391 0
-414 -447 -395 0
-414 -447 -399 0
-414 -447 -403 0
-415 430 434 0
-415 430 438 0
-415 434 438 0
-415 447 0
-416 447 349 350 351 353 354 355 357 358 359 373 374 375 377 378 379 381 382 383 393 394 395 397 398 399 401 402 403 0
-416 -447 -349 0
-416 -447 -350 0
-416 -447 -351 0
-416 -447 -353 0
-416 -447 -354 0
-416 -447 -355 0
-416 -447 -357 0
-416 -447 -358 0
-416 -447 -359 0
-416 -447 -373 0
-416 -447 -374 0
-416 -447 -375 0
-416 -447 -377 0
-416 -447 -378 0
-416 -447 -379 0
-416 -447 -381 0
-416 -447 -382 0
-416 -447 -383 0
-416 -447 -393 0
-416 -447 -394 0
-416 -447 -395 0
-416 -447 -397 0
-416 -447 -398 0
-416 -447 -399 0
-416 -447 -401 0
-416 -447 -402 0
-416 -447 -403 0
-417 432 436 0
-417 432 440 0
-417 436 440 0
-417 447 350 351 354 355 358 359 374 375 378 379 382 383 394 395 398 399 402 403 0
-417 -447 -350 0
-417 -447 -351 0
-417 -447 -354 0
-417 -447 -355 0
-417 -447 -358 0
-417 -447 -359 0
-417 -447 -374 0
-417 -447 -375 0
-417 -447 -378 0
-417 -447 -379 0
-417 -447 -382 0
-417 -447 -383 0
-417 -447 -394 0
-417 -447 -395 0
-417 -447 -398 0
-417 -447 -399 0
-417 -447 -402 0
-417 -447 -403 0
-418 433 437 0
-418 433 441 0
-418 437 441 0
-418 447 351 355 359 375 379 383 395 399 403 0
-418 -447 -351 0
-418 -447 -355 0
-418 -447 -359 0
-418 -447 -375 0
-418 -447 -379 0
-418 -447 -383 0
-418 -447 -395 0
-418 -447 -399 0
-418 -447 -403 0
-419 434 438 0
-419 434 442 0
-419 438 442 0
-419 447 0
448 449 450 451 452 453 0
-448 -449 0
-448 -450 0
-448 -451 0
-448 -452 0
-448 -453 0
-449 -450 0
-449 -451 0
-449 -452 0
-449 -453 0
-450 -451 0
-450 -452 0
-450 -453 0
-451 -452 0
-451 -453 0
-452 -453 0
454 455 456 457 0
-454 -455 0
-454 -456 0
-454 -457 0
-455 -456 0
-455 -457 0
-456 -457 0
458 459 460 461 462 463 0
-458 -459 0
-458 -460 0
-458 -461 0
-458 -462 0
-458 -463 0
-459 -460 0
-459 -461 0
-459 -462 0
-459 -463 0
-460 -461 0
-460 -462 0
-460 -463 0
-461 -462 0
-461 -463 0
-462 -463 0
464 465 466 467 0
-464 -465 0
-464 -466 0
-464 -467 0
-465 -466 0
-465 -467 0
-466 -467 0
468 469 470 471 472 0
-468 -469 0
-468 -470 0
-468 -471 0
-468 -472 0
-469 -470 0
-469 -471 0
-469 -472 0
-470 -471 0
-470 -472 0
-471 -472 0
473 474 475 476 0
-473 -474 0
-473 -475 0
-473 -476 0
-474 -475 0
-474 -476 0
-475 -476 0
477 478 479 480 0
-477 -478 0
-477 -479 0
-477 -480 0
-478 -479 0
-478 -480 0
-479 -480 0
481 482 483 484 0
-481 -482 0
-481 -483 0
-481 -484 0
-482 -483 0
-482 -484 0
-483 -484 0
-485 448 0
-485 454 0
-448 -454 485 0
-486 448 0
-486 455 0
-448 -455 486 0
-487 448 0
-487 456 0
-448 -456 487 0
-488 448 0
-488 457 0
-448 -457 488 0
-489 449 0
-489 454 0
-449 -454 489 0
-490 449 0
-490 455 0
-449 -455 490 0
-491 449 0
-491 456 0
-449 -456 491 0
-492 449 0
-492 457 0
-449 -457 492 0
-493 450 0
-493 454 0
-450 -454 493 0
-494 450 0
-494 455 0
-450 -455 494 0
-495 450 0
-495 456 0
-450 -456 495 0
-496 450 0
-496 457 0
-450 -457 496 0
-497 451 0
-497 454 0
-451 -454 497 0
-498 451 0
-498 455 0
-451 -455 498 0
-499 451 0
-499 456 0
-451 -456 499 0
-500 451 0
-500 457 0
-451 -457 500 0
-501 452 0
-501 454 0
-452 -454 501 0
-502 452 0
-502 455 0
-452 -455 502 0
-503 452 0
-503 456 0
-452 -456 503 0
-504 452 0
-504 457 0
-452 -457 504 0
-505 453 0
-505 454 0
-453 -454 505 0
-506 453 0
-506 455 0
-453 -455 506 0
-507 453 0
-507 456 0
-453 -456 507 0
-508 453 0
-508 457 0
-453 -457 508 0
-509 458 0
-509 464 0
-458 -464 509 0
-510 458 0
-510 465 0
-458 -465 510 0
-511 458 0
-511 466 0
-458 -466 511 0
-512 458 0
-512 467 0
-458 -467 512 0
-513 459 0
-513 464 0
-459 -464 513 0
-514 459 0
-514 465 0
-459 -465 514 0
-515 459 0
-515 466 0
-459 -466 515 0
-516 459 0
-516 467 0
-459 -467 516 0
-517 460 0
-517 464 0
-460 -464 517 0
-518 460 0
-518 465 0
-460 -465 518 0
-519 460 0
-519 466 0
-460 -466 519 0
-520 460 0
-520 467 0
-460 -467 520 0
-521 461 0
-521 464 0
-461 -464 521 0
-522 461 0
-522 465 0
-461 -465 522 0
-523 461 0
-523 466 0
-461 -466 523 0
-524 461 0
-524 467 0
-461 -467 524 0
-525 462 0
-525 464 0
-462 -464 525 0
-526 462 0
-526 465 0
-462 -465 526 0
-527 462 0
-527 466 0
-462 -466 527 0
-528 462 0
-528 467 0
-462 -467 528 0
-529 463 0
-529 464 0
-463 -464 529 0
-530 463 0
-530 465 0
-463 -465 530 0
-531 463 0
-531 466 0
-463 -466 531 0
-532 463 0
-532 467 0
-463 -467 532 0
-533 468 0
-533 473 0
-468 -473 533 0
-534 468 0
-534 474 0
-468 -474 534 0
-535 468 0
-535 475 0
-468 -475 535 0
-536 468 0
-536 476 0
-468 -476 536 0
-537 469 0
-537 473 0
-469 -473 537 0
-538 469 0
-538 474 0
-469 -474 538 0
-539 469 0
-539 475 0
-469 -475 539 0
-540 469 0
-540 476 0
-469 -476 540 0
-541 470 0
-541 473 0
-470 -473 541 0
-542 470 0
-542 474 0
-470 -474 542 0
-543 470 0
-543 475 0
-470 -475 543 0
-544 470 0
-544 476 0
-470 -476 544 0
-545 471 0
-545 473 0
-471 -473 545 0
-546 471 0
-546 474 0
-471 -474 546 0
-547 471 0
-547 475 0
-471 -475 547 0
-548 471 0
-548 476 0
-471 -476 548 0
-549 472 0
-549 473 0
-472 -473 549 0
-550 472 0
-550 474 0
-472 -474 550 0
-551 472 0
-551 475 0
-472 -475 551 0
-552 472 0
-552 476 0
-472 -476 552 0
-553 477 0
-553 481 0
-477 -481 553 0
-554 477 0
-554 482 0
-477 -482 554 0
-555 477 0
-555 483 0
-477 -483 555 0
-556 477 0
-556 484 0
-477 -484 556 0
-557 478 0
-557 481 0
-478 -481 557 0
-558 478 0
-558 482 0
-478 -482 558 0
-559 478 0
-559 483 0
-478 -483 559 0
-560 478 0
-560 484 0
-478 -484 560 0
-561 479 0
-561 481 0
-479 -481 561 0
-562 479 0
-562 482 0
-479 -482 562 0
-563 479 0
-563 483 0
-479 -483 563 0
-564 479 0
-564 484 0
-479 -484 564 0
-565 480 0
-565 481 0
-480 -481 565 0
-566 480 0
-566 482 0
-480 -482 566 0
-567 480 0
-567 483 0
-480 -483 567 0
-568 480 0
-568 484 0
-480 -484 568 0
-569 485 509 533 553 0
-485 569 0
-509 569 0
-533 569 0
-553 569 0
-570 486 510 534 554 0
-486 570 0
-510 570 0
-534 570 0
-554 570 0
-571 487 511 535 555 0
-487 571 0
-511 571 0
-535 571 0
-555 571 0
-572 488 512 536 556 0
-488 572 0
-512 572 0
-536 572 0
-556 572 0
-573 489 513 533 537 553 557 0
-489 573 0
-513 573 0
-533 573 0
-537 573 0
-553 573 0
-557 573 0
-574 490 514 534 538 554 558 0
-490 574 0
-514 574 0
-534 574 0
-538 574 0
-554 574 0
-558 574 0
-575 491 515 535 539 555 559 0
-491 575 0
-515 575 0
-535 575 0
-539 575 0
-555 575 0
-559 575 0
-576 492 516 536 540 556 560 0
-492 576 0
-516 576 0
-536 576 0
-540 576 0
-556 576 0
-560 576 0
-577 493 517 537 541 553 557 561 0
-493 577 0
-517 577 0
-537 577 0
-541 577 0
-553 577 0
-557 577 0
-561 577 0
-578 494 518 538 542 554 558 562 0
-494 578 0
-518 578 0
-538 578 0
-542 578 0
-554 578 0
-558 578 0
-562 578 0
-579 495 519 539 543 555 559 563 0
-495 579 0
-519 579 0
-539 579 0
-543 579 0
-555 579 0
-559 579 0
-563 579 0
-580 496 520 540 544 556 560 564 0
-496 580 0
-520 580 0
-540 580 0
-544 580 0
-556 580 0
-560 580 0
-564 580 0
-581 497 521 541 545 557 561 565 0
-497 581 0
-521 581 0
-541 581 0
-545 581 0
-557 581 0
-561 581 0
-565 581 0
-582 498 522 542 546 558 562 566 0
-498 582 0
-522 582 0
-542 582 0
-546 582 0
-558 582 0
-562 582 0
-566 582 0
-583 499 523 543 547 559 563 567 0
-499 583 0
-523 583 0
-543 583 0
-547 583 0
-559 583 0
-563 583 0
-567 583 0
-584 500 524 544 548 560 564 568 0
-500 584 0
-524 584 0
-544 584 0
-548 584 0
-560 584 0
-564 584 0
-568 584 0
-585 501 525 545 549 561 565 0
-501 585 0
-525 585 0
-545 585 0
-549 585 0
-561 585 0
-565 585 0
-586 502 526 546 550 562 566 0
-502 586 0
-526 586 0
-546 586 0
-550 586 0
-562 586 0
-566 586 0
-587 503 527 547 551 563 567 0
-503 587 0
-527 587 0
-547 587 0
-551 587 0
-563 587 0
-567 587 0
-588 504 528 548 552 564 568 0
-504 588 0
-528 588 0
-548 588 0
-552 588 0
-564 588 0
-568 588 0
-589 505 529 549 565 0
-505 589 0
-529 589 0
-549 589 0
-565 589 0
-590 506 530 550 566 0
-506 590 0
-530 590 0
-550 590 0
-566 590 0
-591 507 531 551 567 0
-507 591 0
-531 591 0
-551 591 0
-567 591 0
-592 508 532 552 568 0
-508 592 0
-532 592 0
-552 592 0
-568 592 0
-485 -509 0
-485 -533 0
-485 -553 0
-486 -510 0
-486 -534 0
-486 -554 0
-487 -511 0
-487 -535 0
-487 -555 0
-488 -512 0
-488 -536 0
-488 -556 0
-489 -513 0
-489 -533 0
-489 -537 0
-489 -553 0
-489 -557 0
-490 -514 0
-490 -534 0
-490 -538 0
-490 -554 0
-490 -558 0
-491 -515 0
-491 -535 0
-491 -539 0
-491 -555 0
-491 -559 0
-492 -516 0
-492 -536 0
-492 -540 0
-492 -556 0
-492 -560 0
-493 -517 0
-493 -537 0
-493 -541 0
-493 -553 0
-493 -557 0
-493 -561 0
-494 -518 0
-494 -538 0
-494 -542 0
-494 -554 0
-494 -558 0
-494 -562 0
-495 -519 0
-495 -539 0
-495 -543 0
-495 -555 0
-495 -559 0
-495 -563 0
-496 -520 0
-496 -540 0
-496 -544 0
-496 -556 0
-496 -560 0
-496 -564 0
-497 -521 0
-497 -541 0
-497 -545 0
-497 -557 0
-497 -561 0
-497 -565 0
-498 -522 0
-498 -542 0
-498 -546 0
-498 -558 0
-498 -562 0
-498 -566 0
-499 -523 0
-499 -543 0
-499 -547 0
-499 -559 0
-499 -563 0
-499 -567 0
-500 -524 0
-500 -544 0
-500 -548 0
-500 -560 0
-500 -564 0
-500 -568 0
-501 -525 0
-501 -545 0
-501 -549 0
-501 -561 0
-501 -565 0
-502 -526 0
-502 -546 0
-502 -550 0
-502 -562 0
-502 -566 0
-503 -527 0
-503 -547 0
-503 -551 0
-503 -563 0
-503 -567 0
-504 -528 0
-504 -548 0
-504 -552 0
-504 -564 0
-504 -568 0
-505 -529 0
-505 -549 0
-505 -565 0
-506 -530 0
-506 -550 0
-506 -566 0
-507 -531 0
-507 -551 0
-507 -567 0
-508 -532 0
-508 -552 0
-508 -568 0
-509 -533 0
-509 -553 0
-510 -534 0
-510 -554 0
-511 -535 0
-511 -555 0
-512 -536 0
-512 -556 0
-513 -533 0
-513 -537 0
-513 -553 0
-513 -557 0
-514 -534 0
-514 -538 0
-514 -554 0
-514 -558 0
-515 -535 0
-515 -539 0
-515 -555 0
-515 -559 0
-516 -536 0
-516 -540 0
-516 -556 0
-516 -560 0
-517 -537 0
-517 -541 0
-517 -553 0
-517 -557 0
-517 -561 0
-518 -538 0
-518 -542 0
-518 -554 0
-518 -558 0
-518 -562 0
-519 -539 0
-519 -543 0
-519 -555 0
-519 -559 0
-519 -563 0
-520 -540 0
-520 -544 0
-520 -556 0
-520 -560 0
-520 -564 0
-521 -541 0
-521 -545 0
-521 -557 0
-521 -561 0
-521 -565 0
-522 -542 0
-522 -546 0
-522 -558 0
-522 -562 0
-522 -566 0
-523 -543 0
-523 -547 0
-523 -559 0
-523 -563 0
-523 -567 0
-524 -544 0
-524 -548 0
-524 -560 0
-524 -564 0
-524 -568 0
-525 -545 0
-525 -549 0
-525 -561 0
-525 -565 0
-526 -546 0
-526 -550 0
-526 -562 0
-526 -566 0
-527 -547 0
-527 -551 0
-527 -563 0
-527 -567 0
-528 -548 0
-528 -552 0
-528 -564 0
-528 -568 0
-529 -549 0
-529 -565 0
-530 -550 0
-530 -566 0
-531 -551 0
-531 -567 0
-532 -552 0
-532 -568 0
-533 -553 0
-533 -557 0
-534 -554 0
-534 -558 0
-535 -555 0
-535 -559 0
-536 -556 0
-536 -560 0
-537 -553 0
-537 -557 0
-537 -561 0
-538 -554 0
-538 -558 0
-538 -562 0
-539 -555 0
-539 -559 0
-539 -563 0
-540 -556 0
-540 -560 0
-540 -564 0
-541 -553 0
-541 -557 0
-541 -561 0
-541 -565 0
-542 -554 0
-542 -558 0
-542 -562 0
-542 -566 0
-543 -555 0
-543 -559 0
-543 -563 0
-543 -567 0
-544 -556 0
-544 -560 0
-544 -564 0
-544 -568 0
-545 -557 0
-545 -561 0
-545 -565 0
-546 -558 0
-546 -562 0
-546 -566 0
-547 -559 0
-547 -563 0
-547 -567 0
-548 -560 0
-548 -564 0
-548 -568 0
-549 -561 0
-549 -565 0
-550 -562 0
-550 -566 0
-551 -563 0
-551 -567 0
-552 -564 0
-552 -568 0
-485 593 510 511 512 534 535 536 554 555 556 0
-485 -593 -510 0
-485 -593 -511 0
-485 -593 -512 0
-485 -593 -534 0
-485 -593 -535 0
-485 -593 -536 0
-485 -593 -554 0
-485 -593 -555 0
-485 -593 -556 0
-486 569 0
-486 593 511 512 535 536 555 556 0
-486 -593 -511 0
-486 -593 -512 0
-486 -593 -535 0
-486 -593 -536 0
-486 -593 -555 0
-486 -593 -556 0
-487 570 0
-487 593 512 536 556 0
-487 -593 -512 0
-487 -593 -536 0
-487 -593 -556 0
-488 571 0
-488 593 0
-489 593 514 515 516 534 535 536 538 539 540 554 555 556 558 559 560 0
-489 -593 -514 0
-489 -593 -515 0
-489 -593 -516 0
-489 -593 -534 0
-489 -593 -535 0
-489 -593 -536 0
-489 -593 -538 0
-489 -593 -539 0
-489 -593 -540 0
-489 -593 -554 0
-489 -593 -555 0
-489 -593 -556 0
-489 -593 -558 0
-489 -593 -559 0
-489 -593 -560 0
-490 573 0
-490 593 515 516 535 536 539 540 555 556 559 560 0
-490 -593 -515 0
-490 -593 -516 0
-490 -593 -535 0
-490 -593 -536 0
-490 -593 -539 0
-490 -593 -540 0
-490 -593 -555 0
-490 -593 -556 0
-490 -593 -559 0
-490 -593 -560 0
-491 574 0
-491 593 516 536 540 556 560 0
-491 -593 -516 0
-491 -593 -536 0
-491 -593 -540 0
-491 -593 -556 0
-491 -593 -560 0
-492 575 0
-492 593 0
-493 593 518 519 520 538 539 540 542 543 544 554 555 556 558 559 560 562 563 564 0
-493 -593 -518 0
-493 -593 -519 0
-493 -593 -520 0
-493 -593 -538 0
-493 -593 -539 0
-493 -593 -540 0
-493 -593 -542 0
-493 -593 -543 0
-493 -593 -544 0
-493 -593 -554 0
-493 -593 -555 0
-493 -593 -556 0
-493 -593 -558 0
-493 -593 -559 0
-493 -593 -560 0
-493 -593 -562 0
-493 -593 -563 0
-493 -593 -564 0
-494 577 0
-494 593 519 520 539 540 543 544 555 556 559 560 563 564 0
-494 -593 -519 0
-494 -593 -520 0
-494 -593 -539 0
-494 -593 -540 0
-494 -593 -543 0
-494 -593 -544 0
-494 -593 -555 0
-494 -593 -556 0
-494 -593 -559 0
-494 -593 -560 0
-494 -593 -563 0
-494 -593 -564 0
-495 578 0
-495 593 520 540 544 556 560 564 0
-495 -593 -520 0
-495 -593 -540 0
-495 -593 -544 0
-495 -593 -556 0
-495 -593 -560 0
-495 -593 -564 0
-496 579 0
-496 593 0
-497 593 522 523 524 542 543 544 546 547 548 558 559 560 562 563 564 566 567 568 0
-497 -593 -522 0
-497 -593 -523 0
-497 -593 -524 0
-497 -593 -542 0
-497 -593 -543 0
-497 -593 -544 0
-497 -593 -546 0
-497 -593 -547 0
-497 -593 -548 0
-497 -593 -558 0
-497 -593 -559 0
-497 -593 -560 0
-497 -593 -562 0
-497 -593 -563 0
-497 -593 -564 0
-497 -593 -566 0
-497 -593 -567 0
-497 -593 -568 0
-498 581 0
-498 593 523 524 543 544 547 548 559 560 563 564 567 568 0
-498 -593 -523 0
-498 -593 -524 0
-498 -593 -543 0
-498 -593 -544 0
-498 -593 -547 0
-498 -593 -548 0
-498 -593 -559 0
-498 -593 -560 0
-498 -593 -563 0
-498 -593 -564 0
-498 -593 -567 0
-498 -593 -568 0
-499 582 0
-499 593 524 544 548 560 564 568 0
-499 -593 -524 0
-499 -593 -544 0
-499 -593 -548 0
-499 -593 -560 0
-499 -593 -564 0
-499 -593 -568 0
-500 583 0
-500 593 0
-501 593 526 527 528 546 547 548 550 551 552 562 563 564 566 567 568 0
-501 -593 -526 0
-501 -593 -527 0
-501 -593 -528 0
-501 -593 -546 0
-501 -593 -547 0
-501 -593 -548 0
-501 -593 -550 0
-501 -593 -551 0
-501 -593 -552 0
-501 -593 -562 0
-501 -593 -563 0
-501 -593 -564 0
-501 -593 -566 0
-501 -593 -567 0
-501 -593 -568 0
-502 585 0
-502 593 527 528 547 548 551 552 563 564 567 568 0
-502 -593 -527 0
-502 -593 -528 0
-502 -593 -547 0
-502 -593 -548 0
-502 -593 -551 0
-502 -593 -552 0
-502 -593 -563 0
-502 -593 -564 0
-502 -593 -567 0
-502 -593 -568 0
-503 586 0
-503 593 528 548 552 564 568 0
-503 -593 -528 0
-503 -593 -548 0
-503 -593 -552 0
-503 -593 -564 0
-503 -593 -568 0
-504 587 0
-504 593 0
-505 593 530 531 532 550 551 552 566 567 568 0
-505 -593 -530 0
-505 -593 -531 0
-505 -593 -532 0
-505 -593 -550 0
-505 -593 -551 0
-505 -593 -552 0
-505 -593 -566 0
-505 -593 -567 0
-505 -593 -568 0
-506 589 0
-506 593 531 532 551 552 567 568 0
-506 -593 -531 0
-506 -593 -532 0
-506 -593 -551 0
-506 -593 -552 0
-506 -593 -567 0
-506 -593 -568 0
-507 590 0
-507 593 532 552 568 0
-507 -593 -532 0
-507 -593 -552 0
-507 -593 -568 0
-508 591 0
-508 593 0
-509 594 486 487 488 534 535 536 554 555 556 0
-509 -594 -486 0
-509 -594 -487 0
-509 -594 -488 0
-509 -594 -534 0
-509 -594 -535 0
-509 -594 -536 0
-509 -594 -554 0
-509 -594 -555 0
-509 -594 -556 0
-510 569 0
-510 594 487 488 535 536 555 556 0
-510 -594 -487 0
-510 -594 -488 0
-510 -594 -535 0
-510 -594 -536 0
-510 -594 -555 0
-510 -594 -556 0
-511 570 0
-511 594 488 536 556 0
-511 -594 -488 0
-511 -594 -536 0
-511 -594 -556 0
-512 571 0
-512 594 0
-513 594 490 491 492 534 535 536 538 539 540 554 555 556 558 559 560 0
-513 -594 -490 0
-513 -594 -491 0
-513 -594 -492 0
-513 -594 -534 0
-513 -594 -535 0
-513 -594 -536 0
-513 -594 -538 0
-513 -594 -539 0
-513 -594 -540 0
-513 -594 -554 0
-513 -594 -555 0
-513 -594 -556 0
-513 -594 -558 0
-513 -594 -559 0
-513 -594 -560 0
-514 573 0
-514 594 491 492 535 536 539 540 555 556 559 560 0
-514 -594 -491 0
-514 -594 -492 0
-514 -594 -535 0
-514 -594 -536 0
-514 -594 -539 0
-514 -594 -540 0
-514 -594 -555 0
-514 -594 -556 0
-514 -594 -559 0
-514 -594 -560 0
-515 574 0
-515 594 492 536 540 556 560 0
-515 -594 -492 0
-515 -594 -536 0
-515 -594 -540 0
-515 -594 -556 0
-515 -594 -560 0
-516 575 0
-516 594 0
-517 594 494 495 496 538 539 540 542 543 544 554 555 556 558 559 560 562 563 564 0
-517 -594 -494 0
-517 -594 -495 0
-517 -594 -496 0
-517 -594 -538 0
-517 -594 -539 0
-517 -594 -540 0
-517 -594 -542 0
-517 -594 -543 0
-517 -594 -544 0
-517 -594 -554 0
-517 -594 -555 0
-517 -594 -556 0
-517 -594 -558 0
-517 -594 -559 0
-517 -594 -560 0
-517 -594 -562 0
-517 -594 -563 0
-517 -594 -564 0
-518 577 0
-518 594 495 496 539 540 543 544 555 556 559 560 563 564 0
-518 -594 -495 0
-518 -594 -496 0
-518 -594 -539 0
-518 -594 -540 0
-518 -594 -543 0
-518 -594 -544 0
-518 -594 -555 0
-518 -594 -556 0
-518 -594 -559 0
-518 -594 -560 0
-518 -594 -563 0
-518 -594 -564 0
-519 578 0
-519 594 496 540 544 556 560 564 0
-519 -594 -496 0
-519 -594 -540 0
-519 -594 -544 0
-519 -594 -556 0
-519 -594 -560 0
-519 -594 -564 0
-520 579 0
-520 594 0
-521 594 498 499 500 542 543 544 546 547 548 558 559 560 562 563 564 566 567 568 0
-521 -594 -498 0
-521 -594 -499 0
-521 -594 -500 0
-521 -594 -542 0
-521 -594 -543 0
-521 -594 -544 0
-521 -594 -546 0
-521 -594 -547 0
-521 -594 -548 0
-521 -594 -558 0
-521 -594 -559 0
-521 -594 -560 0
-521 -594 -562 0
-521 -594 -563 0
-521 -594 -564 0
-521 -594 -566 0
-521 -594 -567 0
-521 -594 -568 0
-522 581 0
-522 594 499 500 543 544 547 548 559 560 563 564 567 568 0
-522 -594 -499 0
-522 -594 -500 0
-522 -594 -543 0
-522 -594 -544 0
-522 -594 -547 0
-522 -594 -548 0
-522 -594 -559 0
-522 -594 -560 0
-522 -594 -563 0
-522 -594 -564 0
-522 -594 -567 0
-522 -594 -568 0
-523 582 0
-523 594 500 544 548 560 564 568 0
-523 -594 -500 0
-523 -594 -544 0
-523 -594 -548 0
-523 -594 -560 0
-523 -594 -564 0
-523 -594 -568 0
-524 583 0
-524 594 0
-525 594 502 503 504 546 547 548 550 551 552 562 563 564 566 567 568 0
-525 -594 -502 0
-525 -594 -503 0
-525 -594 -504 0
-525 -594 -546 0
-525 -594 -547 0
-525 -594 -548 0
-525 -594 -550 0
-525 -594 -551 0
-525 -594 -552 0
-525 -594 -562 0
-525 -594 -563 0
-525 -594 -564 0
-525 -594 -566 0
-525 -594 -567 0
-525 -594 -568 0
-526 585 0
-526 594 503 504 547 548 551 552 563 564 567 568 0
-526 -594 -503 0
-526 -594 -504 0
-526 -594 -547 0
-526 -594 -548 0
-526 -594 -551 0
-526 -594 -552 0
-526 -594 -563 0
-526 -594 -564 0
-526 -594 -567 0
-526 -594 -568 0
-527 586 0
-527 594 504 548 552 564 568 0
-527 -594 -504 0
-527 -594 -548 0
-527 -594 -552 0
-527 -594 -564 0
-527 -594 -568 0
-528 587 0
-528 594 0
-529 594 506 507 508 550 551 552 566 567 568 0
-529 -594 -506 0
-529 -594 -507 0
-529 -594 -508 0
-529 -594 -550 0
-529 -594 -551 0
-529 -594 -552 0
-529 -594 -566 0
-529 -594 -567 0
-529 -594 -568 0
-530 589 0
-530 594 507 508 551 552 567 568 0
-530 -594 -507 0
-530 -594 -508 0
-530 -594 -551 0
-530 -594 -552 0
-530 -594 -567 0
-530 -594 -568 0
-531 590 0
-531 594 508 552 568 0
-531 -594 -508 0
-531 -594 -552 0
-531 -594 -568 0
-532 591 0
-532 594 0
-533 595 486 487 488 490 491 492 510 511 512 514 515 516 554 555 556 558 559 560 0
-533 -595 -486 0
-533 -595 -487 0
-533 -595 -488 0
-533 -595 -490 0
-533 -595 -491 0
-533 -595 -492 0
-533 -595 -510 0
-533 -595 -511 0
-533 -595 -512 0
-533 -595 -514 0
-533 -595 -515 0
-533 -595 -516 0
-533 -595 -554 0
-533 -595 -555 0
-533 -595 -556 0
-533 -595 -558 0
-533 -595 -559 0
-533 -595 -560 0
-534 569 573 0
-534 595 487 488 491 492 511 512 515 516 555 556 559 560 0
-534 -595 -487 0
-534 -595 -488 0
-534 -595 -491 0
-534 -595 -492 0
-534 -595 -511 0
-534 -595 -512 0
-534 -595 -515 0
-534 -595 -516 0
-534 -595 -555 0
-534 -595 -556 0
-534 -595 -559 0
-534 -595 -560 0
-535 570 574 0
-535 595 488 492 512 516 556 560 0
-535 -595 -488 0
-535 -595 -492 0
-535 -595 -512 0
-535 -595 -516 0
-535 -595 -556 0
-535 -595 -560 0
-536 571 575 0
-536 595 0
-537 595 490 491 492 494 495 496 514 515 516 518 519 520 554 555 556 558 559 560 562 563 564 0
-537 -595 -490 0
-537 -595 -491 0
-537 -595 -492 0
-537 -595 -494 0
-537 -595 -495 0
-537 -595 -496 0
-537 -595 -514 0
-537 -595 -515 0
-537 -595 -516 0
-537 -595 -518 0
-537 -595 -519 0
-537 -595 -520 0
-537 -595 -554 0
-537 -595 -555 0
-537 -595 -556 0
-537 -595 -558 0
-537 -595 -559 0
-537 -595 -560 0
-537 -595 -562 0
-537 -595 -563 0
-537 -595 -564 0
-538 573 577 0
-538 595 491 492 495 496 515 516 519 520 555 556 559 560 563 564 0
-538 -595 -491 0
-538 -595 -492 0
-538 -595 -495 0
-538 -595 -496 0
-538 -595 -515 0
-538 -595 -516 0
-538 -595 -519 0
-538 -595 -520 0
-538 -595 -555 0
-538 -595 -556 0
-538 -595 -559 0
-538 -595 -560 0
-538 -595 -563 0
-538 -595 -564 0
-539 574 578 0
-539 595 492 496 516 520 556 560 564 0
-539 -595 -492 0
-539 -595 -496 0
-539 -595 -516 0
-539 -595 -520 0
-539 -595 -556 0
-539 -595 -560 0
-539 -595 -564 0
-540 575 579 0
-540 595 0
-541 595 494 495 496 498 499 500 518 519 520 522 523 524 554 555 556 558 559 560 562 563 564 566 567 568 0
-541 -595 -494 0
-541 -595 -495 0
-541 -595 -496 0
-541 -595 -498 0
-541 -595 -499 0
-541 -595 -500 0
-541 -595 -518 0
-541 -595 -519 0
-541 -595 -520 0
-541 -595 -522 0
-541 -595 -523 0
-541 -595 -524 0
-541 -595 -554 0
-541 -595 -555 0
-541 -595 -556 0
-541 -595 -558 0
-541 -595 -559 0
-541 -595 -560 0
-541 -595 -562 0
-541 -595 -563 0
-541 -595 -564 0
-541 -595 -566 0
-541 -595 -567 0
-541 -595 -568 0
-542 577 581 0
-542 595 495 496 499 500 519 520 523 524 555 556 559 560 563 564 567 568 0
-542 -595 -495 0
-542 -595 -496 0
-542 -595 -499 0
-542 -595 -500 0
-542 -595 -519 0
-542 -595 -520 0
-542 -595 -523 0
-542 -595 -524 0
-542 -595 -555 0
-542 -595 -556 0
-542 -595 -559 0
-542 -595 -560 0
-542 -595 -563 0
-542 -595 -564 0
-542 -595 -567 0
-542 -595 -568 0
-543 578 582 0
-543 595 496 500 520 524 556 560 564 568 0
-543 -595 -496 0
-543 -595 -500 0
-543 -595 -520 0
-543 -595 -524 0
-543 -595 -556 0
-543 -595 -560 0
-543 -595 -564 0
-543 -595 -568 0
-544 579 583 0
-544 595 0
-545 595 498 499 500 502 503 504 522 523 524 526 527 528 558 559 560 562 563 564 566 567 568 0
-545 -595 -498 0
-545 -595 -499 0
-545 -595 -500 0
-545 -595 -502 0
-545 -595 -503 0
-545 -595 -504 0
-545 -595 -522 0
-545 -595 -523 0
-545 -595 -524 0
-545 -595 -526 0
-545 -595 -527 0
-545 -595 -528 0
-545 -595 -558 0
-545 -595 -559 0
-545 -595 -560 0
-545 -595 -562 0
-545 -595 -563 0
-545 -595 -564 0
-545 -595 -566 0
-545 -595 -567 0
-545 -595 -568 0
-546 581 585 0
-546 595 499 500 503 504 523 524 527 528 559 560 563 564 567 568 0
-546 -595 -499 0
-546 -595 -500 0
-546 -595 -503 0
-546 -595 -504 0
-546 -595 -523 0
-546 -595 -524 0
-546 -595 -527 0
-546 -595 -528 0
-546 -595 -559 0
-546 -595 -560 0
-546 -595 -563 0
-546 -595 -564 0
-546 -595 -567 0
-546 -595 -568 0
-547 582 586 0
-547 595 500 504 524 528 560 564 568 0
-547 -595 -500 0
-547 -595 -504 0
-547 -595 -524 0
-547 -595 -528 0
-547 -595 -560 0
-547 -595 -564 0
-547 -595 -568 0
-548 583 587 0
-548 595 0
-549 595 502 503 504 506 507 508 526 527 528 530 531 532 562 563 564 566 567 568 0
-549 -595 -502 0
-549 -595 -503 0
-549 -595 -504 0
-549 -595 -506 0
-549 -595 -507 0
-549 -595 -508 0
-549 -595 -526 0
-549 -595 -527 0
-549 -595 -528 0
-549 -595 -530 0
-549 -595 -531 0
-549 -595 -532 0
-549 -595 -562 0
-549 -595 -563 0
-549 -595 -564 0
-549 -595 -566 0
-549 -595 -567 0
-549 -595 -568 0
-550 585 589 0
-550 595 503 504 507 508 527 528 531 532 563 564 567 568 0
-550 -595 -503 0
-550 -595 -504 0
-550 -595 -507 0
-550 -595 -508 0
-550 -595 -527 0
-550 -595 -528 0
-550 -595 -531 0
-550 -595 -532 0
-550 -595 -563 0
-550 -595 -564 0
-550 -595 -567 0
-550 -595 -568 0
-551 586 590 0
-551 595 504 508 528 532 564 568 0
-551 -595 -504 0
-551 -595 -508 0
-551 -595 -528 0
-551 -595 -532 0
-551 -595 -564 0
-551 -595 -568 0
-552 587 591 0
-552 595 0
-553 596 486 487 488 490 491 492 494 495 496 510 511 512 514 515 516 518 519 520 534 535 536 538 539 540 542 543 544 0
-553 -596 -486 0
-553 -596 -487 0
-553 -596 -488 0
-553 -596 -490 0
-553 -596 -491 0
-553 -596 -492 0
-553 -596 -494 0
-553 -596 -495 0
-553 -596 -496 0
-553 -596 -510 0
-553 -596 -511 0
-553 -596 -512 0
-553 -596 -514 0
-553 -596 -515 0
-553 -596 -516 0
-553 -596 -518 0
-553 -596 -519 0
-553 -596 -520 0
-553 -596 -534 0
-553 -596 -535 0
-553 -596 -536 0
-553 -596 -538 0
-553 -596 -539 0
-553 -596 -540 0
-553 -596 -542 0
-553 -596 -543 0
-553 -596 -544 0
-554 569 573 0
-554 569 577 0
-554 573 577 0
-554 596 487 488 491 492 495 496 511 512 515 516 519 520 535 536 539 540 543 544 0
-554 -596 -487 0
-554 -596 -488 0
-554 -596 -491 0
-554 -596 -492 0
-554 -596 -495 0
-554 -596 -496 0
-554 -596 -511 0
-554 -596 -512 0
-554 -596 -515 0
-554 -596 -516 0
-554 -596 -519 0
-554 -596 -520 0
-554 -596 -535 0
-554 -596 -536 0
-554 -596 -539 0
-554 -596 -540 0
-554 -596 -543 0
-554 -596 -544 0
-555 570 574 0
-555 570 578 0
-555 574 578 0
-555 596 488 492 496 512 516 520 536 540 544 0
-555 -596 -488 0
-555 -596 -492 0
-555 -596 -496 0
-555 -596 -512 0
-555 -596 -516 0
-555 -596 -520 0
-555 -596 -536 0
-555 -596 -540 0
-555 -596 -544 0
-556 571 575 0
-556 571 579 0
-556 575 579 0
-556 596 0
-557 596 490 491 492 494 495 496 498 499 500 514 515 516 518 519 520 522 523 524 534 535 536 538 539 540 542 543 544 546 547 548 0
-557 -596 -490 0
-557 -596 -491 0
-557 -596 -492 0
-557 -596 -494 0
-557 -596 -495 0
-557 -596 -496 0
-557 -596 -498 0
-557 -596 -499 0
-557 -596 -500 0
-557 -596 -514 0
-557 -596 -515 0
-557 -596 -516 0
-557 -596 -518 0
-557 -596 -519 0
-557 -596 -520 0
-557 -596 -522 0
-557 -596 -523 0
-557 -596 -524 0
-557 -596 -534 0
-557 -596 -535 0
-557 -596 -536 0
-557 -596 -538 0
-557 -596 -539 0
-557 -596 -540 0
-557 -596 -542 0
-557 -596 -543 0
-557 -596 -544 0
-557 -596 -546 0
-557 -596 -547 0
-557 -596 -548 0
-558 573 577 0
-558 573 581 0
-558 577 581 0
-558 596 491 492 495 496 499 500 515 516 519 520 523 524 535 536 539 540 543 544 547 548 0
-558 -596 -491 0
-558 -596 -492 0
-558 -596 -495 0
-558 -596 -496 0
-558 -596 -499 0
-558 -596 -500 0
-558 -596 -515 0
-558 -596 -516 0
-558 -596 -519 0
-558 -596 -520 0
-558 -596 -523 0
-558 -596 -524 0
-558 -596 -535 0
-558 -596 -536 0
-558 -596 -539 0
-558 -596 -540 0
-558 -596 -543 0
-558 -596 -544 0
-558 -596 -547 0
-558 -596 -548 0
-559 574 578 0
-559 574 582 0
-559 578 582 0
-559 596 492 496 500 516 520 524 536 540 544 548 0
-559 -596 -492 0
-559 -596 -496 0
-559 -596 -500 0
-559 -596 -516 0
-559 -596 -520 0
-559 -596 -524 0
-559 -596 -536 0
-559 -596 -540 0
-559 -596 -544 0
-559 -596 -548 0
-560 575 579 0
-560 575 583 0
-560 579 583 0
-560 596 0
-561 596 494 495 496 498 499 500 502 503 504 518 519 520 522 523 524 526 527 528 538 539 540 542 543 544 546 547 548 550 551 552 0
-561 -596 -494 0
-561 -596 -495 0
-561 -596 -496 0
-561 -596 -498 0
-561 -596 -499 0
-561 -596 -500 0
-561 -596 -502 0
-561 -596 -503 0
-561 -596 -504 0
-561 -596 -518 0
-561 -596 -519 0
-561 -596 -520 0
-561 -596 -522 0
-561 -596 -523 0
-561 -596 -524 0
-561 -596 -526 0
-561 -596 -527 0
-561 -596 -528 0
-561 -596 -538 0
-561 -596 -539 0
-561 -596 -540 0
-561 -596 -542 0
-561 -596 -543 0
-561 -596 -544 0
-561 -596 -546 0
-561 -596 -547 0
-561 -596 -548 0
-561 -596 -550 0
-561 -596 -551 0
-561 -596 -552 0
-562 577 581 0
-562 577 585 0
-562 581 585 0
-562 596 495 496 499 500 503 504 519 520 523 524 527 528 539 540 543 544 547 548 551 552 0
-562 -596 -495 0
-562 -596 -496 0
-562 -596 -499 0
-562 -596 -500 0
-562 -596 -503 0
-562 -596 -504 0
-562 -596 -519 0
-562 -596 -520 0
-562 -596 -523 0
-562 -596 -524 0
-562 -596 -527 0
-562 -596 -528 0
-562 -596 -539 0
-562 -596 -540 0
-562 -596 -543 0
-562 -596 -544 0
-562 -596 -547 0
-562 -596 -548 0
-562 -596 -551 0
-562 -596 -552 0
-563 578 582 0
-563 578 586 0
-563 582 586 0
-563 596 496 500 504 520 524 528 540 544 548 552 0
-563 -596 -496 0
-563 -596 -500 0
-563 -596 -504 0
-563 -596 -520 0
-563 -596 -524 0
-563 -596 -528 0
-563 -596 -540 0
-563 -596 -544 0
-563 -596 -548 0
-563 -596 -552 0
-564 579 583 0
-564 579 587 0
-564 583 587 0
-564 596 0
-565 596 498 499 500 502 503 504 506 507 508 522 523 524 526 527 528 530 531 532 542 543 544 546 547 548 550 551 552 0
-565 -596 -498 0
-565 -596 -499 0
-565 -596 -500 0
-565 -596 -502 0
-565 -596 -503 0
-565 -596 -504 0
-565 -596 -506 0
-565 -596 -507 0
-565 -596 -508 0
-565 -596 -522 0
-565 -596 -523 0
-565 -596 -524 0
-565 -596 -526 0
-565 -596 -527 0
-565 -596 -528 0
-565 -596 -530 0
-565 -596 -531 0
-565 -596 -532 0
-565 -596 -542 0
-565 -596 -543 0
-565 -596 -544 0
-565 -596 -546 0
-565 -596 -547 0
-565 -596 -548 0
-565 -596 -550 0
-565 -596 -551 0
-565 -596 -552 0
-566 581 585 0
-566 581 589 0
-566 585 589 0
-566 596 499 500 503 504 507 508 523 524 527 528 531 532 543 544 547 548 551 552 0
-566 -596 -499 0
-566 -596 -500 0
-566 -596 -503 0
-566 -596 -504 0
-566 -596 -507 0
-566 -596 -508 0
-566 -596 -523 0
-566 -596 -524 0
-566 -596 -527 0
-566 -596 -528 0
-566 -596 -531 0
-566 -596 -532 0
-566 -596 -543 0
-566 -596 -544 0
-566 -596 -547 0
-566 -596 -548 0
-566 -596 -551 0
-566 -596 -552 0
-567 582 586 0
-567 582 590 0
-567 586 590 0
-567 596 500 504 508 524 528 532 544 548 552 0
-567 -596 -500 0
-567 -596 -504 0
-567 -596 -508 0
-567 -596 -524 0
-567 -596 -528 0
-567 -596 -532 0
-567 -596 -544 0
-567 -596 -548 0
-567 -596 -552 0
-568 583 587 0
-568 583 591 0
-568 587 591 0
-568 596 0
4 0
7 0
16 0
17 0
21 0
26 0
33 0
35 0
453 0
455 0
463 0
464 0
468 0
473 0
479 0
481 0
597 598 599 600 601 602 603 604 605 606 607 608 609 610 611 612 613 614 615 616 617 618 619 620 621 622 623 624 625 626 627 628 629 630 631 632 633 634 635 636 637 638 639 640 641 642 643 644 645 646 647 648 649 650 651 652 653 654 655 656 657 658 659 660 661 662 663 664 665 666 667 668 669 670 671 672 673 674 675 676 677 678 679 680 0
-597 -598 0
-597 -599 0
-597 -600 0
-597 -601 0
-597 -602 0
-597 -603 0
-597 -604 0
-597 -605 0
-597 -606 0
-597 -607 0
-597 -608 0
-597 -609 0
-597 -610 0
-597 -611 0
-597 -612 0
-597 -613 0
-597 -614 0
-597 -615 0
-597 -616 0
-597 -617 0
-597 -618 0
-597 -619 0
-597 -620 0
-597 -621 0
-597 -622 0
-597 -623 0
-597 -624 0
-597 -625 0
-597 -626 0
-597 -627 0
-597 -628 0
-597 -629 0
-597 -630 0
-597 -631 0
-597 -632 0
-597 -633 0
-597 -634 0
-597 -635 0
-597 -636 0
-597 -637 0
-597 -638 0
-597 -639 0
-597 -640 0
-597 -641 0
-597 -642 0
-597 -643 0
-597 -644 0
-597 -645 0
-597 -646 0
-597 -647 0
-597 -648 0
-597 -649 0
-597 -650 0
-597 -651 0
-597 -652 0
-597 -653 0
-597 -654 0
-597 -655 0
-597 -656 0
-597 -657 0
-597 -658 0
-597 -659 0
-597 -660 0
-597 -661 0
-597 -662 0
-597 -663 0
-597 -664 0
-597 -665 0
-597 -666 0
-597 -667 0
-597 -668 0
-597 -669 0
-597 -670 0
-597 -671 0
-597 -672 0
-597 -673 0
-597 -674 0
-597 -675 0
-597 -676 0
-597 -677 0
-597 -678 0
-597 -679 0
-597 -680 0
-598 -599 0
-598 -600 0
-598 -601 0
-598 -602 0
-598 -603 0
-598 -604 0
-598 -605 0
-598 -606 0
-598 -607 0
-598 -608 0
-598 -609 0
-598 -610 0
-598 -611 0
-598 -612 0
-598 -613 0
-598 -614 0
-598 -615 0
-598 -616 0
-598 -617 0
-598 -618 0
-598 -619 0
-598 -620 0
-598 -621 0
-598 -622 0
-598 -623 0
-598 -624 0
-598 -625 0
-598 -626 0
-598 -627 0
-598 -628 0
-598 -629 0
-598 -630 0
-598 -631 0
-598 -632 0
-598 -633 0
-598 -634 0
-598 -635 0
-598 -636 0
-598 -637 0
-598 -638 0
-598 -639 0
-598 -640 0
-598 -641 0
-598 -642 0
-598 -643 0
-598 -644 0
-598 -645 0
-598 -646 0
-598 -647 0
-598 -648 0
-598 -649 0
-598 -650 0
-598 -651 0
-598 -652 0
-598 -653 0
-598 -654 0
-598 -655 0
-598 -656 0
-598 -657 0
-598 -658 0
-598 -659 0
-598 -660 0
-598 -661 0
-598 -662 0
-598 -663 0
-598 -664 0
-598 -665 0
-598 -666 0
-598 -667 0
-598 -668 0
-598 -669 0
-598 -670 0
-598 -671 0
-598 -672 0
-598 -673 0
-598 -674 0
-598 -675 0
-598 -676 0
-598 -677 0
-598 -678 0
-598 -679 0
-598 -680 0
-599 -600 0
-599 -601 0
-599 -602 0
-599 -603 0
-599 -604 0
-599 -605 0
-599 -606 0
-599 -607 0
-599 -608 0
-599 -609 0
-599 -610 0
-599 -611 0
-599 -612 0
-599 -613 0
-599 -614 0
-599 -615 0
-599 -616 0
-599 -617 0
-599 -618 0
-599 -619 0
-599 -620 0
-599 -621 0
-599 -622 0
-599 -623 0
-599 -624 0
-599 -625 0
-599 -626 0
-599 -627 0
-599 -628 0
-599 -629 0
-599 -630 0
-599 -631 0
-599 -632 0
-599 -633 0
-599 -634 0
-599 -635 0
-599 -636 0
-599 -637 0
-599 -638 0
-599 -639 0
-599 -640 0
-599 -641 0
-599 -642 0
-599 -643 0
-599 -644 0
-599 -645 0
-599 -646 0
-599 -647 0
-599 -648 0
-599 -649 0
-599 -650 0
-599 -651 0
-599 -652 0
-599 -653 0
-599 -654 0
-599 -655 0
-599 -656 0
-599 -657 0
-599 -658 0
-599 -659 0
-599 -660 0
-599 -661 0
-599 -662 0
-599 -663 0
-599 -664 0
-599 -665 0
-599 -666 0
-599 -667 0
-599 -668 0
-599 -669 0
-599 -670 0
-599 -671 0
-599 -672 0
-599 -673 0
-599 -674 0
-599 -675 0
-599 -676 0
-599 -677 0
-599 -678 0
-599 -679 0
-599 -680 0
-600 -601 0
-600 -602 0
-600 -603 0
-600 -604 0
-600 -605 0
-600 -606 0
-600 -607 0
-600 -608 0
-600 -609 0
-600 -610 0
-600 -611 0
-600 -612 0
-600 -613 0
-600 -614 0
-600 -615 0
-600 -616 0
-600 -617 0
-600 -618 0
-600 -619 0
-600 -620 0
-600 -621 0
-600 -622 0
-600 -623 0
-600 -624 0
-600 -625 0
-600 -626 0
-600 -627 0
-600 -628 0
-600 -629 0
-600 -630 0
-600 -631 0
-600 -632 0
-600 -633 0
-600 -634 0
-600 -635 0
-600 -636 0
-600 -637 0
-600 -638 0
-600 -639 0
-600 -640 0
-600 -641 0
-600 -642 0
-600 -643 0
-600 -644 0
-600 -645 0
-600 -646 0
-600 -647 0
-600 -648 0
-600 -649 0
-600 -650 0
-600 -651 0
-600 -652 0
-600 -653 0
-600 -654 0
-600 -655 0
-600 -656 0
-600 -657 0
-600 -658 0
-600 -659 0
-600 -660 0
-600 -661 0
-600 -662 0
-600 -663 0
-600 -664 0
-600 -665 0
-600 -666 0
-600 -667 0
-600 -668 0
-600 -669 0
-600 -670 0
-600 -671 0
-600 -672 0
-600 -673 0
-600 -674 0
-600 -675 0
-600 -676 0
-600 -677 0
-600 -678 0
-600 -679 0
-600 -680 0
-601 -602 0
-601 -603 0
-601 -604 0
-601 -605 0
-601 -606 0
-601 -607 0
-601 -608 0
-601 -609 0
-601 -610 0
-601 -611 0
-601 -612 0
-601 -613 0
-601 -614 0
-601 -615 0
-601 -616 0
-601 -617 0
-601 -618 0
-601 -619 0
-601 -620 0
-601 -621 0
-601 -622 0
-601 -623 0
-601 -624 0
-601 -625 0
-601 -626 0
-601 -627 0
-601 -628 0
-601 -629 0
-601 -630 0
-601 -631 0
-601 -632 0
-601 -633 0
-601 -634 0
-601 -635 0
-601 -636 0
-601 -637 0
-601 -638 0
-601 -639 0
-601 -640 0
-601 -641 0
-601 -642 0
-601 -643 0
-601 -644 0
-601 -645 0
-601 -646 0
-601 -647 0
-601 -648 0
-601 -649 0
-601 -650 0
-601 -651 0
-601 -652 0
-601 -653 0
-601 -654 0
-601 -655 0
-601 -656 0
-601 -657 0
-601 -658 0
-601 -659 0
-601 -660 0
-601 -661 0
-601 -662 0
-601 -663 0
-601 -664 0
-601 -665 0
-601 -666 0
-601 -667 0
-601 -668 0
-601 -669 0
-601 -670 0
-601 -671 0
-601 -672 0
-601 -673 0
-601 -674 0
-601 -675 0
-601 -676 0
-601 -677 0
-601 -678 0
-601 -679 0
-601 -680 0
-602 -603 0
-602 -604 0
-602 -605 0
-602 -606 0
-602 -607 0
-602 -608 0
-602 -609 0
-602 -610 0
-602 -611 0
-602 -612 0
-602 -613 0
-602 -614 0
-602 -615 0
-602 -616 0
-602 -617 0
-602 -618 0
-602 -619 0
-602 -620 0
-602 -621 0
-602 -622 0
-602 -623 0
-602 -624 0
-602 -625 0
-602 -626 0
-602 -627 0
-602 -628 0
-602 -629 0
-602 -630 0
-602 -631 0
-602 -632 0
-602 -633 0
-602 -634 0
-602 -635 0
-602 -636 0
-602 -637 0
-602 -638 0
-602 -639 0
-602 -640 0
-602 -641 0
-602 -642 0
-602 -643 0
-602 -644 0
-602 -645 0
-602 -646 0
-602 -647 0
-602 -648 0
-602 -649 0
-602 -650 0
-602 -651 0
-602 -652 0
-602 -653 0
-602 -654 0
-602 -655 0
-602 -656 0
-602 -657 0
-602 -658 0
-602 -659 0
-602 -660 0
-602 -661 0
-602 -662 0
-602 -663 0
-602 -664 0
-602 -665 0
-602 -666 0
-602 -667 0
-602 -668 0
-602 -669 0
-602 -670 0
-602 -671 0
-602 -672 0
-602 -673 0
-602 -674 0
-602 -675 0
-602 -676 0
-602 -677 0
-602 -678 0
-602 -679 0
-602 -680 0
-603 -604 0
-603 -605 0
-603 -606 0
-603 -607 0
-603 -608 0
-603 -609 0
-603 -610 0
-603 -611 0
-603 -612 0
-603 -613 0
-603 -614 0
-603 -615 0
-603 -616 0
-603 -617 0
-603 -618 0
-603 -619 0
-603 -620 0
-603 -621 0
-603 -622 0
-603 -623 0
-603 -624 0
-603 -625 0
-603 -626 0
-603 -627 0
-603 -628 0
-603 -629 0
-603 -630 0
-603 -631 0
-603 -632 0
-603 -633 0
-603 -634 0
-603 -635 0
-603 -636 0
-603 -637 0
-603 -638 0
-603 -639 0
-603 -640 0
-603 -641 0
-603 -642 0
-603 -643 0
-603 -644 0
-603 -645 0
-603 -646 0
-603 -647 0
-603 -648 0
-603 -649 0
-603 -650 0
-603 -651 0
-603 -652 0
-603 -653 0
-603 -654 0
-603 -655 0
-603 -656 0
-603 -657 0
-603 -658 0
-603 -659 0
-603 -660 0
-603 -661 0
-603 -662 0
-603 -663 0
-603 -664 0
-603 -665 0
-603 -666 0
-603 -667 0
-603 -668 0
-603 -669 0
-603 -670 0
-603 -671 0
-603 -672 0
-603 -673 0
-603 -674 0
-603 -675 0
-603 -676 0
-603 -677 0
-603 -678 0
-603 -679 0
-603 -680 0
-604 -605 0
-604 -606 0
-604 -607 0
-604 -608 0
-604 -609 0
-604 -610 0
-604 -611 0
-604 -612 0
-604 -613 0
-604 -614 0
-604 -615 0
-604 -616 0
-604 -617 0
-604 -618 0
-604 -619 0
-604 -620 0
-604 -621 0
-604 -622 0
-604 -623 0
-604 -624 0
-604 -625 0
-604 -626 0
-604 -627 0
-604 -628 0
-604 -629 0
-604 -630 0
-604 -631 0
-604 -632 0
-604 -633 0
-604 -634 0
-604 -635 0
-604 -636 0
-604 -637 0
-604 -638 0
-604 -639 0
-604 -640 0
-604 -641 0
-604 -642 0
-604 -643 0
-604 -644 0
-604 -645 0
-604 -646 0
-604 -647 0
-604 -648 0
-604 -649 0
-604 -650 0
-604 -651 0
-604 -652 0
-604 -653 0
-604 -654 0
-604 -655 0
-604 -656 0
-604 -657 0
-604 -658 0
-604 -659 0
-604 -660 0
-604 -661 0
-604 -662 0
-604 -663 0
-604 -664 0
-604 -665 0
-604 -666 0
-604 -667 0
-604 -668 0
-604 -669 0
-604 -670 0
-604 -671 0
-604 -672 0
-604 -673 0
-604 -674 0
-604 -675 0
-604 -676 0
-604 -677 0
-604 -678 0
-604 -679 0
-604 -680 0
-605 -606 0
-605 -607 0
-605 -608 0
-605 -609 0
-605 -610 0
-605 -611 0
-605 -612 0
-605 -613 0
-605 -614 0
-605 -615 0
-605 -616 0
-605 -617 0
-605 -618 0
-605 -619 0
-605 -620 0
-605 -621 0
-605 -622 0
-605 -623 0
-605 -624 0
-605 -625 0
-605 -626 0
-605 -627 0
-605 -628 0
-605 -629 0
-605 -630 0
-605 -631 0
-605 -632 0
-605 -633 0
-605 -634 0
-605 -635 0
-605 -636 0
-605 -637 0
-605 -638 0
-605 -639 0
-605 -640 0
-605 -641 0
-605 -642 0
-605 -643 0
-605 -644 0
-605 -645 0
-605 -646 0
-605 -647 0
-605 -648 0
-605 -649 0
-605 -650 0
-605 -651 0
-605 -652 0
-605 -653 0
-605 -654 0
-605 -655 0
-605 -656 0
-605 -657 0
-605 -658 0
-605 -659 0
-605 -660 0
-605 -661 0
-605 -662 0
-605 -663 0
-605 -664 0
-605 -665 0
-605 -666 0
-605 -667 0
-605 -668 0
-605 -669 0
-605 -670 0
-605 -671 0
-605 -672 0
-605 -673 0
-605 -674 0
-605 -675 0
-605 -676 0
-605 -677 0
-605 -678 0
-605 -679 0
-605 -680 0
-606 -607 0
-606 -608 0
-606 -609 0
-606 -610 0
-606 -611 0
-606 -612 0
-606 -613 0
-606 -614 0
-606 -615 0
-606 -616 0
-606 -617 0
-606 -618 0
-606 -619 0
-606 -620 0
-606 -621 0
-606 -622 0
-606 -623 0
-606 -624 0
-606 -625 0
-606 -626 0
-606 -627 0
-606 -628 0
-606 -629 0
-606 -630 0
-606 -631 0
-606 -632 0
-606 -633 0
-606 -634 0
-606 -635 0
-606 -636 0
-606 -637 0
-606 -638 0
-606 -639 0
-606 -640 0
-606 -641 0
-606 -642 0
-606 -643 0
-606 -644 0
-606 -645 0
-606 -646 0
-606 -647 0
-606 -648 0
-606 -649 0
-606 -650 0
-606 -651 0
-606 -652 0
-606 -653 0
-606 -654 0
-606 -655 0
-606 -656 0
-606 -657 0
-606 -658 0
-606 -659 0
-606 -660 0
-606 -661 0
-606 -662 0
-606 -663 0
-606 -664 0
-606 -665 0
-606 -666 0
-606 -667 0
-606 -668 0
-606 -669 0
-606 -670 0
-606 -671 0
-606 -672 0
-606 -673 0
-606 -674 0
-606 -675 0
-606 -676 0
-606 -677 0
-606 -678 0
-606 -679 0
-606 -680 0
-607 -608 0
-607 -609 0
-607 -610 0
-607 -611 0
-607 -612 0
-607 -613 0
-607 -614 0
-607 -615 0
-607 -616 0
-607 -617 0
-607 -618 0
-607 -619 0
-607 -620 0
-607 -621 0
-607 -622 0
-607 -623 0
-607 -624 0
-607 -625 0
-607 -626 0
-607 -627 0
-607 -628 0
-607 -629 0
-607 -630 0
-607 -631 0
-607 -632 0
-607 -633 0
-607 -634 0
-607 -635 0
-607 -636 0
-607 -637 0
-607 -638 0
-607 -639 0
-607 -640 0
-607 -641 0
-607 -642 0
-607 -643 0
-607 -644 0
-607 -645 0
-607 -646 0
-607 -647 0
-607 -648 0
-607 -649 0
-607 -650 0
-607 -651 0
-607 -652 0
-607 -653 0
-607 -654 0
-607 -655 0
-607 -656 0
-607 -657 0
-607 -658 0
-607 -659 0
-607 -660 0
-607 -661 0
-607 -662 0
-607 -663 0
-607 -664 0
-607 -665 0
-607 -666 0
-607 -667 0
-607 -668 0
-607 -669 0
-607 -670 0
-607 -671 0
-607 -672 0
-607 -673 0
-607 -674 0
-607 -675 0
-607 -676 0
-607 -677 0
-607 -678 0
-607 -679 0
-607 -680 0
-608 -609 0
-608 -610 0
-608 -611 0
-608 -612 0
-608 -613 0
-608 -614 0
-608 -615 0
-608 -616 0
-608 -617 0
-608 -618 0
-608 -619 0
-608 -620 0
-608 -621 0
-608 -622 0
-608 -623 0
-608 -624 0
-608 -625 0
-608 -626 0
-608 -627 0
-608 -628 0
-608 -629 0
-608 -630 0
-608 -631 0
-608 -632 0
-608 -633 0
-608 -634 0
-608 -635 0
-608 -636 0
-608 -637 0
-608 -638 0
-608 -639 0
-608 -640 0
-608 -641 0
-608 -642 0
-608 -643 0
-608 -644 0
-608 -645 0
-608 -646 0
-608 -647 0
-608 -648 0
-608 -649 0
-608 -650 0
-608 -651 0
-608 -652 0
-608 -653 0
-608 -654 0
-608 -655 0
-608 -656 0
-608 -657 0
-608 -658 0
-608 -659 0
-608 -660 0
-608 -661 0
-608 -662 0
-608 -663 0
-608 -664 0
-608 -665 0
-608 -666 0
-608 -667 0
-608 -668 0
-608 -669 0
-608 -670 0
-608 -671 0
-608 -672 0
-608 -673 0
-608 -674 0
-608 -675 0
-608 -676 0
-608 -677 0
-608 -678 0
-608 -679 0
-608 -680 0
-609 -610 0
-609 -611 0
-609 -612 0
-609 -613 0
-609 -614 0
-609 -615 0
-609 -616 0
-609 -617 0
-609 -618 0
-609 -619 0
-609 -620 0
-609 -621 0
-609 -622 0
-609 -623 0
-609 -624 0
-609 -625 0
-609 -626 0
-609 -627 0
-609 -628 0
-609 -629 0
-609 -630 0
-609 -631 0
-609 -632 0
-609 -633 0
-609 -634 0
-609 -635 0
-609 -636 0
-609 -637 0
-609 -638 0
-609 -639 0
-609 -640 0
-609 -641 0
-609 -642 0
-609 -643 0
-609 -644 0
-609 -645 0
-609 -646 0
-609 -647 0
-609 -648 0
-609 -649 0
-609 -650 0
-609 -651 0
-609 -652 0
-609 -653 0
-609 -654 0
-609 -655 0
-609 -656 0
-609 -657 0
-609 -658 0
-609 -659 0
-609 -660 0
-609 -661 0
-609 -662 0
-609 -663 0
-609 -664 0
-609 -665 0
-609 -666 0
-609 -667 0
-609 -668 0
-609 -669 0
-609 -670 0
-609 -671 0
-609 -672 0
-609 -673 0
-609 -674 0
-609 -675 0
-609 -676 0
-609 -677 0
-609 -678 0
-609 -679 0
-609 -680 0
-610 -611 0
-610 -612 0
-610 -613 0
-610 -614 0
-610 -615 0
-610 -616 0
-610 -617 0
-610 -618 0
-610 -619 0
-610 -620 0
-610 -621 0
-610 -622 0
-610 -623 0
-610 -624 0
-610 -625 0
-610 -626 0
-610 -627 0
-610 -628 0
-610 -629 0
-610 -630 0
-610 -631 0
-610 -632 0
-610 -633 0
-610 -634 0
-610 -635 0
-610 -636 0
-610 -637 0
-610 -638 0
-610 -639 0
-610 -640 0
-610 -641 0
-610 -642 0
-610 -643 0
-610 -644 0
-610 -645 0
-610 -646 0
-610 -647 0
-610 -648 0
-610 -649 0
-610 -650 0
-610 -651 0
-610 -652 0
-610 -653 0
-610 -654 0
-610 -655 0
-610 -656 0
-610 -657 0
-610 -658 0
-610 -659 0
-610 -660 0
-610 -661 0
-610 -662 0
-610 -663 0
-610 -664 0
-610 -665 0
-610 -666 0
-610 -667 0
-610 -668 0
-610 -669 0
-610 -670 0
-610 -671 0
-610 -672 0
-610 -673 0
-610 -674 0
-610 -675 0
-610 -676 0
-610 -677 0
-610 -678 0
-610 -679 0
-610 -680 0
-611 -612 0
-611 -613 0
-611 -614 0
-611 -615 0
-611 -616 0
-611 -617 0
-611 -618 0
-611 -619 0
-611 -620 0
-611 -621 0
-611 -622 0
-611 -623 0
-611 -624 0
-611 -625 0
-611 -626 0
-611 -627 0
-611 -628 0
-611 -629 0
-611 -630 0
-611 -631 0
-611 -632 0
-611 -633 0
-611 -634 0
-611 -635 0
-611 -636 0
-611 -637 0
-611 -638 0
-611 -639 0
-611 -640 0
-611 -641 0
-611 -642 0
-611 -643 0
-611 -644 0
-611 -645 0
-611 -646 0
-611 -647 0
-611 -648 0
-611 -649 0
-611 -650 0
-611 -651 0
-611 -652 0
-611 -653 0
-611 -654 0
-611 -655 0
-611 -656 0
-611 -657 0
-611 -658 0
-611 -659 0
-611 -660 0
-611 -661 0
-611 -662 0
-611 -663 0
-611 -664 0
-611 -665 0
-611 -666 0
-611 -667 0
-611 -668 0
-611 -669 0
-611 -670 0
-611 -671 0
-611 -672 0
-611 -673 0
-611 -674 0
-611 -675 0
-611 -676 0
-611 -677 0
-611 -678 0
-611 -679 0
-611 -680 0
-612 -613 0
-612 -614 0
-612 -615 0
-612 -616 0
-612 -617 0
-612 -618 0
-612 -619 0
-612 -620 0
-612 -621 0
-612 -622 0
-612 -623 0
-612 -624 0
-612 -625 0
-612 -626 0
-612 -627 0
-612 -628 0
-612 -629 0
-612 -630 0
-612 -631 0
-612 -632 0
-612 -633 0
-612 -634 0
-612 -635 0
-612 -636 0
-612 -637 0
-612 -638 0
-612 -639 0
-612 -640 0
-612 -641 0
-612 -642 0
-612 -643 0
-612 -644 0
-612 -645 0
-612 -646 0
-612 -647 0
-612 -648 0
-612 -649 0
-612 -650 0
-612 -651 0
-612 -652 0
-612 -653 0
-612 -654 0
-612 -655 0
-612 -656 0
-612 -657 0
-612 -658 0
-612 -659 0
-612 -660 0
-612 -661 0
-612 -662 0
-612 -663 0
-612 -664 0
-612 -665 0
-612 -666 0
-612 -667 0
-612 -668 0
-612 -669 0
-612 -670 0
-612 -671 0
-612 -672 0
-612 -673 0
-612 -674 0
-612 -675 0
-612 -676 0
-612 -677 0
-612 -678 0
-612 -679 0
-612 -680 0
-613 -614 0
-613 -615 0
-613 -616 0
-613 -617 0
-613 -618 0
-613 -619 0
-613 -620 0
-613 -621 0
-613 -622 0
-613 -623 0
-613 -624 0
-613 -625 0
-613 -626 0
-613 -627 0
-613 -628 0
-613 -629 0
-613 -630 0
-613 -631 0
-613 -632 0
-613 -633 0
-613 -634 0
-613 -635 0
-613 -636 0
-613 -637 0
-613 -638 0
-613 -639 0
-613 -640 0
-613 -641 0
-613 -642 0
-613 -643 0
-613 -644 0
-613 -645 0
-613 -646 0
-613 -647 0
-613 -648 0
-613 -649 0
-613 -650 0
-613 -651 0
-613 -652 0
-613 -653 0
-613 -654 0
-613 -655 0
-613 -656 0
-613 -657 0
-613 -658 0
-613 -659 0
-613 -660 0
-613 -661 0
-613 -662 0
-613 -663 0
-613 -664 0
-613 -665 0
-613 -666 0
-613 -667 0
-613 -668 0
-613 -669 0
-613 -670 0
-613 -671 0
-613 -672 0
-613 -673 0
-613 -674 0
-613 -675 0
-613 -676 0
-613 -677 0
-613 -678 0
-613 -679 0
-613 -680 0
-614 -615 0
-614 -616 0
-614 -617 0
-614 -618 0
-614 -619 0
-614 -620 0
-614 -621 0
-614 -622 0
-614 -623 0
-614 -624 0
-614 -625 0
-614 -626 0
-614 -627 0
-614 -628 0
-614 -629 0
-614 -630 0
-614 -631 0
-614 -632 0
-614 -633 0
-614 -634 0
-614 -635 0
-614 -636 0
-614 -637 0
-614 -638 0
-614 -639 0
-614 -640 0
-614 -641 0
-614 -642 0
-614 -643 0
-614 -644 0
-614 -645 0
-614 -646 0
-614 -647 0
-614 -648 0
-614 -649 0
-614 -650 0
-614 -651 0
-614 -652 0
-614 -653 0
-614 -654 0
-614 -655 0
-614 -656 0
-614 -657 0
-614 -658 0
-614 -659 0
-614 -660 0
-614 -661 0
-614 -662 0
-614 -663 0
-614 -664 0
-614 -665 0
-614 -666 0
-614 -667 0
-614 -668 0
-614 -669 0
-614 -670 0
-614 -671 0
-614 -672 0
-614 -673 0
-614 -674 0
-614 -675 0
-614 -676 0
-614 -677 0
-614 -678 0
-614 -679 0
-614 -680 0
-615 -616 0
-615 -617 0
-615 -618 0
-615 -619 0
-615 -620 0
-615 -621 0
-615 -622 0
-615 -623 0
-615 -624 0
-615 -625 0
-615 -626 0
-615 -627 0
-615 -628 0
-615 -629 0
-615 -630 0
-615 -631 0
-615 -632 0
-615 -633 0
-615 -634 0
-615 -635 0
-615 -636 0
-615 -637 0
-615 -638 0
-615 -639 0
-615 -640 0
-615 -641 0
-615 -642 0
-615 -643 0
-615 -644 0
-615 -645 0
-615 -646 0
-615 -647 0
-615 -648 0
-615 -649 0
-615 -650 0
-615 -651 0
-615 -652 0
-615 -653 0
-615 -654 0
-615 -655 0
-615 -656 0
-615 -657 0
-615 -658 0
-615 -659 0
-615 -660 0
-615 -661 0
-615 -662 0
-615 -663 0
-615 -664 0
-615 -665 0
-615 -666 0
-615 -667 0
-615 -668 0
-615 -669 0
-615 -670 0
-615 -671 0
-615 -672 0
-615 -673 0
-615 -674 0
-615 -675 0
-615 -676 0
-615 -677 0
-615 -678 0
-615 -679 0
-615 -680 0
-616 -617 0
-616 -618 0
-616 -619 0
-616 -620 0
-616 -621 0
-616 -622 0
-616 -623 0
-616 -624 0
-616 -625 0
-616 -626 0
-616 -627 0
-616 -628 0
-616 -629 0
-616 -630 0
-616 -631 0
-616 -632 0
-616 -633 0
-616 -634 0
-616 -635 0
-616 -636 0
-616 -637 0
-616 -638 0
-616 -639 0
-616 -640 0
-616 -641 0
-616 -642 0
-616 -643 0
-616 -644 0
-616 -645 0
-616 -646 0
-616 -647 0
-616 -648 0
-616 -649 0
-616 -650 0
-616 -651 0
-616 -652 0
-616 -653 0
-616 -654 0
-616 -655 0
-616 -656 0
-616 -657 0
-616 -658 0
-616 -659 0
-616 -660 0
-616 -661 0
-616 -662 0
-616 -663 0
-616 -664 0
-616 -665 0
-616 -666 0
-616 -667 0
-616 -668 0
-616 -669 0
-616 -670 0
-616 -671 0
-616 -672 0
-616 -673 0
-616 -674 0
-616 -675 0
-616 -676 0
-616 -677 0
-616 -678 0
-616 -679 0
-616 -680 0
-617 -618 0
-617 -619 0
-617 -620 0
-617 -621 0
-617 -622 0
-617 -623 0
-617 -624 0
-617 -625 0
-617 -626 0
-617 -627 0
-617 -628 0
-617 -629 0
-617 -630 0
-617 -631 0
-617 -632 0
-617 -633 0
-617 -634 0
-617 -635 0
-617 -636 0
-617 -637 0
-617 -638 0
-617 -639 0
-617 -640 0
-617 -641 0
-617 -642 0
-617 -643 0
-617 -644 0
-617 -645 0
-617 -646 0
-617 -647 0
-617 -648 0
-617 -649 0
-617 -650 0
-617 -651 0
-617 -652 0
-617 -653 0
-617 -654 0
-617 -655 0
-617 -656 0
-617 -657 0
-617 -658 0
-617 -659 0
-617 -660 0
-617 -661 0
-617 -662 0
-617 -663 0
-617 -664 0
-617 -665 0
-617 -666 0
-617 -667 0
-617 -668 0
-617 -669 0
-617 -670 0
-617 -671 0
-617 -672 0
-617 -673 0
-617 -674 0
-617 -675 0
-617 -676 0
-617 -677 0
-617 -678 0
-617 -679 0
-617 -680 0
-618 -619 0
-618 -620 0
-618 -621 0
-618 -622 0
-618 -623 0
-618 -624 0
-618 -625 0
-618 -626 0
-618 -627 0
-618 -628 0
-618 -629 0
-618 -630 0
-618 -631 0
-618 -632 0
-618 -633 0
-618 -634 0
-618 -635 0
-618 -636 0
-618 -637 0
-618 -638 0
-618 -639 0
-618 -640 0
-618 -641 0
-618 -642 0
-618 -643 0
-618 -644 0
-618 -645 0
-618 -646 0
-618 -647 0
-618 -648 0
-618 -649 0
-618 -650 0
-618 -651 0
-618 -652 0
-618 -653 0
-618 -654 0
-618 -655 0
-618 -656 0
-618 -657 0
-618 -658 0
-618 -659 0
-618 -660 0
-618 -661 0
-618 -662 0
-618 -663 0
-618 -664 0
-618 -665 0
-618 -666 0
-618 -667 0
-618 -668 0
-618 -669 0
-618 -670 0
-618 -671 0
-618 -672 0
-618 -673 0
-618 -674 0
-618 -675 0
-618 -676 0
-618 -677 0
-618 -678 0
-618 -679 0
-618 -680 0
-619 -620 0
-619 -621 0
-619 -622 0
-619 -623 0
-619 -624 0
-619 -625 0
-619 -626 0
-619 -627 0
-619 -628 0
-619 -629 0
-619 -630 0
-619 -631 0
-619 -632 0
-619 -633 0
-619 -634 0
-619 -635 0
-619 -636 0
-619 -637 0
-619 -638 0
-619 -639 0
-619 -640 0
-619 -641 0
-619 -642 0
-619 -643 0
-619 -644 0
-619 -645 0
-619 -646 0
-619 -647 0
-619 -648 0
-619 -649 0
-619 -650 0
-619 -651 0
-619 -652 0
-619 -653 0
-619 -654 0
-619 -655 0
-619 -656 0
-619 -657 0
-619 -658 0
-619 -659 0
-619 -660 0
-619 -661 0
-619 -662 0
-619 -663 0
-619 -664 0
-619 -665 0
-619 -666 0
-619 -667 0
-619 -668 0
-619 -669 0
-619 -670 0
-619 -671 0
-619 -672 0
-619 -673 0
-619 -674 0
-619 -675 0
-619 -676 0
-619 -677 0
-619 -678 0
-619 -679 0
-619 -680 0
-620 -621 0
-620 -622 0
-620 -623 0
-620 -624 0
-620 -625 0
-620 -626 0
-620 -627 0
-620 -628 0
-620 -629 0
-620 -630 0
-620 -631 0
-620 -632 0
-620 -633 0
-620 -634 0
-620 -635 0
-620 -636 0
-620 -637 0
-620 -638 0
-620 -639 0
-620 -640 0
-620 -641 0
-620 -642 0
-620 -643 0
-620 -644 0
-620 -645 0
-620 -646 0
-620 -647 0
-620 -648 0
-620 -649 0
-620 -650 0
-620 -651 0
-620 -652 0
-620 -653 0
-620 -654 0
-620 -655 0
-620 -656 0
-620 -657 0
-620 -658 0
-620 -659 0
-620 -660 0
-620 -661 0
-620 -662 0
-620 -663 0
-620 -664 0
-620 -665 0
-620 -666 0
-620 -667 0
-620 -668 0
-620 -669 0
-620 -670 0
-620 -671 0
-620 -672 0
-620 -673 0
-620 -674 0
-620 -675 0
-620 -676 0
-620 -677 0
-620 -678 0
-620 -679 0
-620 -680 0
-621 -622 0
-621 -623 0
-621 -624 0
-621 -625 0
-621 -626 0
-621 -627 0
-621 -628 0
-621 -629 0
-621 -630 0
-621 -631 0
-621 -632 0
-621 -633 0
-621 -634 0
-621 -635 0
-621 -636 0
-621 -637 0
-621 -638 0
-621 -639 0
-621 -640 0
-621 -641 0
-621 -642 0
-621 -643 0
-621 -644 0
-621 -645 0
-621 -646 0
-621 -647 0
-621 -648 0
-621 -649 0
-621 -650 0
-621 -651 0
-621 -652 0
-621 -653 0
-621 -654 0
-621 -655 0
-621 -656 0
-621 -657 0
-621 -658 0
-621 -659 0
-621 -660 0
-621 -661 0
-621 -662 0
-621 -663 0
-621 -664 0
-621 -665 0
-621 -666 0
-621 -667 0
-621 -668 0
-621 -669 0
-621 -670 0
-621 -671 0
-621 -672 0
-621 -673 0
-621 -674 0
-621 -675 0
-621 -676 0
-621 -677 0
-621 -678 0
-621 -679 0
-621 -680 0
-622 -623 0
-622 -624 0
-622 -625 0
-622 -626 0
-622 -627 0
-622 -628 0
-622 -629 0
-622 -630 0
-622 -631 0
-622 -632 0
-622 -633 0
-622 -634 0
-622 -635 0
-622 -636 0
-622 -637 0
-622 -638 0
-622 -639 0
-622 -640 0
-622 -641 0
-622 -642 0
-622 -643 0
-622 -644 0
-622 -645 0
-622 -646 0
-622 -647 0
-622 -648 0
-622 -649 0
-622 -650 0
-622 -651 0
-622 -652 0
-622 -653 0
-622 -654 0
-622 -655 0
-622 -656 0
-622 -657 0
-622 -658 0
-622 -659 0
-622 -660 0
-622 -661 0
-622 -662 0
-622 -663 0
-622 -664 0
-622 -665 0
-622 -666 0
-622 -667 0
-622 -668 0
-622 -669 0
-622 -670 0
-622 -671 0
-622 -672 0
-622 -673 0
-622 -674 0
-622 -675 0
-622 -676 0
-622 -677 0
-622 -678 0
-622 -679 0
-622 -680 0
-623 -624 0
-623 -625 0
-623 -626 0
-623 -627 0
-623 -628 0
-623 -629 0
-623 -630 0
-623 -631 0
-623 -632 0
-623 -633 0
-623 -634 0
-623 -635 0
-623 -636 0
-623 -637 0
-623 -638 0
-623 -639 0
-623 -640 0
-623 -641 0
-623 -642 0
-623 -643 0
-623 -644 0
-623 -645 0
-623 -646 0
-623 -647 0
-623 -648 0
-623 -649 0
-623 -650 0
-623 -651 0
-623 -652 0
-623 -653 0
-623 -654 0
-623 -655 0
-623 -656 0
-623 -657 0
-623 -658 0
-623 -659 0
-623 -660 0
-623 -661 0
-623 -662 0
-623 -663 0
-623 -664 0
-623 -665 0
-623 -666 0
-623 -667 0
-623 -668 0
-623 -669 0
-623 -670 0
-623 -671 0
-623 -672 0
-623 -673 0
-623 -674 0
-623 -675 0
-623 -676 0
-623 -677 0
-623 -678 0
-623 -679 0
-623 -680 0
-624 -625 0
-624 -626 0
-624 -627 0
-624 -628 0
-624 -629 0
-624 -630 0
-624 -631 0
-624 -632 0
-624 -633 0
-624 -634 0
-624 -635 0
-624 -636 0
-624 -637 0
-624 -638 0
-624 -639 0
-624 -640 0
-624 -641 0
-624 -642 0
-624 -643 0
-624 -644 0
-624 -645 0
-624 -646 0
-624 -647 0
-624 -648 0
-624 -649 0
-624 -650 0
-624 -651 0
-624 -652 0
-624 -653 0
-624 -654 0
-624 -655 0
-624 -656 0
-624 -657 0
-624 -658 0
-624 -659 0
-624 -660 0
-624 -661 0
-624 -662 0
-624 -663 0
-624 -664 0
-624 -665 0
-624 -666 0
-624 -667 0
-624 -668 0
-624 -669 0
-624 -670 0
-624 -671 0
-624 -672 0
-624 -673 0
-624 -674 0
-624 -675 0
-624 -676 0
-624 -677 0
-624 -678 0
-624 -679 0
-624 -680 0
-625 -626 0
-625 -627 0
-625 -628 0
-625 -629 0
-625 -630 0
-625 -631 0
-625 -632 0
-625 -633 0
-625 -634 0
-625 -635 0
-625 -636 0
-625 -637 0
-625 -638 0
-625 -639 0
-625 -640 0
-625 -641 0
-625 -642 0
-625 -643 0
-625 -644 0
-625 -645 0
-625 -646 0
-625 -647 0
-625 -648 0
-625 -649 0
-625 -650 0
-625 -651 0
-625 -652 0
-625 -653 0
-625 -654 0
-625 -655 0
-625 -656 0
-625 -657 0
-625 -658 0
-625 -659 0
-625 -660 0
-625 -661 0
-625 -662 0
-625 -663 0
-625 -664 0
-625 -665 0
-625 -666 0
-625 -667 0
-625 -668 0
-625 -669 0
-625 -670 0
-625 -671 0
-625 -672 0
-625 -673 0
-625 -674 0
-625 -675 0
-625 -676 0
-625 -677 0
-625 -678 0
-625 -679 0
-625 -680 0
-626 -627 0
-626 -628 0
-626 -629 0
-626 -630 0
-626 -631 0
-626 -632 0
-626 -633 0
-626 -634 0
-626 -635 0
-626 -636 0
-626 -637 0
-626 -638 0
-626 -639 0
-626 -640 0
-626 -641 0
-626 -642 0
-626 -643 0
-626 -644 0
-626 -645 0
-626 -646 0
-626 -647 0
-626 -648 0
-626 -649 0
-626 -650 0
-626 -651 0
-626 -652 0
-626 -653 0
-626 -654 0
-626 -655 0
-626 -656 0
-626 -657 0
-626 -658 0
-626 -659 0
-626 -660 0
-626 -661 0
-626 -662 0
-626 -663 0
-626 -664 0
-626 -665 0
-626 -666 0
-626 -667 0
-626 -668 0
-626 -669 0
-626 -670 0
-626 -671 0
-626 -672 0
-626 -673 0
-626 -674 0
-626 -675 0
-626 -676 0
-626 -677 0
-626 -678 0
-626 -679 0
-626 -680 0
-627 -628 0
-627 -629 0
-627 -630 0
-627 -631 0
-627 -632 0
-627 -633 0
-627 -634 0
-627 -635 0
-627 -636 0
-627 -637 0
-627 -638 0
-627 -639 0
-627 -640 0
-627 -641 0
-627 -642 0
-627 -643 0
-627 -644 0
-627 -645 0
-627 -646 0
-627 -647 0
-627 -648 0
-627 -649 0
-627 -650 0
-627 -651 0
-627 -652 0
-627 -653 0
-627 -654 0
-627 -655 0
-627 -656 0
-627 -657 0
-627 -658 0
-627 -659 0
-627 -660 0
-627 -661 0
-627 -662 0
-627 -663 0
-627 -664 0
-627 -665 0
-627 -666 0
-627 -667 0
-627 -668 0
-627 -669 0
-627 -670 0
-627 -671 0
-627 -672 0
-627 -673 0
-627 -674 0
-627 -675 0
-627 -676 0
-627 -677 0
-627 -678 0
-627 -679 0
-627 -680 0
-628 -629 0
-628 -630 0
-628 -631 0
-628 -632 0
-628 -633 0
-628 -634 0
-628 -635 0
-628 -636 0
-628 -637 0
-628 -638 0
-628 -639 0
-628 -640 0
-628 -641 0
-628 -642 0
-628 -643 0
-628 -644 0
-628 -645 0
-628 -646 0
-628 -647 0
-628 -648 0
-628 -649 0
-628 -650 0
-628 -651 0
-628 -652 0
-628 -653 0
-628 -654 0
-628 -655 0
-628 -656 0
-628 -657 0
-628 -658 0
-628 -659 0
-628 -660 0
-628 -661 0
-628 -662 0
-628 -663 0
-628 -664 0
-628 -665 0
-628 -666 0
-628 -667 0
-628 -668 0
-628 -669 0
-628 -670 0
-628 -671 0
-628 -672 0
-628 -673 0
-628 -674 0
-628 -675 0
-628 -676 0
-628 -677 0
-628 -678 0
-628 -679 0
-628 -680 0
-629 -630 0
-629 -631 0
-629 -632 0
-629 -633 0
-629 -634 0
-629 -635 0
-629 -636 0
-629 -637 0
-629 -638 0
-629 -639 0
-629 -640 0
-629 -641 0
-629 -642 0
-629 -643 0
-629 -644 0
-629 -645 0
-629 -646 0
-629 -647 0
-629 -648 0
-629 -649 0
-629 -650 0
-629 -651 0
-629 -652 0
-629 -653 0
-629 -654 0
-629 -655 0
-629 -656 0
-629 -657 0
-629 -658 0
-629 -659 0
-629 -660 0
-629 -661 0
-629 -662 0
-629 -663 0
-629 -664 0
-629 -665 0
-629 -666 0
-629 -667 0
-629 -668 0
-629 -669 0
-629 -670 0
-629 -671 0
-629 -672 0
-629 -673 0
-629 -674 0
-629 -675 0
-629 -676 0
-629 -677 0
-629 -678 0
-629 -679 0
-629 -680 0
-630 -631 0
-630 -632 0
-630 -633 0
-630 -634 0
-630 -635 0
-630 -636 0
-630 -637 0
-630 -638 0
-630 -639 0
-630 -640 0
-630 -641 0
-630 -642 0
-630 -643 0
-630 -644 0
-630 -645 0
-630 -646 0
-630 -647 0
-630 -648 0
-630 -649 0
-630 -650 0
-630 -651 0
-630 -652 0
-630 -653 0
-630 -654 0
-630 -655 0
-630 -656 0
-630 -657 0
-630 -658 0
-630 -659 0
-630 -660 0
-630 -661 0
-630 -662 0
-630 -663 0
-630 -664 0
-630 -665 0
-630 -666 0
-630 -667 0
-630 -668 0
-630 -669 0
-630 -670 0
-630 -671 0
-630 -672 0
-630 -673 0
-630 -674 0
-630 -675 0
-630 -676 0
-630 -677 0
-630 -678 0
-630 -679 0
-630 -680 0
-631 -632 0
-631 -633 0
-631 -634 0
-631 -635 0
-631 -636 0
-631 -637 0
-631 -638 0
-631 -639 0
-631 -640 0
-631 -641 0
-631 -642 0
-631 -643 0
-631 -644 0
-631 -645 0
-631 -646 0
-631 -647 0
-631 -648 0
-631 -649 0
-631 -650 0
-631 -651 0
-631 -652 0
-631 -653 0
-631 -654 0
-631 -655 0
-631 -656 0
-631 -657 0
-631 -658 0
-631 -659 0
-631 -660 0
-631 -661 0
-631 -662 0
-631 -663 0
-631 -664 0
-631 -665 0
-631 -666 0
-631 -667 0
-631 -668 0
-631 -669 0
-631 -670 0
-631 -671 0
-631 -672 0
-631 -673 0
-631 -674 0
-631 -675 0
-631 -676 0
-631 -677 0
-631 -678 0
-631 -679 0
-631 -680 0
-632 -633 0
-632 -634 0
-632 -635 0
-632 -636 0
-632 -637 0
-632 -638 0
-632 -639 0
-632 -640 0
-632 -641 0
-632 -642 0
-632 -643 0
-632 -644 0
-632 -645 0
-632 -646 0
-632 -647 0
-632 -648 0
-632 -649 0
-632 -650 0
-632 -651 0
-632 -652 0
-632 -653 0
-632 -654 0
-632 -655 0
-632 -656 0
-632 -657 0
-632 -658 0
-632 -659 0
-632 -660 0
-632 -661 0
-632 -662 0
-632 -663 0
-632 -664 0
-632 -665 0
-632 -666 0
-632 -667 0
-632 -668 0
-632 -669 0
-632 -670 0
-632 -671 0
-632 -672 0
-632 -673 0
-632 -674 0
-632 -675 0
-632 -676 0
-632 -677 0
-632 -678 0
-632 -679 0
-632 -680 0
-633 -634 0
-633 -635 0
-633 -636 0
-633 -637 0
-633 -638 0
-633 -639 0
-633 -640 0
-633 -641 0
-633 -642 0
-633 -643 0
-633 -644 0
-633 -645 0
-633 -646 0
-633 -647 0
-633 -648 0
-633 -649 0
-633 -650 0
-633 -651 0
-633 -652 0
-633 -653 0
-633 -654 0
-633 -655 0
-633 -656 0
-633 -657 0
-633 -658 0
-633 -659 0
-633 -660 0
-633 -661 0
-633 -662 0
-633 -663 0
-633 -664 0
-633 -665 0
-633 -666 0
-633 -667 0
-633 -668 0
-633 -669 0
-633 -670 0
-633 -671 0
-633 -672 0
-633 -673 0
-633 -674 0
-633 -675 0
-633 -676 0
-633 -677 0
-633 -678 0
-633 -679 0
-633 -680 0
-634 -635 0
-634 -636 0
-634 -637 0
-634 -638 0
-634 -639 0
-634 -640 0
-634 -641 0
-634 -642 0
-634 -643 0
-634 -644 0
-634 -645 0
-634 -646 0
-634 -647 0
-634 -648 0
-634 -649 0
-634 -650 0
-634 -651 0
-634 -652 0
-634 -653 0
-634 -654 0
-634 -655 0
-634 -656 0
-634 -657 0
-634 -658 0
-634 -659 0
-634 -660 0
-634 -661 0
-634 -662 0
-634 -663 0
-634 -664 0
-634 -665 0
-634 -666 0
-634 -667 0
-634 -668 0
-634 -669 0
-634 -670 0
-634 -671 0
-634 -672 0
-634 -673 0
-634 -674 0
-634 -675 0
-634 -676 0
-634 -677 0
-634 -678 0
-634 -679 0
-634 -680 0
-635 -636 0
-635 -637 0
-635 -638 0
-635 -639 0
-635 -640 0
-635 -641 0
-635 -642 0
-635 -643 0
-635 -644 0
-635 -645 0
-635 -646 0
-635 -647 0
-635 -648 0
-635 -649 0
-635 -650 0
-635 -651 0
-635 -652 0
-635 -653 0
-635 -654 0
-635 -655 0
-635 -656 0
-635 -657 0
-635 -658 0
-635 -659 0
-635 -660 0
-635 -661 0
-635 -662 0
-635 -663 0
-635 -664 0
-635 -665 0
-635 -666 0
-635 -667 0
-635 -668 0
-635 -669 0
-635 -670 0
-635 -671 0
-635 -672 0
-635 -673 0
-635 -674 0
-635 -675 0
-635 -676 0
-635 -677 0
-635 -678 0
-635 -679 0
-635 -680 0
-636 -637 0
-636 -638 0
-636 -639 0
-636 -640 0
-636 -641 0
-636 -642 0
-636 -643 0
-636 -644 0
-636 -645 0
-636 -646 0
-636 -647 0
-636 -648 0
-636 -649 0
-636 -650 0
-636 -651 0
-636 -652 0
-636 -653 0
-636 -654 0
-636 -655 0
-636 -656 0
-636 -657 0
-636 -658 0
-636 -659 0
-636 -660 0
-636 -661 0
-636 -662 0
-636 -663 0
-636 -664 0
-636 -665 0
-636 -666 0
-636 -667 0
-636 -668 0
-636 -669 0
-636 -670 0
-636 -671 0
-636 -672 0
-636 -673 0
-636 -674 0
-636 -675 0
-636 -676 0
-636 -677 0
-636 -678 0
-636 -679 0
-636 -680 0
-637 -638 0
-637 -639 0
-637 -640 0
-637 -641 0
-637 -642 0
-637 -643 0
-637 -644 0
-637 -645 0
-637 -646 0
-637 -647 0
-637 -648 0
-637 -649 0
-637 -650 0
-637 -651 0
-637 -652 0
-637 -653 0
-637 -654 0
-637 -655 0
-637 -656 0
-637 -657 0
-637 -658 0
-637 -659 0
-637 -660 0
-637 -661 0
-637 -662 0
-637 -663 0
-637 -664 0
-637 -665 0
-637 -666 0
-637 -667 0
-637 -668 0
-637 -669 0
-637 -670 0
-637 -671 0
-637 -672 0
-637 -673 0
-637 -674 0
-637 -675 0
-637 -676 0
-637 -677 0
-637 -678 0
-637 -679 0
-637 -680 0
-638 -639 0
-638 -640 0
-638 -641 0
-638 -642 0
-638 -643 0
-638 -644 0
-638 -645 0
-638 -646 0
-638 -647 0
-638 -648 0
-638 -649 0
-638 -650 0
-638 -651 0
-638 -652 0
-638 -653 0
-638 -654 0
-638 -655 0
-638 -656 0
-638 -657 0
-638 -658 0
-638 -659 0
-638 -660 0
-638 -661 0
-638 -662 0
-638 -663 0
-638 -664 0
-638 -665 0
-638 -666 0
-638 -667 0
-638 -668 0
-638 -669 0
-638 -670 0
-638 -671 0
-638 -672 0
-638 -673 0
-638 -674 0
-638 -675 0
-638 -676 0
-638 -677 0
-638 -678 0
-638 -679 0
-638 -680 0
-639 -640 0
-639 -641 0
-639 -642 0
-639 -643 0
-639 -644 0
-639 -645 0
-639 -646 0
-639 -647 0
-639 -648 0
-639 -649 0
-639 -650 0
-639 -651 0
-639 -652 0
-639 -653 0
-639 -654 0
-639 -655 0
-639 -656 0
-639 -657 0
-639 -658 0
-639 -659 0
-639 -660 0
-639 -661 0
-639 -662 0
-639 -663 0
-639 -664 0
-639 -665 0
-639 -666 0
-639 -667 0
-639 -668 0
-639 -669 0
-639 -670 0
-639 -671 0
-639 -672 0
-639 -673 0
-639 -674 0
-639 -675 0
-639 -676 0
-639 -677 0
-639 -678 0
-639 -679 0
-639 -680 0
-640 -641 0
-640 -642 0
-640 -643 0
-640 -644 0
-640 -645 0
-640 -646 0
-640 -647 0
-640 -648 0
-640 -649 0
-640 -650 0
-640 -651 0
-640 -652 0
-640 -653 0
-640 -654 0
-640 -655 0
-640 -656 0
-640 -657 0
-640 -658 0
-640 -659 0
-640 -660 0
-640 -661 0
-640 -662 0
-640 -663 0
-640 -664 0
-640 -665 0
-640 -666 0
-640 -667 0
-640 -668 0
-640 -669 0
-640 -670 0
-640 -671 0
-640 -672 0
-640 -673 0
-640 -674 0
-640 -675 0
-640 -676 0
-640 -677 0
-640 -678 0
-640 -679 0
-640 -680 0
-641 -642 0
-641 -643 0
-641 -644 0
-641 -645 0
-641 -646 0
-641 -647 0
-641 -648 0
-641 -649 0
-641 -650 0
-641 -651 0
-641 -652 0
-641 -653 0
-641 -654 0
-641 -655 0
-641 -656 0
-641 -657 0
-641 -658 0
-641 -659 0
-641 -660 0
-641 -661 0
-641 -662 0
-641 -663 0
-641 -664 0
-641 -665 0
-641 -666 0
-641 -667 0
-641 -668 0
-641 -669 0
-641 -670 0
-641 -671 0
-641 -672 0
-641 -673 0
-641 -674 0
-641 -675 0
-641 -676 0
-641 -677 0
-641 -678 0
-641 -679 0
-641 -680 0
-642 -643 0
-642 -644 0
-642 -645 0
-642 -646 0
-642 -647 0
-642 -648 0
-642 -649 0
-642 -650 0
-642 -651 0
-642 -652 0
-642 -653 0
-642 -654 0
-642 -655 0
-642 -656 0
-642 -657 0
-642 -658 0
-642 -659 0
-642 -660 0
-642 -661 0
-642 -662 0
-642 -663 0
-642 -664 0
-642 -665 0
-642 -666 0
-642 -667 0
-642 -668 0
-642 -669 0
-642 -670 0
-642 -671 0
-642 -672 0
-642 -673 0
-642 -674 0
-642 -675 0
-642 -676 0
-642 -677 0
-642 -678 0
-642 -679 0
-642 -680 0
-643 -644 0
-643 -645 0
-643 -646 0
-643 -647 0
-643 -648 0
-643 -649 0
-643 -650 0
-643 -651 0
-643 -652 0
-643 -653 0
-643 -654 0
-643 -655 0
-643 -656 0
-643 -657 0
-643 -658 0
-643 -659 0
-643 -660 0
-643 -661 0
-643 -662 0
-643 -663 0
-643 -664 0
-643 -665 0
-643 -666 0
-643 -667 0
-643 -668 0
-643 -669 0
-643 -670 0
-643 -671 0
-643 -672 0
-643 -673 0
-643 -674 0
-643 -675 0
-643 -676 0
-643 -677 0
-643 -678 0
-643 -679 0
-643 -680 0
-644 -645 0
-644 -646 0
-644 -647 0
-644 -648 0
-644 -649 0
-644 -650 0
-644 -651 0
-644 -652 0
-644 -653 0
-644 -654 0
-644 -655 0
-644 -656 0
-644 -657 0
-644 -658 0
-644 -659 0
-644 -660 0
-644 -661 0
-644 -662 0
-644 -663 0
-644 -664 0
-644 -665 0
-644 -666 0
-644 -667 0
-644 -668 0
-644 -669 0
-644 -670 0
-644 -671 0
-644 -672 0
-644 -673 0
-644 -674 0
-644 -675 0
-644 -676 0
-644 -677 0
-644 -678 0
-644 -679 0
-644 -680 0
-645 -646 0
-645 -647 0
-645 -648 0
-645 -649 0
-645 -650 0
-645 -651 0
-645 -652 0
-645 -653 0
-645 -654 0
-645 -655 0
-645 -656 0
-645 -657 0
-645 -658 0
-645 -659 0
-645 -660 0
-645 -661 0
-645 -662 0
-645 -663 0
-645 -664 0
-645 -665 0
-645 -666 0
-645 -667 0
-645 -668 0
-645 -669 0
-645 -670 0
-645 -671 0
-645 -672 0
-645 -673 0
-645 -674 0
-645 -675 0
-645 -676 0
-645 -677 0
-645 -678 0
-645 -679 0
-645 -680 0
-646 -647 0
-646 -648 0
-646 -649 0
-646 -650 0
-646 -651 0
-646 -652 0
-646 -653 0
-646 -654 0
-646 -655 0
-646 -656 0
-646 -657 0
-646 -658 0
-646 -659 0
-646 -660 0
-646 -661 0
-646 -662 0
-646 -663 0
-646 -664 0
-646 -665 0
-646 -666 0
-646 -667 0
-646 -668 0
-646 -669 0
-646 -670 0
-646 -671 0
-646 -672 0
-646 -673 0
-646 -674 0
-646 -675 0
-646 -676 0
-646 -677 0
-646 -678 0
-646 -679 0
-646 -680 0
-647 -648 0
-647 -649 0
-647 -650 0
-647 -651 0
-647 -652 0
-647 -653 0
-647 -654 0
-647 -655 0
-647 -656 0
-647 -657 0
-647 -658 0
-647 -659 0
-647 -660 0
-647 -661 0
-647 -662 0
-647 -663 0
-647 -664 0
-647 -665 0
-647 -666 0
-647 -667 0
-647 -668 0
-647 -669 0
-647 -670 0
-647 -671 0
-647 -672 0
-647 -673 0
-647 -674 0
-647 -675 0
-647 -676 0
-647 -677 0
-647 -678 0
-647 -679 0
-647 -680 0
-648 -649 0
-648 -650 0
-648 -651 0
-648 -652 0
-648 -653 0
-648 -654 0
-648 -655 0
-648 -656 0
-648 -657 0
-648 -658 0
-648 -659 0
-648 -660 0
-648 -661 0
-648 -662 0
-648 -663 0
-648 -664 0
-648 -665 0
-648 -666 0
-648 -667 0
-648 -668 0
-648 -669 0
-648 -670 0
-648 -671 0
-648 -672 0
-648 -673 0
-648 -674 0
-648 -675 0
-648 -676 0
-648 -677 0
-648 -678 0
-648 -679 0
-648 -680 0
-649 -650 0
-649 -651 0
-649 -652 0
-649 -653 0
-649 -654 0
-649 -655 0
-649 -656 0
-649 -657 0
-649 -658 0
-649 -659 0
-649 -660 0
-649 -661 0
-649 -662 0
-649 -663 0
-649 -664 0
-649 -665 0
-649 -666 0
-649 -667 0
-649 -668 0
-649 -669 0
-649 -670 0
-649 -671 0
-649 -672 0
-649 -673 0
-649 -674 0
-649 -675 0
-649 -676 0
-649 -677 0
-649 -678 0
-649 -679 0
-649 -680 0
-650 -651 0
-650 -652 0
-650 -653 0
-650 -654 0
-650 -655 0
-650 -656 0
-650 -657 0
-650 -658 0
-650 -659 0
-650 -660 0
-650 -661 0
-650 -662 0
-650 -663 0
-650 -664 0
-650 -665 0
-650 -666 0
-650 -667 0
-650 -668 0
-650 -669 0
-650 -670 0
-650 -671 0
-650 -672 0
-650 -673 0
-650 -674 0
-650 -675 0
-650 -676 0
-650 -677 0
-650 -678 0
-650 -679 0
-650 -680 0
-651 -652 0
-651 -653 0
-651 -654 0
-651 -655 0
-651 -656 0
-651 -657 0
-651 -658 0
-651 -659 0
-651 -660 0
-651 -661 0
-651 -662 0
-651 -663 0
-651 -664 0
-651 -665 0
-651 -666 0
-651 -667 0
-651 -668 0
-651 -669 0
-651 -670 0
-651 -671 0
-651 -672 0
-651 -673 0
-651 -674 0
-651 -675 0
-651 -676 0
-651 -677 0
-651 -678 0
-651 -679 0
-651 -680 0
-652 -653 0
-652 -654 0
-652 -655 0
-652 -656 0
-652 -657 0
-652 -658 0
-652 -659 0
-652 -660 0
-652 -661 0
-652 -662 0
-652 -663 0
-652 -664 0
-652 -665 0
-652 -666 0
-652 -667 0
-652 -668 0
-652 -669 0
-652 -670 0
-652 -671 0
-652 -672 0
-652 -673 0
-652 -674 0
-652 -675 0
-652 -676 0
-652 -677 0
-652 -678 0
-652 -679 0
-652 -680 0
-653 -654 0
-653 -655 0
-653 -656 0
-653 -657 0
-653 -658 0
-653 -659 0
-653 -660 0
-653 -661 0
-653 -662 0
-653 -663 0
-653 -664 0
-653 -665 0
-653 -666 0
-653 -667 0
-653 -668 0
-653 -669 0
-653 -670 0
-653 -671 0
-653 -672 0
-653 -673 0
-653 -674 0
-653 -675 0
-653 -676 0
-653 -677 0
-653 -678 0
-653 -679 0
-653 -680 0
-654 -655 0
-654 -656 0
-654 -657 0
-654 -658 0
-654 -659 0
-654 -660 0
-654 -661 0
-654 -662 0
-654 -663 0
-654 -664 0
-654 -665 0
-654 -666 0
-654 -667 0
-654 -668 0
-654 -669 0
-654 -670 0
-654 -671 0
-654 -672 0
-654 -673 0
-654 -674 0
-654 -675 0
-654 -676 0
-654 -677 0
-654 -678 0
-654 -679 0
-654 -680 0
-655 -656 0
-655 -657 0
-655 -658 0
-655 -659 0
-655 -660 0
-655 -661 0
-655 -662 0
-655 -663 0
-655 -664 0
-655 -665 0
-655 -666 0
-655 -667 0
-655 -668 0
-655 -669 0
-655 -670 0
-655 -671 0
-655 -672 0
-655 -673 0
-655 -674 0
-655 -675 0
-655 -676 0
-655 -677 0
-655 -678 0
-655 -679 0
-655 -680 0
-656 -657 0
-656 -658 0
-656 -659 0
-656 -660 0
-656 -661 0
-656 -662 0
-656 -663 0
-656 -664 0
-656 -665 0
-656 -666 0
-656 -667 0
-656 -668 0
-656 -669 0
-656 -670 0
-656 -671 0
-656 -672 0
-656 -673 0
-656 -674 0
-656 -675 0
-656 -676 0
-656 -677 0
-656 -678 0
-656 -679 0
-656 -680 0
-657 -658 0
-657 -659 0
-657 -660 0
-657 -661 0
-657 -662 0
-657 -663 0
-657 -664 0
-657 -665 0
-657 -666 0
-657 -667 0
-657 -668 0
-657 -669 0
-657 -670 0
-657 -671 0
-657 -672 0
-657 -673 0
-657 -674 0
-657 -675 0
-657 -676 0
-657 -677 0
-657 -678 0
-657 -679 0
-657 -680 0
-658 -659 0
-658 -660 0
-658 -661 0
-658 -662 0
-658 -663 0
-658 -664 0
-658 -665 0
-658 -666 0
-658 -667 0
-658 -668 0
-658 -669 0
-658 -670 0
-658 -671 0
-658 -672 0
-658 -673 0
-658 -674 0
-658 -675 0
-658 -676 0
-658 -677 0
-658 -678 0
-658 -679 0
-658 -680 0
-659 -660 0
-659 -661 0
-659 -662 0
-659 -663 0
-659 -664 0
-659 -665 0
-659 -666 0
-659 -667 0
-659 -668 0
-659 -669 0
-659 -670 0
-659 -671 0
-659 -672 0
-659 -673 0
-659 -674 0
-659 -675 0
-659 -676 0
-659 -677 0
-659 -678 0
-659 -679 0
-659 -680 0
-660 -661 0
-660 -662 0
-660 -663 0
-660 -664 0
-660 -665 0
-660 -666 0
-660 -667 0
-660 -668 0
-660 -669 0
-660 -670 0
-660 -671 0
-660 -672 0
-660 -673 0
-660 -674 0
-660 -675 0
-660 -676 0
-660 -677 0
-660 -678 0
-660 -679 0
-660 -680 0
-661 -662 0
-661 -663 0
-661 -664 0
-661 -665 0
-661 -666 0
-661 -667 0
-661 -668 0
-661 -669 0
-661 -670 0
-661 -671 0
-661 -672 0
-661 -673 0
-661 -674 0
-661 -675 0
-661 -676 0
-661 -677 0
-661 -678 0
-661 -679 0
-661 -680 0
-662 -663 0
-662 -664 0
-662 -665 0
-662 -666 0
-662 -667 0
-662 -668 0
-662 -669 0
-662 -670 0
-662 -671 0
-662 -672 0
-662 -673 0
-662 -674 0
-662 -675 0
-662 -676 0
-662 -677 0
-662 -678 0
-662 -679 0
-662 -680 0
-663 -664 0
-663 -665 0
-663 -666 0
-663 -667 0
-663 -668 0
-663 -669 0
-663 -670 0
-663 -671 0
-663 -672 0
-663 -673 0
-663 -674 0
-663 -675 0
-663 -676 0
-663 -677 0
-663 -678 0
-663 -679 0
-663 -680 0
-664 -665 0
-664 -666 0
-664 -667 0
-664 -668 0
-664 -669 0
-664 -670 0
-664 -671 0
-664 -672 0
-664 -673 0
-664 -674 0
-664 -675 0
-664 -676 0
-664 -677 0
-664 -678 0
-664 -679 0
-664 -680 0
-665 -666 0
-665 -667 0
-665 -668 0
-665 -669 0
-665 -670 0
-665 -671 0
-665 -672 0
-665 -673 0
-665 -674 0
-665 -675 0
-665 -676 0
-665 -677 0
-665 -678 0
-665 -679 0
-665 -680 0
-666 -667 0
-666 -668 0
-666 -669 0
-666 -670 0
-666 -671 0
-666 -672 0
-666 -673 0
-666 -674 0
-666 -675 0
-666 -676 0
-666 -677 0
-666 -678 0
-666 -679 0
-666 -680 0
-667 -668 0
-667 -669 0
-667 -670 0
-667 -671 0
-667 -672 0
-667 -673 0
-667 -674 0
-667 -675 0
-667 -676 0
-667 -677 0
-667 -678 0
-667 -679 0
-667 -680 0
-668 -669 0
-668 -670 0
-668 -671 0
-668 -672 0
-668 -673 0
-668 -674 0
-668 -675 0
-668 -676 0
-668 -677 0
-668 -678 0
-668 -679 0
-668 -680 0
-669 -670 0
-669 -671 0
-669 -672 0
-669 -673 0
-669 -674 0
-669 -675 0
-669 -676 0
-669 -677 0
-669 -678 0
-669 -679 0
-669 -680 0
-670 -671 0
-670 -672 0
-670 -673 0
-670 -674 0
-670 -675 0
-670 -676 0
-670 -677 0
-670 -678 0
-670 -679 0
-670 -680 0
-671 -672 0
-671 -673 0
-671 -674 0
-671 -675 0
-671 -676 0
-671 -677 0
-671 -678 0
-671 -679 0
-671 -680 0
-672 -673 0
-672 -674 0
-672 -675 0
-672 -676 0
-672 -677 0
-672 -678 0
-672 -679 0
-672 -680 0
-673 -674 0
-673 -675 0
-673 -676 0
-673 -677 0
-673 -678 0
-673 -679 0
-673 -680 0
-674 -675 0
-674 -676 0
-674 -677 0
-674 -678 0
-674 -679 0
-674 -680 0
-675 -676 0
-675 -677 0
-675 -678 0
-675 -679 0
-675 -680 0
-676 -677 0
-676 -678 0
-676 -679 0
-676 -680 0
-677 -678 0
-677 -679 0
-677 -680 0
-678 -679 0
-678 -680 0
-679 -680 0
-681 597 598 599 600 601 602 603 604 605 606 607 608 609 610 611 612 613 614 615 616 617 618 619 620 0
-597 681 0
-598 681 0
-599 681 0
-600 681 0
-601 681 0
-602 681 0
-603 681 0
-604 681 0
-605 681 0
-606 681 0
-607 681 0
-608 681 0
-609 681 0
-610 681 0
-611 681 0
-612 681 0
-613 681 0
-614 681 0
-615 681 0
-616 681 0
-617 681 0
-618 681 0
-619 681 0
-620 681 0
681 -1 150 0
681 1 -150 0
681 -2 151 0
681 2 -151 0
681 -3 152 0
681 3 -152 0
681 -4 153 0
681 4 -153 0
681 -5 154 0
681 5 -154 0
681 -6 155 0
681 6 -155 0
681 -7 156 0
681 7 -156 0
681 -8 157 0
681 8 -157 0
681 -9 158 0
681 9 -158 0
681 -10 159 0
681 10 -159 0
-682 621 622 623 624 625 626 627 628 629 630 631 632 633 634 635 636 637 638 639 640 641 642 643 644 0
-621 682 0
-622 682 0
-623 682 0
-624 682 0
-625 682 0
-626 682 0
-627 682 0
-628 682 0
-629 682 0
-630 682 0
-631 682 0
-632 682 0
-633 682 0
-634 682 0
-635 682 0
-636 682 0
-637 682 0
-638 682 0
-639 682 0
-640 682 0
-641 682 0
-642 682 0
-643 682 0
-644 682 0
682 -11 160 0
682 11 -160 0
682 -12 161 0
682 12 -161 0
682 -13 162 0
682 13 -162 0
682 -14 163 0
682 14 -163 0
682 -15 164 0
682 15 -164 0
682 -16 165 0
682 16 -165 0
682 -17 166 0
682 17 -166 0
682 -18 167 0
682 18 -167 0
682 -19 168 0
682 19 -168 0
682 -20 169 0
682 20 -169 0
-683 645 646 647 648 649 650 651 652 653 654 655 656 657 658 659 660 661 662 663 664 0
-645 683 0
-646 683 0
-647 683 0
-648 683 0
-649 683 0
-650 683 0
-651 683 0
-652 683 0
-653 683 0
-654 683 0
-655 683 0
-656 683 0
-657 683 0
-658 683 0
-659 683 0
-660 683 0
-661 683 0
-662 683 0
-663 683 0
-664 683 0
683 -21 170 0
683 21 -170 0
683 -22 171 0
683 22 -171 0
683 -23 172 0
683 23 -172 0
683 -24 173 0
683 24 -173 0
683 -25 174 0
683 25 -174 0
683 -26 175 0
683 26 -175 0
683 -27 176 0
683 27 -176 0
683 -28 177 0
683 28 -177 0
683 -29 178 0
683 29 -178 0
-684 665 666 667 668 669 670 671 672 673 674 675 676 677 678 679 680 0
-665 684 0
-666 684 0
-667 684 0
-668 684 0
-669 684 0
-670 684 0
-671 684 0
-672 684 0
-673 684 0
-674 684 0
-675 684 0
-676 684 0
-677 684 0
-678 684 0
-679 684 0
-680 684 0
684 -30 179 0
684 30 -179 0
684 -31 180 0
684 31 -180 0
684 -32 181 0
684 32 -181 0
684 -33 182 0
684 33 -182 0
684 -34 183 0
684 34 -183 0
684 -35 184 0
684 35 -184 0
684 -36 185 0
684 36 -185 0
684 -37 186 0
684 37 -186 0
-597 146 0
-597 150 0
-597 -12 0
-597 -13 0
-597 -14 0
-597 -15 0
-597 -16 0
-597 -20 0
-597 -17 157 0
-597 -17 -1 -8 0
-597 -17 -63 0
-597 -17 -64 0
-597 -17 -65 0
-597 -17 -87 0
-597 -17 -88 0
-597 -17 -89 0
-597 -17 -107 0
-597 -17 -108 0
-597 -17 -109 0
-597 -18 158 0
-597 -18 -1 -9 0
-597 -18 -64 0
-597 -18 -65 0
-597 -18 -88 0
-597 -18 -89 0
-597 -18 -108 0
-597 -18 -109 0
-597 -19 159 0
-597 -19 -1 -10 0
-597 -19 -65 0
-597 -19 -89 0
-597 -19 -109 0
-598 146 0
-598 151 0
-598 -11 0
-598 -13 0
-598 -14 0
-598 -15 0
-598 -16 0
-598 -20 0
-598 -17 157 0
-598 -17 -2 -8 0
-598 -17 -67 0
-598 -17 -68 0
-598 -17 -69 0
-598 -17 -87 0
-598 -17 -88 0
-598 -17 -89 0
-598 -17 -91 0
-598 -17 -92 0
-598 -17 -93 0
-598 -17 -107 0
-598 -17 -108 0
-598 -17 -109 0
-598 -17 -111 0
-598 -17 -112 0
-598 -17 -113 0
-598 -18 158 0
-598 -18 -2 -9 0
-598 -18 -68 0
-598 -18 -69 0
-598 -18 -88 0
-598 -18 -89 0
-598 -18 -92 0
-598 -18 -93 0
-598 -18 -108 0
-598 -18 -109 0
-598 -18 -112 0
-598 -18 -113 0
-598 -19 159 0
-598 -19 -2 -10 0
-598 -19 -69 0
-598 -19 -89 0
-598 -19 -93 0
-598 -19 -109 0
-598 -19 -113 0
-599 146 0
-599 152 0
-599 -11 0
-599 -12 0
-599 -14 0
-599 -15 0
-599 -16 0
-599 -20 0
-599 -17 157 0
-599 -17 -3 -8 0
-599 -17 -71 0
-599 -17 -72 0
-599 -17 -73 0
-599 -17 -91 0
-599 -17 -92 0
-599 -17 -93 0
-599 -17 -95 0
-599 -17 -96 0
-599 -17 -97 0
-599 -17 -107 0
-599 -17 -108 0
-599 -17 -109 0
-599 -17 -111 0
-599 -17 -112 0
-599 -17 -113 0
-599 -17 -115 0
-599 -17 -116 0
-599 -17 -117 0
-599 -18 158 0
-599 -18 -3 -9 0
-599 -18 -72 0
-599 -18 -73 0
-599 -18 -92 0
-599 -18 -93 0
-599 -18 -96 0
-599 -18 -97 0
-599 -18 -108 0
-599 -18 -109 0
-599 -18 -112 0
-599 -18 -113 0
-599 -18 -116 0
-599 -18 -117 0
-599 -19 159 0
-599 -19 -3 -10 0
-599 -19 -73 0
-599 -19 -93 0
-599 -19 -97 0
-599 -19 -109 0
-599 -19 -113 0
-599 -19 -117 0
-600 146 0
-600 153 0
-600 -11 0
-600 -12 0
-600 -13 0
-600 -15 0
-600 -16 0
-600 -20 0
-600 -17 157 0
-600 -17 -4 -8 0
-600 -17 -75 0
-600 -17 -76 0
-600 -17 -77 0
-600 -17 -95 0
-600 -17 -96 0
-600 -17 -97 0
-600 -17 -99 0
-600 -17 -100 0
-600 -17 -101 0
-600 -17 -111 0
-600 -17 -112 0
-600 -17 -113 0
-600 -17 -115 0
-600 -17 -116 0
-600 -17 -117 0
-600 -17 -119 0
-600 -17 -120 0
-600 -17 -121 0
-600 -18 158 0
-600 -18 -4 -9 0
-600 -18 -76 0
-600 -18 -77 0
-600 -18 -96 0
-600 -18 -97 0
-600 -18 -100 0
-600 -18 -101 0
-600 -18 -112 0
-600 -18 -113 0
-600 -18 -116 0
-600 -18 -117 0
-600 -18 -120 0
-600 -18 -121 0
-600 -19 159 0
-600 -19 -4 -10 0
-600 -19 -77 0
-600 -19 -97 0
-600 -19 -101 0
-600 -19 -113 0
-600 -19 -117 0
-600 -19 -121 0
-601 146 0
-601 154 0
-601 -11 0
-601 -12 0
-601 -13 0
-601 -14 0
-601 -16 0
-601 -20 0
-601 -17 157 0
-601 -17 -5 -8 0
-601 -17 -79 0
-601 -17 -80 0
-601 -17 -81 0
-601 -17 -99 0
-601 -17 -100 0
-601 -17 -101 0
-601 -17 -103 0
-601 -17 -104 0
-601 -17 -105 0
-601 -17 -115 0
-601 -17 -116 0
-601 -17 -117 0
-601 -17 -119 0
-601 -17 -120 0
-601 -17 -121 0
-601 -18 158 0
-601 -18 -5 -9 0
-601 -18 -80 0
-601 -18 -81 0
-601 -18 -100 0
-601 -18 -101 0
-601 -18 -104 0
-601 -18 -105 0
-601 -18 -116 0
-601 -18 -117 0
-601 -18 -120 0
-601 -18 -121 0
-601 -19 159 0
-601 -19 -5 -10 0
-601 -19 -81 0
-601 -19 -101 0
-601 -19 -105 0
-601 -19 -117 0
-601 -19 -121 0
-602 146 0
-602 155 0
-602 -11 0
-602 -12 0
-602 -13 0
-602 -14 0
-602 -15 0
-602 -20 0
-602 -17 157 0
-602 -17 -6 -8 0
-602 -17 -83 0
-602 -17 -84 0
-602 -17 -85 0
-602 -17 -103 0
-602 -17 -104 0
-602 -17 -105 0
-602 -17 -119 0
-602 -17 -120 0
-602 -17 -121 0
-602 -18 158 0
-602 -18 -6 -9 0
-602 -18 -84 0
-602 -18 -85 0
-602 -18 -104 0
-602 -18 -105 0
-602 -18 -120 0
-602 -18 -121 0
-602 -19 159 0
-602 -19 -6 -10 0
-602 -19 -85 0
-602 -19 -105 0
-602 -19 -121 0
-603 146 0
-603 150 0
-603 -22 0
-603 -23 0
-603 -24 0
-603 -25 0
-603 -29 0
-603 -26 157 0
-603 -26 -1 -8 0
-603 -26 -63 0
-603 -26 -64 0
-603 -26 -65 0
-603 -26 -87 0
-603 -26 -88 0
-603 -26 -89 0
-603 -26 -107 0
-603 -26 -108 0
-603 -26 -109 0
-603 -27 158 0
-603 -27 -1 -9 0
-603 -27 -64 0
-603 -27 -65 0
-603 -27 -88 0
-603 -27 -89 0
-603 -27 -108 0
-603 -27 -109 0
-603 -28 159 0
-603 -28 -1 -10 0
-603 -28 -65 0
-603 -28 -89 0
-603 -28 -109 0
-604 146 0
-604 151 0
-604 -23 0
-604 -24 0
-604 -25 0
-604 -29 0
-604 -26 157 0
-604 -26 -2 -8 0
-604 -26 -67 0
-604 -26 -68 0
-604 -26 -69 0
-604 -26 -87 0
-604 -26 -88 0
-604 -26 -89 0
-604 -26 -91 0
-604 -26 -92 0
-604 -26 -93 0
-604 -26 -107 0
-604 -26 -108 0
-604 -26 -109 0
-604 -26 -111 0
-604 -26 -112 0
-604 -26 -113 0
-604 -27 158 0
-604 -27 -2 -9 0
-604 -27 -68 0
-604 -27 -69 0
-604 -27 -88 0
-604 -27 -89 0
-604 -27 -92 0
-604 -27 -93 0
-604 -27 -108 0
-604 -27 -109 0
-604 -27 -112 0
-604 -27 -113 0
-604 -28 159 0
-604 -28 -2 -10 0
-604 -28 -69 0
-604 -28 -89 0
-604 -28 -93 0
-604 -28 -109 0
-604 -28 -113 0
-605 146 0
-605 152 0
-605 -21 0
-605 -24 0
-605 -25 0
-605 -29 0
-605 -26 157 0
-605 -26 -3 -8 0
-605 -26 -71 0
-605 -26 -72 0
-605 -26 -73 0
-605 -26 -91 0
-605 -26 -92 0
-605 -26 -93 0
-605 -26 -95 0
-605 -26 -96 0
-605 -26 -97 0
-605 -26 -107 0
-605 -26 -108 0
-605 -26 -109 0
-605 -26 -111 0
-605 -26 -112 0
-605 -26 -113 0
-605 -26 -115 0
-605 -26 -116 0
-605 -26 -117 0
-605 -27 158 0
-605 -27 -3 -9 0
-605 -27 -72 0
-605 -27 -73 0
-605 -27 -92 0
-605 -27 -93 0
-605 -27 -96 0
-605 -27 -97 0
-605 -27 -108 0
-605 -27 -109 0
-605 -27 -112 0
-605 -27 -113 0
-605 -27 -116 0
-605 -27 -117 0
-605 -28 159 0
-605 -28 -3 -10 0
-605 -28 -73 0
-605 -28 -93 0
-605 -28 -97 0
-605 -28 -109 0
-605 -28 -113 0
-605 -28 -117 0
-606 146 0
-606 153 0
-606 -21 0
-606 -22 0
-606 -25 0
-606 -29 0
-606 -26 157 0
-606 -26 -4 -8 0
-606 -26 -75 0
-606 -26 -76 0
-606 -26 -77 0
-606 -26 -95 0
-606 -26 -96 0
-606 -26 -97 0
-606 -26 -99 0
-606 -26 -100 0
-606 -26 -101 0
-606 -26 -111 0
-606 -26 -112 0
-606 -26 -113 0
-606 -26 -115 0
-606 -26 -116 0
-606 -26 -117 0
-606 -26 -119 0
-606 -26 -120 0
-606 -26 -121 0
-606 -27 158 0
-606 -27 -4 -9 0
-606 -27 -76 0
-606 -27 -77 0
-606 -27 -96 0
-606 -27 -97 0
-606 -27 -100 0
-606 -27 -101 0
-606 -27 -112 0
-606 -27 -113 0
-606 -27 -116 0
-606 -27 -117 0
-606 -27 -120 0
-606 -27 -121 0
-606 -28 159 0
-606 -28 -4 -10 0
-606 -28 -77 0
-606 -28 -97 0
-606 -28 -101 0
-606 -28 -113 0
-606 -28 -117 0
-606 -28 -121 0
-607 146 0
-607 154 0
-607 -21 0
-607 -22 0
-607 -23 0
-607 -29 0
-607 -26 157 0
-607 -26 -5 -8 0
-607 -26 -79 0
-607 -26 -80 0
-607 -26 -81 0
-607 -26 -99 0
-607 -26 -100 0
-607 -26 -101 0
-607 -26 -103 0
-607 -26 -104 0
-607 -26 -105 0
-607 -26 -115 0
-607 -26 -116 0
-607 -26 -117 0
-607 -26 -119 0
-607 -26 -120 0
-607 -26 -121 0
-607 -27 158 0
-607 -27 -5 -9 0
-607 -27 -80 0
-607 -27 -81 0
-607 -27 -100 0
-607 -27 -101 0
-607 -27 -104 0
-607 -27 -105 0
-607 -27 -116 0
-607 -27 -117 0
-607 -27 -120 0
-607 -27 -121 0
-607 -28 159 0
-607 -28 -5 -10 0
-607 -28 -81 0
-607 -28 -101 0
-607 -28 -105 0
-607 -28 -117 0
-607 -28 -121 0
-608 146 0
-608 155 0
-608 -21 0
-608 -22 0
-608 -23 0
-608 -24 0
-608 -29 0
-608 -26 157 0
-608 -26 -6 -8 0
-608 -26 -83 0
-608 -26 -84 0
-608 -26 -85 0
-608 -26 -103 0
-608 -26 -104 0
-608 -26 -105 0
-608 -26 -119 0
-608 -26 -120 0
-608 -26 -121 0
-608 -27 158 0
-608 -27 -6 -9 0
-608 -27 -84 0
-608 -27 -85 0
-608 -27 -104 0
-608 -27 -105 0
-608 -27 -120 0
-608 -27 -121 0
-608 -28 159 0
-608 -28 -6 -10 0
-608 -28 -85 0
-608 -28 -105 0
-608 -28 -121 0
-609 146 0
-609 150 0
-609 -31 0
-609 -32 0
-609 -33 0
-609 -37 0
-609 -34 157 0
-609 -34 -1 -8 0
-609 -34 -63 0
-609 -34 -64 0
-609 -34 -65 0
-609 -34 -87 0
-609 -34 -88 0
-609 -34 -89 0
-609 -34 -107 0
-609 -34 -108 0
-609 -34 -109 0
-609 -35 158 0
-609 -35 -1 -9 0
-609 -35 -64 0
-609 -35 -65 0
-609 -35 -88 0
-609 -35 -89 0
-609 -35 -108 0
-609 -35 -109 0
-609 -36 159 0
-609 -36 -1 -10 0
-609 -36 -65 0
-609 -36 -89 0
-609 -36 -109 0
-610 146 0
-610 151 0
-610 -32 0
-610 -33 0
-610 -37 0
-610 -34 157 0
-610 -34 -2 -8 0
-610 -34 -67 0
-610 -34 -68 0
-610 -34 -69 0
-610 -34 -87 0
-610 -34 -88 0
-610 -34 -89 0
-610 -34 -91 0
-610 -34 -92 0
-610 -34 -93 0
-610 -34 -107 0
-610 -34 -108 0
-610 -34 -109 0
-610 -34 -111 0
-610 -34 -112 0
-610 -34 -113 0
-610 -35 158 0
-610 -35 -2 -9 0
-610 -35 -68 0
-610 -35 -69 0
-610 -35 -88 0
-610 -35 -89 0
-610 -35 -92 0
-610 -35 -93 0
-610 -35 -108 0
-610 -35 -109 0
-610 -35 -112 0
-610 -35 -113 0
-610 -36 159 0
-610 -36 -2 -10 0
-610 -36 -69 0
-610 -36 -89 0
-610 -36 -93 0
-610 -36 -109 0
-610 -36 -113 0
-611 146 0
-611 152 0
-611 -33 0
-611 -37 0
-611 -34 157 0
-611 -34 -3 -8 0
-611 -34 -71 0
-611 -34 -72 0
-611 -34 -73 0
-611 -34 -91 0
-611 -34 -92 0
-611 -34 -93 0
-611 -34 -95 0
-611 -34 -96 0
-611 -34 -97 0
-611 -34 -107 0
-611 -34 -108 0
-611 -34 -109 0
-611 -34 -111 0
-611 -34 -112 0
-611 -34 -113 0
-611 -34 -115 0
-611 -34 -116 0
-611 -34 -117 0
-611 -35 158 0
-611 -35 -3 -9 0
-611 -35 -72 0
-611 -35 -73 0
-611 -35 -92 0
-611 -35 -93 0
-611 -35 -96 0
-611 -35 -97 0
-611 -35 -108 0
-611 -35 -109 0
-611 -35 -112 0
-611 -35 -113 0
-611 -35 -116 0
-611 -35 -117 0
-611 -36 159 0
-611 -36 -3 -10 0
-611 -36 -73 0
-611 -36 -93 0
-611 -36 -97 0
-611 -36 -109 0
-611 -36 -113 0
-611 -36 -117 0
-612 146 0
-612 153 0
-612 -30 0
-612 -37 0
-612 -34 157 0
-612 -34 -4 -8 0
-612 -34 -75 0
-612 -34 -76 0
-612 -34 -77 0
-612 -34 -95 0
-612 -34 -96 0
-612 -34 -97 0
-612 -34 -99 0
-612 -34 -100 0
-612 -34 -101 0
-612 -34 -111 0
-612 -34 -112 0
-612 -34 -113 0
-612 -34 -115 0
-612 -34 -116 0
-612 -34 -117 0
-612 -34 -119 0
-612 -34 -120 0
-612 -34 -121 0
-612 -35 158 0
-612 -35 -4 -9 0
-612 -35 -76 0
-612 -35 -77 0
-612 -35 -96 0
-612 -35 -97 0
-612 -35 -100 0
-612 -35 -101 0
-612 -35 -112 0
-612 -35 -113 0
-612 -35 -116 0
-612 -35 -117 0
-612 -35 -120 0
-612 -35 -121 0
-612 -36 159 0
-612 -36 -4 -10 0
-612 -36 -77 0
-612 -36 -97 0
-612 -36 -101 0
-612 -36 -113 0
-612 -36 -117 0
-612 -36 -121 0
-613 146 0
-613 154 0
-613 -30 0
-613 -31 0
-613 -37 0
-613 -34 157 0
-613 -34 -5 -8 0
-613 -34 -79 0
-613 -34 -80 0
-613 -34 -81 0
-613 -34 -99 0
-613 -34 -100 0
-613 -34 -101 0
-613 -34 -103 0
-613 -34 -104 0
-613 -34 -105 0
-613 -34 -115 0
-613 -34 -116 0
-613 -34 -117 0
-613 -34 -119 0
-613 -34 -120 0
-613 -34 -121 0
-613 -35 158 0
-613 -35 -5 -9 0
-613 -35 -80 0
-613 -35 -81 0
-613 -35 -100 0
-613 -35 -101 0
-613 -35 -104 0
-613 -35 -105 0
-613 -35 -116 0
-613 -35 -117 0
-613 -35 -120 0
-613 -35 -121 0
-613 -36 159 0
-613 -36 -5 -10 0
-613 -36 -81 0
-613 -36 -101 0
-613 -36 -105 0
-613 -36 -117 0
-613 -36 -121 0
-614 146 0
-614 155 0
-614 -30 0
-614 -31 0
-614 -32 0
-614 -37 0
-614 -34 157 0
-614 -34 -6 -8 0
-614 -34 -83 0
-614 -34 -84 0
-614 -34 -85 0
-614 -34 -103 0
-614 -34 -104 0
-614 -34 -105 0
-614 -34 -119 0
-614 -34 -120 0
-614 -34 -121 0
-614 -35 158 0
-614 -35 -6 -9 0
-614 -35 -84 0
-614 -35 -85 0
-614 -35 -104 0
-614 -35 -105 0
-614 -35 -120 0
-614 -35 -121 0
-614 -36 159 0
-614 -36 -6 -10 0
-614 -36 -85 0
-614 -36 -105 0
-614 -36 -121 0
-615 146 0
-615 150 0
-615 156 0
-615 -1 -7 0
-615 -62 0
-615 -63 0
-615 -64 0
-615 -65 0
-615 -86 0
-615 -87 0
-615 -88 0
-615 -89 0
-615 -106 0
-615 -107 0
-615 -108 0
-615 -109 0
-616 146 0
-616 151 0
-616 156 0
-616 -2 -7 0
-616 -66 0
-616 -67 0
-616 -68 0
-616 -69 0
-616 -86 0
-616 -87 0
-616 -88 0
-616 -89 0
-616 -90 0
-616 -91 0
-616 -92 0
-616 -93 0
-616 -106 0
-616 -107 0
-616 -108 0
-616 -109 0
-616 -110 0
-616 -111 0
-616 -112 0
-616 -113 0
-617 146 0
-617 152 0
-617 156 0
-617 -3 -7 0
-617 -70 0
-617 -71 0
-617 -72 0
-617 -73 0
-617 -90 0
-617 -91 0
-617 -92 0
-617 -93 0
-617 -94 0
-617 -95 0
-617 -96 0
-617 -97 0
-617 -106 0
-617 -107 0
-617 -108 0
-617 -109 0
-617 -110 0
-617 -111 0
-617 -112 0
-617 -113 0
-617 -114 0
-617 -115 0
-617 -116 0
-617 -117 0
-618 146 0
-618 153 0
-618 156 0
-618 -4 -7 0
-618 -74 0
-618 -75 0
-618 -76 0
-618 -77 0
-618 -94 0
-618 -95 0
-618 -96 0
-618 -97 0
-618 -98 0
-618 -99 0
-618 -100 0
-618 -101 0
-618 -110 0
-618 -111 0
-618 -112 0
-618 -113 0
-618 -114 0
-618 -115 0
-618 -116 0
-618 -117 0
-618 -118 0
-618 -119 0
-618 -120 0
-618 -121 0
-619 146 0
-619 154 0
-619 156 0
-619 -5 -7 0
-619 -78 0
-619 -79 0
-619 -80 0
-619 -81 0
-619 -98 0
-619 -99 0
-619 -100 0
-619 -101 0
-619 -102 0
-619 -103 0
-619 -104 0
-619 -105 0
-619 -114 0
-619 -115 0
-619 -116 0
-619 -117 0
-619 -118 0
-619 -119 0
-619 -120 0
-619 -121 0
-620 146 0
-620 155 0
-620 156 0
-620 -6 -7 0
-620 -82 0
-620 -83 0
-620 -84 0
-620 -85 0
-620 -102 0
-620 -103 0
-620 -104 0
-620 -105 0
-620 -118 0
-620 -119 0
-620 -120 0
-620 -121 0
-621 147 0
-621 160 0
-621 -2 0
-621 -3 0
-621 -4 0
-621 -5 0
-621 -6 0
-621 -10 0
-621 -7 167 0
-621 -7 -11 -18 0
-621 -7 -39 0
-621 -7 -40 0
-621 -7 -41 0
-621 -7 -87 0
-621 -7 -88 0
-621 -7 -89 0
-621 -7 -107 0
-621 -7 -108 0
-621 -7 -109 0
-621 -8 168 0
-621 -8 -11 -19 0
-621 -8 -40 0
-621 -8 -41 0
-621 -8 -88 0
-621 -8 -89 0
-621 -8 -108 0
-621 -8 -109 0
-621 -9 169 0
-621 -9 -11 -20 0
-621 -9 -41 0
-621 -9 -89 0
-621 -9 -109 0
-622 147 0
-622 161 0
-622 -1 0
-622 -3 0
-622 -4 0
-622 -5 0
-622 -6 0
-622 -10 0
-622 -7 167 0
-622 -7 -12 -18 0
-622 -7 -43 0
-622 -7 -44 0
-622 -7 -45 0
-622 -7 -87 0
-622 -7 -88 0
-622 -7 -89 0
-622 -7 -91 0
-622 -7 -92 0
-622 -7 -93 0
-622 -7 -107 0
-622 -7 -108 0
-622 -7 -109 0
-622 -7 -111 0
-622 -7 -112 0
-622 -7 -113 0
-622 -8 168 0
-622 -8 -12 -19 0
-622 -8 -44 0
-622 -8 -45 0
-622 -8 -88 0
-622 -8 -89 0
-622 -8 -92 0
-622 -8 -93 0
-622 -8 -108 0
-622 -8 -109 0
-622 -8 -112 0
-622 -8 -113 0
-622 -9 169 0
-622 -9 -12 -20 0
-622 -9 -45 0
-622 -9 -89 0
-622 -9 -93 0
-622 -9 -109 0
-622 -9 -113 0
-623 147 0
-623 162 0
-623 -1 0
-623 -2 0
-623 -4 0
-623 -5 0
-623 -6 0
-623 -10 0
-623 -7 167 0
-623 -7 -13 -18 0
-623 -7 -47 0
-623 -7 -48 0
-623 -7 -49 0
-623 -7 -91 0
-623 -7 -92 0
-623 -7 -93 0
-623 -7 -95 0
-623 -7 -96 0
-623 -7 -97 0
-623 -7 -107 0
-623 -7 -108 0
-623 -7 -109 0
-623 -7 -111 0
-623 -7 -112 0
-623 -7 -113 0
-623 -7 -115 0
-623 -7 -116 0
-623 -7 -117 0
-623 -8 168 0
-623 -8 -13 -19 0
-623 -8 -48 0
-623 -8 -49 0
-623 -8 -92 0
-623 -8 -93 0
-623 -8 -96 0
-623 -8 -97 0
-623 -8 -108 0
-623 -8 -109 0
-623 -8 -112 0
-623 -8 -113 0
-623 -8 -116 0
-623 -8 -117 0
-623 -9 169 0
-623 -9 -13 -20 0
-623 -9 -49 0
-623 -9 -93 0
-623 -9 -97 0
-623 -9 -109 0
-623 -9 -113 0
-623 -9 -117 0
-624 147 0
-624 163 0
-624 -1 0
-624 -2 0
-624 -3 0
-624 -5 0
-624 -6 0
-624 -10 0
-624 -7 167 0
-624 -7 -14 -18 0
-624 -7 -51 0
-624 -7 -52 0
-624 -7 -53 0
-624 -7 -95 0
-624 -7 -96 0
-624 -7 -97 0
-624 -7 -99 0
-624 -7 -100 0
-624 -7 -101 0
-624 -7 -111 0
-624 -7 -112 0
-624 -7 -113 0
-624 -7 -115 0
-624 -7 -116 0
-624 -7 -117 0
-624 -7 -119 0
-624 -7 -120 0
-624 -7 -121 0
-624 -8 168 0
-624 -8 -14 -19 0
-624 -8 -52 0
-624 -8 -53 0
-624 -8 -96 0
-624 -8 -97 0
-624 -8 -100 0
-624 -8 -101 0
-624 -8 -112 0
-624 -8 -113 0
-624 -8 -116 0
-624 -8 -117 0
-624 -8 -120 0
-624 -8 -121 0
-624 -9 169 0
-624 -9 -14 -20 0
-624 -9 -53 0
-624 -9 -97 0
-624 -9 -101 0
-624 -9 -113 0
-624 -9 -117 0
-624 -9 -121 0
-625 147 0
-625 164 0
-625 -1 0
-625 -2 0
-625 -3 0
-625 -4 0
-625 -6 0
-625 -10 0
-625 -7 167 0
-625 -7 -15 -18 0
-625 -7 -55 0
-625 -7 -56 0
-625 -7 -57 0
-625 -7 -99 0
-625 -7 -100 0
-625 -7 -101 0
-625 -7 -103 0
-625 -7 -104 0
-625 -7 -105 0
-625 -7 -115 0
-625 -7 -116 0
-625 -7 -117 0
-625 -7 -119 0
-625 -7 -120 0
-625 -7 -121 0
-625 -8 168 0
-625 -8 -15 -19 0
-625 -8 -56 0
-625 -8 -57 0
-625 -8 -100 0
-625 -8 -101 0
-625 -8 -104 0
-625 -8 -105 0
-625 -8 -116 0
-625 -8 -117 0
-625 -8 -120 0
-625 -8 -121 0
-625 -9 169 0
-625 -9 -15 -20 0
-625 -9 -57 0
-625 -9 -101 0
-625 -9 -105 0
-625 -9 -117 0
-625 -9 -121 0
-626 147 0
-626 165 0
-626 -1 0
-626 -2 0
-626 -3 0
-626 -4 0
-626 -5 0
-626 -10 0
-626 -7 167 0
-626 -7 -16 -18 0
-626 -7 -59 0
-626 -7 -60 0
-626 -7 -61 0
-626 -7 -103 0
-626 -7 -104 0
-626 -7 -105 0
-626 -7 -119 0
-626 -7 -120 0
-626 -7 -121 0
-626 -8 168 0
-626 -8 -16 -19 0
-626 -8 -60 0
-626 -8 -61 0
-626 -8 -104 0
-626 -8 -105 0
-626 -8 -120 0
-626 -8 -121 0
-626 -9 169 0
-626 -9 -16 -20 0
-626 -9 -61 0
-626 -9 -105 0
-626 -9 -121 0
-627 147 0
-627 160 0
-627 -22 0
-627 -23 0
-627 -24 0
-627 -25 0
-627 -29 0
-627 -26 167 0
-627 -26 -11 -18 0
-627 -26 -39 0
-627 -26 -40 0
-627 -26 -41 0
-627 -26 -87 0
-627 -26 -88 0
-627 -26 -89 0
-627 -26 -107 0
-627 -26 -108 0
-627 -26 -109 0
-627 -27 168 0
-627 -27 -11 -19 0
-627 -27 -40 0
-627 -27 -41 0
-627 -27 -88 0
-627 -27 -89 0
-627 -27 -108 0
-627 -27 -109 0
-627 -28 169 0
-627 -28 -11 -20 0
-627 -28 -41 0
-627 -28 -89 0
-627 -28 -109 0
-628 147 0
-628 161 0
-628 -23 0
-628 -24 0
-628 -25 0
-628 -29 0
-628 -26 167 0
-628 -26 -12 -18 0
-628 -26 -43 0
-628 -26 -44 0
-628 -26 -45 0
-628 -26 -87 0
-628 -26 -88 0
-628 -26 -89 0
-628 -26 -91 0
-628 -26 -92 0
-628 -26 -93 0
-628 -26 -107 0
-628 -26 -108 0
-628 -26 -109 0
-628 -26 -111 0
-628 -26 -112 0
-628 -26 -113 0
-628 -27 168 0
-628 -27 -12 -19 0
-628 -27 -44 0
-628 -27 -45 0
-628 -27 -88 0
-628 -27 -89 0
-628 -27 -92 0
-628 -27 -93 0
-628 -27 -108 0
-628 -27 -109 0
-628 -27 -112 0
-628 -27 -113 0
-628 -28 169 0
-628 -28 -12 -20 0
-628 -28 -45 0
-628 -28 -89 0
-628 -28 -93 0
-628 -28 -109 0
-628 -28 -113 0
-629 147 0
-629 162 0
-629 -21 0
-629 -24 0
-629 -25 0
-629 -29 0
-629 -26 167 0
-629 -26 -13 -18 0
-629 -26 -47 0
-629 -26 -48 0
-629 -26 -49 0
-629 -26 -91 0
-629 -26 -92 0
-629 -26 -93 0
-629 -26 -95 0
-629 -26 -96 0
-629 -26 -97 0
-629 -26 -107 0
-629 -26 -108 0
-629 -26 -109 0
-629 -26 -111 0
-629 -26 -112 0
-629 -26 -113 0
-629 -26 -115 0
-629 -26 -116 0
-629 -26 -117 0
-629 -27 168 0
-629 -27 -13 -19 0
-629 -27 -48 0
-629 -27 -49 0
-629 -27 -92 0
-629 -27 -93 0
-629 -27 -96 0
-629 -27 -97 0
-629 -27 -108 0
-629 -27 -109 0
-629 -27 -112 0
-629 -27 -113 0
-629 -27 -116 0
-629 -27 -117 0
-629 -28 169 0
-629 -28 -13 -20 0
-629 -28 -49 0
-629 -28 -93 0
-629 -28 -97 0
-629 -28 -109 0
-629 -28 -113 0
-629 -28 -117 0
-630 147 0
-630 163 0
-630 -21 0
-630 -22 0
-630 -25 0
-630 -29 0
-630 -26 167 0
-630 -26 -14 -18 0
-630 -26 -51 0
-630 -26 -52 0
-630 -26 -53 0
-630 -26 -95 0
-630 -26 -96 0
-630 -26 -97 0
-630 -26 -99 0
-630 -26 -100 0
-630 -26 -101 0
-630 -26 -111 0
-630 -26 -112 0
-630 -26 -113 0
-630 -26 -115 0
-630 -26 -116 0
-630 -26 -117 0
-630 -26 -119 0
-630 -26 -120 0
-630 -26 -121 0
-630 -27 168 0
-630 -27 -14 -19 0
-630 -27 -52 0
-630 -27 -53 0
-630 -27 -96 0
-630 -27 -97 0
-630 -27 -100 0
-630 -27 -101 0
-630 -27 -112 0
-630 -27 -113 0
-630 -27 -116 0
-630 -27 -117 0
-630 -27 -120 0
-630 -27 -121 0
-630 -28 169 0
-630 -28 -14 -20 0
-630 -28 -53 0
-630 -28 -97 0
-630 -28 -101 0
-630 -28 -113 0
-630 -28 -117 0
-630 -28 -121 0
-631 147 0
-631 164 0
-631 -21 0
-631 -22 0
-631 -23 0
-631 -29 0
-631 -26 167 0
-631 -26 -15 -18 0
-631 -26 -55 0
-631 -26 -56 0
-631 -26 -57 0
-631 -26 -99 0
-631 -26 -100 0
-631 -26 -101 0
-631 -26 -103 0
-631 -26 -104 0
-631 -26 -105 0
-631 -26 -115 0
-631 -26 -116 0
-631 -26 -117 0
-631 -26 -119 0
-631 -26 -120 0
-631 -26 -121 0
-631 -27 168 0
-631 -27 -15 -19 0
-631 -27 -56 0
-631 -27 -57 0
-631 -27 -100 0
-631 -27 -101 0
-631 -27 -104 0
-631 -27 -105 0
-631 -27 -116 0
-631 -27 -117 0
-631 -27 -120 0
-631 -27 -121 0
-631 -28 169 0
-631 -28 -15 -20 0
-631 -28 -57 0
-631 -28 -101 0
-631 -28 -105 0
-631 -28 -117 0
-631 -28 -121 0
-632 147 0
-632 165 0
-632 -21 0
-632 -22 0
-632 -23 0
-632 -24 0
-632 -29 0
-632 -26 167 0
-632 -26 -16 -18 0
-632 -26 -59 0
-632 -26 -60 0
-632 -26 -61 0
-632 -26 -103 0
-632 -26 -104 0
-632 -26 -105 0
-632 -26 -119 0
-632 -26 -120 0
-632 -26 -121 0
-632 -27 168 0
-632 -27 -16 -19 0
-632 -27 -60 0
-632 -27 -61 0
-632 -27 -104 0
-632 -27 -105 0
-632 -27 -120 0
-632 -27 -121 0
-632 -28 169 0
-632 -28 -16 -20 0
-632 -28 -61 0
-632 -28 -105 0
-632 -28 -121 0
-633 147 0
-633 160 0
-633 -31 0
-633 -32 0
-633 -33 0
-633 -37 0
-633 -34 167 0
-633 -34 -11 -18 0
-633 -34 -39 0
-633 -34 -40 0
-633 -34 -41 0
-633 -34 -87 0
-633 -34 -88 0
-633 -34 -89 0
-633 -34 -107 0
-633 -34 -108 0
-633 -34 -109 0
-633 -35 168 0
-633 -35 -11 -19 0
-633 -35 -40 0
-633 -35 -41 0
-633 -35 -88 0
-633 -35 -89 0
-633 -35 -108 0
-633 -35 -109 0
-633 -36 169 0
-633 -36 -11 -20 0
-633 -36 -41 0
-633 -36 -89 0
-633 -36 -109 0
-634 147 0
-634 161 0
-634 -32 0
-634 -33 0
-634 -37 0
-634 -34 167 0
-634 -34 -12 -18 0
-634 -34 -43 0
-634 -34 -44 0
-634 -34 -45 0
-634 -34 -87 0
-634 -34 -88 0
-634 -34 -89 0
-634 -34 -91 0
-634 -34 -92 0
-634 -34 -93 0
-634 -34 -107 0
-634 -34 -108 0
-634 -34 -109 0
-634 -34 -111 0
-634 -34 -112 0
-634 -34 -113 0
-634 -35 168 0
-634 -35 -12 -19 0
-634 -35 -44 0
-634 -35 -45 0
-634 -35 -88 0
-634 -35 -89 0
-634 -35 -92 0
-634 -35 -93 0
-634 -35 -108 0
-634 -35 -109 0
-634 -35 -112 0
-634 -35 -113 0
-634 -36 169 0
-634 -36 -12 -20 0
-634 -36 -45 0
-634 -36 -89 0
-634 -36 -93 0
-634 -36 -109 0
-634 -36 -113 0
-635 147 0
-635 162 0
-635 -33 0
-635 -37 0
-635 -34 167 0
-635 -34 -13 -18 0
-635 -34 -47 0
-635 -34 -48 0
-635 -34 -49 0
-635 -34 -91 0
-635 -34 -92 0
-635 -34 -93 0
-635 -34 -95 0
-635 -34 -96 0
-635 -34 -97 0
-635 -34 -107 0
-635 -34 -108 0
-635 -34 -109 0
-635 -34 -111 0
-635 -34 -112 0
-635 -34 -113 0
-635 -34 -115 0
-635 -34 -116 0
-635 -34 -117 0
-635 -35 168 0
-635 -35 -13 -19 0
-635 -35 -48 0
-635 -35 -49 0
-635 -35 -92 0
-635 -35 -93 0
-635 -35 -96 0
-635 -35 -97 0
-635 -35 -108 0
-635 -35 -109 0
-635 -35 -112 0
-635 -35 -113 0
-635 -35 -116 0
-635 -35 -117 0
-635 -36 169 0
-635 -36 -13 -20 0
-635 -36 -49 0
-635 -36 -93 0
-635 -36 -97 0
-635 -36 -109 0
-635 -36 -113 0
-635 -36 -117 0
-636 147 0
-636 163 0
-636 -30 0
-636 -37 0
-636 -34 167 0
-636 -34 -14 -18 0
-636 -34 -51 0
-636 -34 -52 0
-636 -34 -53 0
-636 -34 -95 0
-636 -34 -96 0
-636 -34 -97 0
-636 -34 -99 0
-636 -34 -100 0
-636 -34 -101 0
-636 -34 -111 0
-636 -34 -112 0
-636 -34 -113 0
-636 -34 -115 0
-636 -34 -116 0
-636 -34 -117 0
-636 -34 -119 0
-636 -34 -120 0
-636 -34 -121 0
-636 -35 168 0
-636 -35 -14 -19 0
-636 -35 -52 0
-636 -35 -53 0
-636 -35 -96 0
-636 -35 -97 0
-636 -35 -100 0
-636 -35 -101 0
-636 -35 -112 0
-636 -35 -113 0
-636 -35 -116 0
-636 -35 -117 0
-636 -35 -120 0
-636 -35 -121 0
-636 -36 169 0
-636 -36 -14 -20 0
-636 -36 -53 0
-636 -36 -97 0
-636 -36 -101 0
-636 -36 -113 0
-636 -36 -117 0
-636 -36 -121 0
-637 147 0
-637 164 0
-637 -30 0
-637 -31 0
-637 -37 0
-637 -34 167 0
-637 -34 -15 -18 0
-637 -34 -55 0
-637 -34 -56 0
-637 -34 -57 0
-637 -34 -99 0
-637 -34 -100 0
-637 -34 -101 0
-637 -34 -103 0
-637 -34 -104 0
-637 -34 -105 0
-637 -34 -115 0
-637 -34 -116 0
-637 -34 -117 0
-637 -34 -119 0
-637 -34 -120 0
-637 -34 -121 0
-637 -35 168 0
-637 -35 -15 -19 0
-637 -35 -56 0
-637 -35 -57 0
-637 -35 -100 0
-637 -35 -101 0
-637 -35 -104 0
-637 -35 -105 0
-637 -35 -116 0
-637 -35 -117 0
-637 -35 -120 0
-637 -35 -121 0
-637 -36 169 0
-637 -36 -15 -20 0
-637 -36 -57 0
-637 -36 -101 0
-637 -36 -105 0
-637 -36 -117 0
-637 -36 -121 0
-638 147 0
-638 165 0
-638 -30 0
-638 -31 0
-638 -32 0
-638 -37 0
-638 -34 167 0
-638 -34 -16 -18 0
-638 -34 -59 0
-638 -34 -60 0
-638 -34 -61 0
-638 -34 -103 0
-638 -34 -104 0
-638 -34 -105 0
-638 -34 -119 0
-638 -34 -120 0
-638 -34 -121 0
-638 -35 168 0
-638 -35 -16 -19 0
-638 -35 -60 0
-638 -35 -61 0
-638 -35 -104 0
-638 -35 -105 0
-638 -35 -120 0
-638 -35 -121 0
-638 -36 169 0
-638 -36 -16 -20 0
-638 -36 -61 0
-638 -36 -105 0
-638 -36 -121 0
-639 147 0
-639 160 0
-639 166 0
-639 -11 -17 0
-639 -38 0
-639 -39 0
-639 -40 0
-639 -41 0
-639 -86 0
-639 -87 0
-639 -88 0
-639 -89 0
-639 -106 0
-639 -107 0
-639 -108 0
-639 -109 0
-640 147 0
-640 161 0
-640 166 0
-640 -12 -17 0
-640 -42 0
-640 -43 0
-640 -44 0
-640 -45 0
-640 -86 0
-640 -87 0
-640 -88 0
-640 -89 0
-640 -90 0
-640 -91 0
-640 -92 0
-640 -93 0
-640 -106 0
-640 -107 0
-640 -108 0
-640 -109 0
-640 -110 0
-640 -111 0
-640 -112 0
-640 -113 0
-641 147 0
-641 162 0
-641 166 0
-641 -13 -17 0
-641 -46 0
-641 -47 0
-641 -48 0
-641 -49 0
-641 -90 0
-641 -91 0
-641 -92 0
-641 -93 0
-641 -94 0
-641 -95 0
-641 -96 0
-641 -97 0
-641 -106 0
-641 -107 0
-641 -108 0
-641 -109 0
-641 -110 0
-641 -111 0
-641 -112 0
-641 -113 0
-641 -114 0
-641 -115 0
-641 -116 0
-641 -117 0
-642 147 0
-642 163 0
-642 166 0
-642 -14 -17 0
-642 -50 0
-642 -51 0
-642 -52 0
-642 -53 0
-642 -94 0
-642 -95 0
-642 -96 0
-642 -97 0
-642 -98 0
-642 -99 0
-642 -100 0
-642 -101 0
-642 -110 0
-642 -111 0
-642 -112 0
-642 -113 0
-642 -114 0
-642 -115 0
-642 -116 0
-642 -117 0
-642 -118 0
-642 -119 0
-642 -120 0
-642 -121 0
-643 147 0
-643 164 0
-643 166 0
-643 -15 -17 0
-643 -54 0
-643 -55 0
-643 -56 0
-643 -57 0
-643 -98 0
-643 -99 0
-643 -100 0
-643 -101 0
-643 -102 0
-643 -103 0
-643 -104 0
-643 -105 0
-643 -114 0
-643 -115 0
-643 -116 0
-643 -117 0
-643 -118 0
-643 -119 0
-643 -120 0
-643 -121 0
-644 147 0
-644 165 0
-644 166 0
-644 -16 -17 0
-644 -58 0
-644 -59 0
-644 -60 0
-644 -61 0
-644 -102 0
-644 -103 0
-644 -104 0
-644 -105 0
-644 -118 0
-644 -119 0
-644 -120 0
-644 -121 0
-645 148 0
-645 170 0
-645 -3 0
-645 -4 0
-645 -5 0
-645 -6 0
-645 -10 0
-645 -7 176 0
-645 -7 -21 -27 0
-645 -7 -39 0
-645 -7 -40 0
-645 -7 -41 0
-645 -7 -43 0
-645 -7 -44 0
-645 -7 -45 0
-645 -7 -63 0
-645 -7 -64 0
-645 -7 -65 0
-645 -7 -67 0
-645 -7 -68 0
-645 -7 -69 0
-645 -7 -107 0
-645 -7 -108 0
-645 -7 -109 0
-645 -7 -111 0
-645 -7 -112 0
-645 -7 -113 0
-645 -8 177 0
-645 -8 -21 -28 0
-645 -8 -40 0
-645 -8 -41 0
-645 -8 -44 0
-645 -8 -45 0
-645 -8 -64 0
-645 -8 -65 0
-645 -8 -68 0
-645 -8 -69 0
-645 -8 -108 0
-645 -8 -109 0
-645 -8 -112 0
-645 -8 -113 0
-645 -9 178 0
-645 -9 -21 -29 0
-645 -9 -41 0
-645 -9 -45 0
-645 -9 -65 0
-645 -9 -69 0
-645 -9 -109 0
-645 -9 -113 0
-646 148 0
-646 171 0
-646 -1 0
-646 -4 0
-646 -5 0
-646 -6 0
-646 -10 0
-646 -7 176 0
-646 -7 -22 -27 0
-646 -7 -43 0
-646 -7 -44 0
-646 -7 -45 0
-646 -7 -47 0
-646 -7 -48 0
-646 -7 -49 0
-646 -7 -67 0
-646 -7 -68 0
-646 -7 -69 0
-646 -7 -71 0
-646 -7 -72 0
-646 -7 -73 0
-646 -7 -107 0
-646 -7 -108 0
-646 -7 -109 0
-646 -7 -111 0
-646 -7 -112 0
-646 -7 -113 0
-646 -7 -115 0
-646 -7 -116 0
-646 -7 -117 0
-646 -8 177 0
-646 -8 -22 -28 0
-646 -8 -44 0
-646 -8 -45 0
-646 -8 -48 0
-646 -8 -49 0
-646 -8 -68 0
-646 -8 -69 0
-646 -8 -72 0
-646 -8 -73 0
-646 -8 -108 0
-646 -8 -109 0
-646 -8 -112 0
-646 -8 -113 0
-646 -8 -116 0
-646 -8 -117 0
-646 -9 178 0
-646 -9 -22 -29 0
-646 -9 -45 0
-646 -9 -49 0
-646 -9 -69 0
-646 -9 -73 0
-646 -9 -109 0
-646 -9 -113 0
-646 -9 -117 0
-647 148 0
-647 172 0
-647 -1 0
-647 -2 0
-647 -5 0
-647 -6 0
-647 -10 0
-647 -7 176 0
-647 -7 -23 -27 0
-647 -7 -47 0
-647 -7 -48 0
-647 -7 -49 0
-647 -7 -51 0
-647 -7 -52 0
-647 -7 -53 0
-647 -7 -71 0
-647 -7 -72 0
-647 -7 -73 0
-647 -7 -75 0
-647 -7 -76 0
-647 -7 -77 0
-647 -7 -107 0
-647 -7 -108 0
-647 -7 -109 0
-647 -7 -111 0
-647 -7 -112 0
-647 -7 -113 0
-647 -7 -115 0
-647 -7 -116 0
-647 -7 -117 0
-647 -7 -119 0
-647 -7 -120 0
-647 -7 -121 0
-647 -8 177 0
-647 -8 -23 -28 0
-647 -8 -48 0
-647 -8 -49 0
-647 -8 -52 0
-647 -8 -53 0
-647 -8 -72 0
-647 -8 -73 0
-647 -8 -76 0
-647 -8 -77 0
-647 -8 -108 0
-647 -8 -109 0
-647 -8 -112 0
-647 -8 -113 0
-647 -8 -116 0
-647 -8 -117 0
-647 -8 -120 0
-647 -8 -121 0
-647 -9 178 0
-647 -9 -23 -29 0
-647 -9 -49 0
-647 -9 -53 0
-647 -9 -73 0
-647 -9 -77 0
-647 -9 -109 0
-647 -9 -113 0
-647 -9 -117 0
-647 -9 -121 0
-648 148 0
-648 173 0
-648 -1 0
-648 -2 0
-648 -3 0
-648 -6 0
-648 -10 0
-648 -7 176 0
-648 -7 -24 -27 0
-648 -7 -51 0
-648 -7 -52 0
-648 -7 -53 0
-648 -7 -55 0
-648 -7 -56 0
-648 -7 -57 0
-648 -7 -75 0
-648 -7 -76 0
-648 -7 -77 0
-648 -7 -79 0
-648 -7 -80 0
-648 -7 -81 0
-648 -7 -111 0
-648 -7 -112 0
-648 -7 -113 0
-648 -7 -115 0
-648 -7 -116 0
-648 -7 -117 0
-648 -7 -119 0
-648 -7 -120 0
-648 -7 -121 0
-648 -8 177 0
-648 -8 -24 -28 0
-648 -8 -52 0
-648 -8 -53 0
-648 -8 -56 0
-648 -8 -57 0
-648 -8 -76 0
-648 -8 -77 0
-648 -8 -80 0
-648 -8 -81 0
-648 -8 -112 0
-648 -8 -113 0
-648 -8 -116 0
-648 -8 -117 0
-648 -8 -120 0
-648 -8 -121 0
-648 -9 178 0
-648 -9 -24 -29 0
-648 -9 -53 0
-648 -9 -57 0
-648 -9 -77 0
-648 -9 -81 0
-648 -9 -113 0
-648 -9 -117 0
-648 -9 -121 0
-649 148 0
-649 174 0
-649 -1 0
-649 -2 0
-649 -3 0
-649 -4 0
-649 -10 0
-649 -7 176 0
-649 -7 -25 -27 0
-649 -7 -55 0
-649 -7 -56 0
-649 -7 -57 0
-649 -7 -59 0
-649 -7 -60 0
-649 -7 -61 0
-649 -7 -79 0
-649 -7 -80 0
-649 -7 -81 0
-649 -7 -83 0
-649 -7 -84 0
-649 -7 -85 0
-649 -7 -115 0
-649 -7 -116 0
-649 -7 -117 0
-649 -7 -119 0
-649 -7 -120 0
-649 -7 -121 0
-649 -8 177 0
-649 -8 -25 -28 0
-649 -8 -56 0
-649 -8 -57 0
-649 -8 -60 0
-649 -8 -61 0
-649 -8 -80 0
-649 -8 -81 0
-649 -8 -84 0
-649 -8 -85 0
-649 -8 -116 0
-649 -8 -117 0
-649 -8 -120 0
-649 -8 -121 0
-649 -9 178 0
-649 -9 -25 -29 0
-649 -9 -57 0
-649 -9 -61 0
-649 -9 -81 0
-649 -9 -85 0
-649 -9 -117 0
-649 -9 -121 0
-650 148 0
-650 170 0
-650 -13 0
-650 -14 0
-650 -15 0
-650 -16 0
-650 -20 0
-650 -17 176 0
-650 -17 -21 -27 0
-650 -17 -39 0
-650 -17 -40 0
-650 -17 -41 0
-650 -17 -43 0
-650 -17 -44 0
-650 -17 -45 0
-650 -17 -63 0
-650 -17 -64 0
-650 -17 -65 0
-650 -17 -67 0
-650 -17 -68 0
-650 -17 -69 0
-650 -17 -107 0
-650 -17 -108 0
-650 -17 -109 0
-650 -17 -111 0
-650 -17 -112 0
-650 -17 -113 0
-650 -18 177 0
-650 -18 -21 -28 0
-650 -18 -40 0
-650 -18 -41 0
-650 -18 -44 0
-650 -18 -45 0
-650 -18 -64 0
-650 -18 -65 0
-650 -18 -68 0
-650 -18 -69 0
-650 -18 -108 0
-650 -18 -109 0
-650 -18 -112 0
-650 -18 -113 0
-650 -19 178 0
-650 -19 -21 -29 0
-650 -19 -41 0
-650 -19 -45 0
-650 -19 -65 0
-650 -19 -69 0
-650 -19 -109 0
-650 -19 -113 0
-651 148 0
-651 171 0
-651 -11 0
-651 -14 0
-651 -15 0
-651 -16 0
-651 -20 0
-651 -17 176 0
-651 -17 -22 -27 0
-651 -17 -43 0
-651 -17 -44 0
-651 -17 -45 0
-651 -17 -47 0
-651 -17 -48 0
-651 -17 -49 0
-651 -17 -67 0
-651 -17 -68 0
-651 -17 -69 0
-651 -17 -71 0
-651 -17 -72 0
-651 -17 -73 0
-651 -17 -107 0
-651 -17 -108 0
-651 -17 -109 0
-651 -17 -111 0
-651 -17 -112 0
-651 -17 -113 0
-651 -17 -115 0
-651 -17 -116 0
-651 -17 -117 0
-651 -18 177 0
-651 -18 -22 -28 0
-651 -18 -44 0
-651 -18 -45 0
-651 -18 -48 0
-651 -18 -49 0
-651 -18 -68 0
-651 -18 -69 0
-651 -18 -72 0
-651 -18 -73 0
-651 -18 -108 0
-651 -18 -109 0
-651 -18 -112 0
-651 -18 -113 0
-651 -18 -116 0
-651 -18 -117 0
-651 -19 178 0
-651 -19 -22 -29 0
-651 -19 -45 0
-651 -19 -49 0
-651 -19 -69 0
-651 -19 -73 0
-651 -19 -109 0
-651 -19 -113 0
-651 -19 -117 0
-652 148 0
-652 172 0
-652 -11 0
-652 -12 0
-652 -15 0
-652 -16 0
-652 -20 0
-652 -17 176 0
-652 -17 -23 -27 0
-652 -17 -47 0
-652 -17 -48 0
-652 -17 -49 0
-652 -17 -51 0
-652 -17 -52 0
-652 -17 -53 0
-652 -17 -71 0
-652 -17 -72 0
-652 -17 -73 0
-652 -17 -75 0
-652 -17 -76 0
-652 -17 -77 0
-652 -17 -107 0
-652 -17 -108 0
-652 -17 -109 0
-652 -17 -111 0
-652 -17 -112 0
-652 -17 -113 0
-652 -17 -115 0
-652 -17 -116 0
-652 -17 -117 0
-652 -17 -119 0
-652 -17 -120 0
-652 -17 -121 0
-652 -18 177 0
-652 -18 -23 -28 0
-652 -18 -48 0
-652 -18 -49 0
-652 -18 -52 0
-652 -18 -53 0
-652 -18 -72 0
-652 -18 -73 0
-652 -18 -76 0
-652 -18 -77 0
-652 -18 -108 0
-652 -18 -109 0
-652 -18 -112 0
-652 -18 -113 0
-652 -18 -116 0
-652 -18 -117 0
-652 -18 -120 0
-652 -18 -121 0
-652 -19 178 0
-652 -19 -23 -29 0
-652 -19 -49 0
-652 -19 -53 0
-652 -19 -73 0
-652 -19 -77 0
-652 -19 -109 0
-652 -19 -113 0
-652 -19 -117 0
-652 -19 -121 0
-653 148 0
-653 173 0
-653 -11 0
-653 -12 0
-653 -13 0
-653 -16 0
-653 -20 0
-653 -17 176 0
-653 -17 -24 -27 0
-653 -17 -51 0
-653 -17 -52 0
-653 -17 -53 0
-653 -17 -55 0
-653 -17 -56 0
-653 -17 -57 0
-653 -17 -75 0
-653 -17 -76 0
-653 -17 -77 0
-653 -17 -79 0
-653 -17 -80 0
-653 -17 -81 0
-653 -17 -111 0
-653 -17 -112 0
-653 -17 -113 0
-653 -17 -115 0
-653 -17 -116 0
-653 -17 -117 0
-653 -17 -119 0
-653 -17 -120 0
-653 -17 -121 0
-653 -18 177 0
-653 -18 -24 -28 0
-653 -18 -52 0
-653 -18 -53 0
-653 -18 -56 0
-653 -18 -57 0
-653 -18 -76 0
-653 -18 -77 0
-653 -18 -80 0
-653 -18 -81 0
-653 -18 -112 0
-653 -18 -113 0
-653 -18 -116 0
-653 -18 -117 0
-653 -18 -120 0
-653 -18 -121 0
-653 -19 178 0
-653 -19 -24 -29 0
-653 -19 -53 0
-653 -19 -57 0
-653 -19 -77 0
-653 -19 -81 0
-653 -19 -113 0
-653 -19 -117 0
-653 -19 -121 0
-654 148 0
-654 174 0
-654 -11 0
-654 -12 0
-654 -13 0
-654 -14 0
-654 -20 0
-654 -17 176 0
-654 -17 -25 -27 0
-654 -17 -55 0
-654 -17 -56 0
-654 -17 -57 0
-654 -17 -59 0
-654 -17 -60 0
-654 -17 -61 0
-654 -17 -79 0
-654 -17 -80 0
-654 -17 -81 0
-654 -17 -83 0
-654 -17 -84 0
-654 -17 -85 0
-654 -17 -115 0
-654 -17 -116 0
-654 -17 -117 0
-654 -17 -119 0
-654 -17 -120 0
-654 -17 -121 0
-654 -18 177 0
-654 -18 -25 -28 0
-654 -18 -56 0
-654 -18 -57 0
-654 -18 -60 0
-654 -18 -61 0
-654 -18 -80 0
-654 -18 -81 0
-654 -18 -84 0
-654 -18 -85 0
-654 -18 -116 0
-654 -18 -117 0
-654 -18 -120 0
-654 -18 -121 0
-654 -19 178 0
-654 -19 -25 -29 0
-654 -19 -57 0
-654 -19 -61 0
-654 -19 -81 0
-654 -19 -85 0
-654 -19 -117 0
-654 -19 -121 0
-655 148 0
-655 170 0
-655 -32 0
-655 -33 0
-655 -37 0
-655 -34 176 0
-655 -34 -21 -27 0
-655 -34 -39 0
-655 -34 -40 0
-655 -34 -41 0
-655 -34 -43 0
-655 -34 -44 0
-655 -34 -45 0
-655 -34 -63 0
-655 -34 -64 0
-655 -34 -65 0
-655 -34 -67 0
-655 -34 -68 0
-655 -34 -69 0
-655 -34 -107 0
-655 -34 -108 0
-655 -34 -109 0
-655 -34 -111 0
-655 -34 -112 0
-655 -34 -113 0
-655 -35 177 0
-655 -35 -21 -28 0
-655 -35 -40 0
-655 -35 -41 0
-655 -35 -44 0
-655 -35 -45 0
-655 -35 -64 0
-655 -35 -65 0
-655 -35 -68 0
-655 -35 -69 0
-655 -35 -108 0
-655 -35 -109 0
-655 -35 -112 0
-655 -35 -113 0
-655 -36 178 0
-655 -36 -21 -29 0
-655 -36 -41 0
-655 -36 -45 0
-655 -36 -65 0
-655 -36 -69 0
-655 -36 -109 0
-655 -36 -113 0
-656 148 0
-656 171 0
-656 -33 0
-656 -37 0
-656 -34 176 0
-656 -34 -22 -27 0
-656 -34 -43 0
-656 -34 -44 0
-656 -34 -45 0
-656 -34 -47 0
-656 -34 -48 0
-656 -34 -49 0
-656 -34 -67 0
-656 -34 -68 0
-656 -34 -69 0
-656 -34 -71 0
-656 -34 -72 0
-656 -34 -73 0
-656 -34 -107 0
-656 -34 -108 0
-656 -34 -109 0
-656 -34 -111 0
-656 -34 -112 0
-656 -34 -113 0
-656 -34 -115 0
-656 -34 -116 0
-656 -34 -117 0
-656 -35 177 0
-656 -35 -22 -28 0
-656 -35 -44 0
-656 -35 -45 0
-656 -35 -48 0
-656 -35 -49 0
-656 -35 -68 0
-656 -35 -69 0
-656 -35 -72 0
-656 -35 -73 0
-656 -35 -108 0
-656 -35 -109 0
-656 -35 -112 0
-656 -35 -113 0
-656 -35 -116 0
-656 -35 -117 0
-656 -36 178 0
-656 -36 -22 -29 0
-656 -36 -45 0
-656 -36 -49 0
-656 -36 -69 0
-656 -36 -73 0
-656 -36 -109 0
-656 -36 -113 0
-656 -36 -117 0
-657 148 0
-657 172 0
-657 -37 0
-657 -34 176 0
-657 -34 -23 -27 0
-657 -34 -47 0
-657 -34 -48 0
-657 -34 -49 0
-657 -34 -51 0
-657 -34 -52 0
-657 -34 -53 0
-657 -34 -71 0
-657 -34 -72 0
-657 -34 -73 0
-657 -34 -75 0
-657 -34 -76 0
-657 -34 -77 0
-657 -34 -107 0
-657 -34 -108 0
-657 -34 -109 0
-657 -34 -111 0
-657 -34 -112 0
-657 -34 -113 0
-657 -34 -115 0
-657 -34 -116 0
-657 -34 -117 0
-657 -34 -119 0
-657 -34 -120 0
-657 -34 -121 0
-657 -35 177 0
-657 -35 -23 -28 0
-657 -35 -48 0
-657 -35 -49 0
-657 -35 -52 0
-657 -35 -53 0
-657 -35 -72 0
-657 -35 -73 0
-657 -35 -76 0
-657 -35 -77 0
-657 -35 -108 0
-657 -35 -109 0
-657 -35 -112 0
-657 -35 -113 0
-657 -35 -116 0
-657 -35 -117 0
-657 -35 -120 0
-657 -35 -121 0
-657 -36 178 0
-657 -36 -23 -29 0
-657 -36 -49 0
-657 -36 -53 0
-657 -36 -73 0
-657 -36 -77 0
-657 -36 -109 0
-657 -36 -113 0
-657 -36 -117 0
-657 -36 -121 0
-658 148 0
-658 173 0
-658 -30 0
-658 -37 0
-658 -34 176 0
-658 -34 -24 -27 0
-658 -34 -51 0
-658 -34 -52 0
-658 -34 -53 0
-658 -34 -55 0
-658 -34 -56 0
-658 -34 -57 0
-658 -34 -75 0
-658 -34 -76 0
-658 -34 -77 0
-658 -34 -79 0
-658 -34 -80 0
-658 -34 -81 0
-658 -34 -111 0
-658 -34 -112 0
-658 -34 -113 0
-658 -34 -115 0
-658 -34 -116 0
-658 -34 -117 0
-658 -34 -119 0
-658 -34 -120 0
-658 -34 -121 0
-658 -35 177 0
-658 -35 -24 -28 0
-658 -35 -52 0
-658 -35 -53 0
-658 -35 -56 0
-658 -35 -57 0
-658 -35 -76 0
-658 -35 -77 0
-658 -35 -80 0
-658 -35 -81 0
-658 -35 -112 0
-658 -35 -113 0
-658 -35 -116 0
-658 -35 -117 0
-658 -35 -120 0
-658 -35 -121 0
-658 -36 178 0
-658 -36 -24 -29 0
-658 -36 -53 0
-658 -36 -57 0
-658 -36 -77 0
-658 -36 -81 0
-658 -36 -113 0
-658 -36 -117 0
-658 -36 -121 0
-659 148 0
-659 174 0
-659 -30 0
-659 -31 0
-659 -37 0
-659 -34 176 0
-659 -34 -25 -27 0
-659 -34 -55 0
-659 -34 -56 0
-659 -34 -57 0
-659 -34 -59 0
-659 -34 -60 0
-659 -34 -61 0
-659 -34 -79 0
-659 -34 -80 0
-659 -34 -81 0
-659 -34 -83 0
-659 -34 -84 0
-659 -34 -85 0
-659 -34 -115 0
-659 -34 -116 0
-659 -34 -117 0
-659 -34 -119 0
-659 -34 -120 0
-659 -34 -121 0
-659 -35 177 0
-659 -35 -25 -28 0
-659 -35 -56 0
-659 -35 -57 0
-659 -35 -60 0
-659 -35 -61 0
-659 -35 -80 0
-659 -35 -81 0
-659 -35 -84 0
-659 -35 -85 0
-659 -35 -116 0
-659 -35 -117 0
-659 -35 -120 0
-659 -35 -121 0
-659 -36 178 0
-659 -36 -25 -29 0
-659 -36 -57 0
-659 -36 -61 0
-659 -36 -81 0
-659 -36 -85 0
-659 -36 -117 0
-659 -36 -121 0
-660 148 0
-660 170 0
-660 175 0
-660 -21 -26 0
-660 -38 0
-660 -39 0
-660 -40 0
-660 -41 0
-660 -42 0
-660 -43 0
-660 -44 0
-660 -45 0
-660 -62 0
-660 -63 0
-660 -64 0
-660 -65 0
-660 -66 0
-660 -67 0
-660 -68 0
-660 -69 0
-660 -106 0
-660 -107 0
-660 -108 0
-660 -109 0
-660 -110 0
-660 -111 0
-660 -112 0
-660 -113 0
-661 148 0
-661 171 0
-661 175 0
-661 -22 -26 0
-661 -42 0
-661 -43 0
-661 -44 0
-661 -45 0
-661 -46 0
-661 -47 0
-661 -48 0
-661 -49 0
-661 -66 0
-661 -67 0
-661 -68 0
-661 -69 0
-661 -70 0
-661 -71 0
-661 -72 0
-661 -73 0
-661 -106 0
-661 -107 0
-661 -108 0
-661 -109 0
-661 -110 0
-661 -111 0
-661 -112 0
-661 -113 0
-661 -114 0
-661 -115 0
-661 -116 0
-661 -117 0
-662 148 0
-662 172 0
-662 175 0
-662 -23 -26 0
-662 -46 0
-662 -47 0
-662 -48 0
-662 -49 0
-662 -50 0
-662 -51 0
-662 -52 0
-662 -53 0
-662 -70 0
-662 -71 0
-662 -72 0
-662 -73 0
-662 -74 0
-662 -75 0
-662 -76 0
-662 -77 0
-662 -106 0
-662 -107 0
-662 -108 0
-662 -109 0
-662 -110 0
-662 -111 0
-662 -112 0
-662 -113 0
-662 -114 0
-662 -115 0
-662 -116 0
-662 -117 0
-662 -118 0
-662 -119 0
-662 -120 0
-662 -121 0
-663 148 0
-663 173 0
-663 175 0
-663 -24 -26 0
-663 -50 0
-663 -51 0
-663 -52 0
-663 -53 0
-663 -54 0
-663 -55 0
-663 -56 0
-663 -57 0
-663 -74 0
-663 -75 0
-663 -76 0
-663 -77 0
-663 -78 0
-663 -79 0
-663 -80 0
-663 -81 0
-663 -110 0
-663 -111 0
-663 -112 0
-663 -113 0
-663 -114 0
-663 -115 0
-663 -116 0
-663 -117 0
-663 -118 0
-663 -119 0
-663 -120 0
-663 -121 0
-664 148 0
-664 174 0
-664 175 0
-664 -25 -26 0
-664 -54 0
-664 -55 0
-664 -56 0
-664 -57 0
-664 -58 0
-664 -59 0
-664 -60 0
-664 -61 0
-664 -78 0
-664 -79 0
-664 -80 0
-664 -81 0
-664 -82 0
-664 -83 0
-664 -84 0
-664 -85 0
-664 -114 0
-664 -115 0
-664 -116 0
-664 -117 0
-664 -118 0
-664 -119 0
-664 -120 0
-664 -121 0
-665 149 0
-665 179 0
-665 -4 0
-665 -5 0
-665 -6 0
-665 -10 0
-665 -7 184 0
-665 -7 -30 -35 0
-665 -7 -39 0
-665 -7 -40 0
-665 -7 -41 0
-665 -7 -43 0
-665 -7 -44 0
-665 -7 -45 0
-665 -7 -47 0
-665 -7 -48 0
-665 -7 -49 0
-665 -7 -63 0
-665 -7 -64 0
-665 -7 -65 0
-665 -7 -67 0
-665 -7 -68 0
-665 -7 -69 0
-665 -7 -71 0
-665 -7 -72 0
-665 -7 -73 0
-665 -7 -87 0
-665 -7 -88 0
-665 -7 -89 0
-665 -7 -91 0
-665 -7 -92 0
-665 -7 -93 0
-665 -7 -95 0
-665 -7 -96 0
-665 -7 -97 0
-665 -8 185 0
-665 -8 -30 -36 0
-665 -8 -40 0
-665 -8 -41 0
-665 -8 -44 0
-665 -8 -45 0
-665 -8 -48 0
-665 -8 -49 0
-665 -8 -64 0
-665 -8 -65 0
-665 -8 -68 0
-665 -8 -69 0
-665 -8 -72 0
-665 -8 -73 0
-665 -8 -88 0
-665 -8 -89 0
-665 -8 -92 0
-665 -8 -93 0
-665 -8 -96 0
-665 -8 -97 0
-665 -9 186 0
-665 -9 -30 -37 0
-665 -9 -41 0
-665 -9 -45 0
-665 -9 -49 0
-665 -9 -65 0
-665 -9 -69 0
-665 -9 -73 0
-665 -9 -89 0
-665 -9 -93 0
-665 -9 -97 0
-666 149 0
-666 180 0
-666 -1 0
-666 -5 0
-666 -6 0
-666 -10 0
-666 -7 184 0
-666 -7 -31 -35 0
-666 -7 -43 0
-666 -7 -44 0
-666 -7 -45 0
-666 -7 -47 0
-666 -7 -48 0
-666 -7 -49 0
-666 -7 -51 0
-666 -7 -52 0
-666 -7 -53 0
-666 -7 -67 0
-666 -7 -68 0
-666 -7 -69 0
-666 -7 -71 0
-666 -7 -72 0
-666 -7 -73 0
-666 -7 -75 0
-666 -7 -76 0
-666 -7 -77 0
-666 -7 -87 0
-666 -7 -88 0
-666 -7 -89 0
-666 -7 -91 0
-666 -7 -92 0
-666 -7 -93 0
-666 -7 -95 0
-666 -7 -96 0
-666 -7 -97 0
-666 -7 -99 0
-666 -7 -100 0
-666 -7 -101 0
-666 -8 185 0
-666 -8 -31 -36 0
-666 -8 -44 0
-666 -8 -45 0
-666 -8 -48 0
-666 -8 -49 0
-666 -8 -52 0
-666 -8 -53 0
-666 -8 -68 0
-666 -8 -69 0
-666 -8 -72 0
-666 -8 -73 0
-666 -8 -76 0
-666 -8 -77 0
-666 -8 -88 0
-666 -8 -89 0
-666 -8 -92 0
-666 -8 -93 0
-666 -8 -96 0
-666 -8 -97 0
-666 -8 -100 0
-666 -8 -101 0
-666 -9 186 0
-666 -9 -31 -37 0
-666 -9 -45 0
-666 -9 -49 0
-666 -9 -53 0
-666 -9 -69 0
-666 -9 -73 0
-666 -9 -77 0
-666 -9 -89 0
-666 -9 -93 0
-666 -9 -97 0
-666 -9 -101 0
-667 149 0
-667 181 0
-667 -1 0
-667 -2 0
-667 -6 0
-667 -10 0
-667 -7 184 0
-667 -7 -32 -35 0
-667 -7 -47 0
-667 -7 -48 0
-667 -7 -49 0
-667 -7 -51 0
-667 -7 -52 0
-667 -7 -53 0
-667 -7 -55 0
-667 -7 -56 0
-667 -7 -57 0
-667 -7 -71 0
-667 -7 -72 0
-667 -7 -73 0
-667 -7 -75 0
-667 -7 -76 0
-667 -7 -77 0
-667 -7 -79 0
-667 -7 -80 0
-667 -7 -81 0
-667 -7 -91 0
-667 -7 -92 0
-667 -7 -93 0
-667 -7 -95 0
-667 -7 -96 0
-667 -7 -97 0
-667 -7 -99 0
-667 -7 -100 0
-667 -7 -101 0
-667 -7 -103 0
-667 -7 -104 0
-667 -7 -105 0
-667 -8 185 0
-667 -8 -32 -36 0
-667 -8 -48 0
-667 -8 -49 0
-667 -8 -52 0
-667 -8 -53 0
-667 -8 -56 0
-667 -8 -57 0
-667 -8 -72 0
-667 -8 -73 0
-667 -8 -76 0
-667 -8 -77 0
-667 -8 -80 0
-667 -8 -81 0
-667 -8 -92 0
-667 -8 -93 0
-667 -8 -96 0
-667 -8 -97 0
-667 -8 -100 0
-667 -8 -101 0
-667 -8 -104 0
-667 -8 -105 0
-667 -9 186 0
-667 -9 -32 -37 0
-667 -9 -49 0
-667 -9 -53 0
-667 -9 -57 0
-667 -9 -73 0
-667 -9 -77 0
-667 -9 -81 0
-667 -9 -93 0
-667 -9 -97 0
-667 -9 -101 0
-667 -9 -105 0
-668 149 0
-668 182 0
-668 -1 0
-668 -2 0
-668 -3 0
-668 -10 0
-668 -7 184 0
-668 -7 -33 -35 0
-668 -7 -51 0
-668 -7 -52 0
-668 -7 -53 0
-668 -7 -55 0
-668 -7 -56 0
-668 -7 -57 0
-668 -7 -59 0
-668 -7 -60 0
-668 -7 -61 0
-668 -7 -75 0
-668 -7 -76 0
-668 -7 -77 0
-668 -7 -79 0
-668 -7 -80 0
-668 -7 -81 0
-668 -7 -83 0
-668 -7 -84 0
-668 -7 -85 0
-668 -7 -95 0
-668 -7 -96 0
-668 -7 -97 0
-668 -7 -99 0
-668 -7 -100 0
-668 -7 -101 0
-668 -7 -103 0
-668 -7 -104 0
-668 -7 -105 0
-668 -8 185 0
-668 -8 -33 -36 0
-668 -8 -52 0
-668 -8 -53 0
-668 -8 -56 0
-668 -8 -57 0
-668 -8 -60 0
-668 -8 -61 0
-668 -8 -76 0
-668 -8 -77 0
-668 -8 -80 0
-668 -8 -81 0
-668 -8 -84 0
-668 -8 -85 0
-668 -8 -96 0
-668 -8 -97 0
-668 -8 -100 0
-668 -8 -101 0
-668 -8 -104 0
-668 -8 -105 0
-668 -9 186 0
-668 -9 -33 -37 0
-668 -9 -53 0
-668 -9 -57 0
-668 -9 -61 0
-668 -9 -77 0
-668 -9 -81 0
-668 -9 -85 0
-668 -9 -97 0
-668 -9 -101 0
-668 -9 -105 0
-669 149 0
-669 179 0
-669 -14 0
-669 -15 0
-669 -16 0
-669 -20 0
-669 -17 184 0
-669 -17 -30 -35 0
-669 -17 -39 0
-669 -17 -40 0
-669 -17 -41 0
-669 -17 -43 0
-669 -17 -44 0
-669 -17 -45 0
-669 -17 -47 0
-669 -17 -48 0
-669 -17 -49 0
-669 -17 -63 0
-669 -17 -64 0
-669 -17 -65 0
-669 -17 -67 0
-669 -17 -68 0
-669 -17 -69 0
-669 -17 -71 0
-669 -17 -72 0
-669 -17 -73 0
-669 -17 -87 0
-669 -17 -88 0
-669 -17 -89 0
-669 -17 -91 0
-669 -17 -92 0
-669 -17 -93 0
-669 -17 -95 0
-669 -17 -96 0
-669 -17 -97 0
-669 -18 185 0
-669 -18 -30 -36 0
-669 -18 -40 0
-669 -18 -41 0
-669 -18 -44 0
-669 -18 -45 0
-669 -18 -48 0
-669 -18 -49 0
-669 -18 -64 0
-669 -18 -65 0
-669 -18 -68 0
-669 -18 -69 0
-669 -18 -72 0
-669 -18 -73 0
-669 -18 -88 0
-669 -18 -89 0
-669 -18 -92 0
-669 -18 -93 0
-669 -18 -96 0
-669 -18 -97 0
-669 -19 186 0
-669 -19 -30 -37 0
-669 -19 -41 0
-669 -19 -45 0
-669 -19 -49 0
-669 -19 -65 0
-669 -19 -69 0
-669 -19 -73 0
-669 -19 -89 0
-669 -19 -93 0
-669 -19 -97 0
-670 149 0
-670 180 0
-670 -11 0
-670 -15 0
-670 -16 0
-670 -20 0
-670 -17 184 0
-670 -17 -31 -35 0
-670 -17 -43 0
-670 -17 -44 0
-670 -17 -45 0
-670 -17 -47 0
-670 -17 -48 0
-670 -17 -49 0
-670 -17 -51 0
-670 -17 -52 0
-670 -17 -53 0
-670 -17 -67 0
-670 -17 -68 0
-670 -17 -69 0
-670 -17 -71 0
-670 -17 -72 0
-670 -17 -73 0
-670 -17 -75 0
-670 -17 -76 0
-670 -17 -77 0
-670 -17 -87 0
-670 -17 -88 0
-670 -17 -89 0
-670 -17 -91 0
-670 -17 -92 0
-670 -17 -93 0
-670 -17 -95 0
-670 -17 -96 0
-670 -17 -97 0
-670 -17 -99 0
-670 -17 -100 0
-670 -17 -101 0
-670 -18 185 0
-670 -18 -31 -36 0
-670 -18 -44 0
-670 -18 -45 0
-670 -18 -48 0
-670 -18 -49 0
-670 -18 -52 0
-670 -18 -53 0
-670 -18 -68 0
-670 -18 -69 0
-670 -18 -72 0
-670 -18 -73 0
-670 -18 -76 0
-670 -18 -77 0
-670 -18 -88 0
-670 -18 -89 0
-670 -18 -92 0
-670 -18 -93 0
-670 -18 -96 0
-670 -18 -97 0
-670 -18 -100 0
-670 -18 -101 0
-670 -19 186 0
-670 -19 -31 -37 0
-670 -19 -45 0
-670 -19 -49 0
-670 -19 -53 0
-670 -19 -69 0
-670 -19 -73 0
-670 -19 -77 0
-670 -19 -89 0
-670 -19 -93 0
-670 -19 -97 0
-670 -19 -101 0
-671 149 0
-671 181 0
-671 -11 0
-671 -12 0
-671 -16 0
-671 -20 0
-671 -17 184 0
-671 -17 -32 -35 0
-671 -17 -47 0
-671 -17 -48 0
-671 -17 -49 0
-671 -17 -51 0
-671 -17 -52 0
-671 -17 -53 0
-671 -17 -55 0
-671 -17 -56 0
-671 -17 -57 0
-671 -17 -71 0
-671 -17 -72 0
-671 -17 -73 0
-671 -17 -75 0
-671 -17 -76 0
-671 -17 -77 0
-671 -17 -79 0
-671 -17 -80 0
-671 -17 -81 0
-671 -17 -91 0
-671 -17 -92 0
-671 -17 -93 0
-671 -17 -95 0
-671 -17 -96 0
-671 -17 -97 0
-671 -17 -99 0
-671 -17 -100 0
-671 -17 -101 0
-671 -17 -103 0
-671 -17 -104 0
-671 -17 -105 0
-671 -18 185 0
-671 -18 -32 -36 0
-671 -18 -48 0
-671 -18 -49 0
-671 -18 -52 0
-671 -18 -53 0
-671 -18 -56 0
-671 -18 -57 0
-671 -18 -72 0
-671 -18 -73 0
-671 -18 -76 0
-671 -18 -77 0
-671 -18 -80 0
-671 -18 -81 0
-671 -18 -92 0
-671 -18 -93 0
-671 -18 -96 0
-671 -18 -97 0
-671 -18 -100 0
-671 -18 -101 0
-671 -18 -104 0
-671 -18 -105 0
-671 -19 186 0
-671 -19 -32 -37 0
-671 -19 -49 0
-671 -19 -53 0
-671 -19 -57 0
-671 -19 -73 0
-671 -19 -77 0
-671 -19 -81 0
-671 -19 -93 0
-671 -19 -97 0
-671 -19 -101 0
-671 -19 -105 0
-672 149 0
-672 182 0
-672 -11 0
-672 -12 0
-672 -13 0
-672 -20 0
-672 -17 184 0
-672 -17 -33 -35 0
-672 -17 -51 0
-672 -17 -52 0
-672 -17 -53 0
-672 -17 -55 0
-672 -17 -56 0
-672 -17 -57 0
-672 -17 -59 0
-672 -17 -60 0
-672 -17 -61 0
-672 -17 -75 0
-672 -17 -76 0
-672 -17 -77 0
-672 -17 -79 0
-672 -17 -80 0
-672 -17 -81 0
-672 -17 -83 0
-672 -17 -84 0
-672 -17 -85 0
-672 -17 -95 0
-672 -17 -96 0
-672 -17 -97 0
-672 -17 -99 0
-672 -17 -100 0
-672 -17 -101 0
-672 -17 -103 0
-672 -17 -104 0
-672 -17 -105 0
-672 -18 185 0
-672 -18 -33 -36 0
-672 -18 -52 0
-672 -18 -53 0
-672 -18 -56 0
-672 -18 -57 0
-672 -18 -60 0
-672 -18 -61 0
-672 -18 -76 0
-672 -18 -77 0
-672 -18 -80 0
-672 -18 -81 0
-672 -18 -84 0
-672 -18 -85 0
-672 -18 -96 0
-672 -18 -97 0
-672 -18 -100 0
-672 -18 -101 0
-672 -18 -104 0
-672 -18 -105 0
-672 -19 186 0
-672 -19 -33 -37 0
-672 -19 -53 0
-672 -19 -57 0
-672 -19 -61 0
-672 -19 -77 0
-672 -19 -81 0
-672 -19 -85 0
-672 -19 -97 0
-672 -19 -101 0
-672 -19 -105 0
-673 149 0
-673 179 0
-673 -24 0
-673 -25 0
-673 -29 0
-673 -26 184 0
-673 -26 -30 -35 0
-673 -26 -39 0
-673 -26 -40 0
-673 -26 -41 0
-673 -26 -43 0
-673 -26 -44 0
-673 -26 -45 0
-673 -26 -47 0
-673 -26 -48 0
-673 -26 -49 0
-673 -26 -63 0
-673 -26 -64 0
-673 -26 -65 0
-673 -26 -67 0
-673 -26 -68 0
-673 -26 -69 0
-673 -26 -71 0
-673 -26 -72 0
-673 -26 -73 0
-673 -26 -87 0
-673 -26 -88 0
-673 -26 -89 0
-673 -26 -91 0
-673 -26 -92 0
-673 -26 -93 0
-673 -26 -95 0
-673 -26 -96 0
-673 -26 -97 0
-673 -27 185 0
-673 -27 -30 -36 0
-673 -27 -40 0
-673 -27 -41 0
-673 -27 -44 0
-673 -27 -45 0
-673 -27 -48 0
-673 -27 -49 0
-673 -27 -64 0
-673 -27 -65 0
-673 -27 -68 0
-673 -27 -69 0
-673 -27 -72 0
-673 -27 -73 0
-673 -27 -88 0
-673 -27 -89 0
-673 -27 -92 0
-673 -27 -93 0
-673 -27 -96 0
-673 -27 -97 0
-673 -28 186 0
-673 -28 -30 -37 0
-673 -28 -41 0
-673 -28 -45 0
-673 -28 -49 0
-673 -28 -65 0
-673 -28 -69 0
-673 -28 -73 0
-673 -28 -89 0
-673 -28 -93 0
-673 -28 -97 0
-674 149 0
-674 180 0
-674 -25 0
-674 -29 0
-674 -26 184 0
-674 -26 -31 -35 0
-674 -26 -43 0
-674 -26 -44 0
-674 -26 -45 0
-674 -26 -47 0
-674 -26 -48 0
-674 -26 -49 0
-674 -26 -51 0
-674 -26 -52 0
-674 -26 -53 0
-674 -26 -67 0
-674 -26 -68 0
-674 -26 -69 0
-674 -26 -71 0
-674 -26 -72 0
-674 -26 -73 0
-674 -26 -75 0
-674 -26 -76 0
-674 -26 -77 0
-674 -26 -87 0
-674 -26 -88 0
-674 -26 -89 0
-674 -26 -91 0
-674 -26 -92 0
-674 -26 -93 0
-674 -26 -95 0
-674 -26 -96 0
-674 -26 -97 0
-674 -26 -99 0
-674 -26 -100 0
-674 -26 -101 0
-674 -27 185 0
-674 -27 -31 -36 0
-674 -27 -44 0
-674 -27 -45 0
-674 -27 -48 0
-674 -27 -49 0
-674 -27 -52 0
-674 -27 -53 0
-674 -27 -68 0
-674 -27 -69 0
-674 -27 -72 0
-674 -27 -73 0
-674 -27 -76 0
-674 -27 -77 0
-674 -27 -88 0
-674 -27 -89 0
-674 -27 -92 0
-674 -27 -93 0
-674 -27 -96 0
-674 -27 -97 0
-674 -27 -100 0
-674 -27 -101 0
-674 -28 186 0
-674 -28 -31 -37 0
-674 -28 -45 0
-674 -28 -49 0
-674 -28 -53 0
-674 -28 -69 0
-674 -28 -73 0
-674 -28 -77 0
-674 -28 -89 0
-674 -28 -93 0
-674 -28 -97 0
-674 -28 -101 0
-675 149 0
-675 181 0
-675 -21 0
-675 -29 0
-675 -26 184 0
-675 -26 -32 -35 0
-675 -26 -47 0
-675 -26 -48 0
-675 -26 -49 0
-675 -26 -51 0
-675 -26 -52 0
-675 -26 -53 0
-675 -26 -55 0
-675 -26 -56 0
-675 -26 -57 0
-675 -26 -71 0
-675 -26 -72 0
-675 -26 -73 0
-675 -26 -75 0
-675 -26 -76 0
-675 -26 -77 0
-675 -26 -79 0
-675 -26 -80 0
-675 -26 -81 0
-675 -26 -91 0
-675 -26 -92 0
-675 -26 -93 0
-675 -26 -95 0
-675 -26 -96 0
-675 -26 -97 0
-675 -26 -99 0
-675 -26 -100 0
-675 -26 -101 0
-675 -26 -103 0
-675 -26 -104 0
-675 -26 -105 0
-675 -27 185 0
-675 -27 -32 -36 0
-675 -27 -48 0
-675 -27 -49 0
-675 -27 -52 0
-675 -27 -53 0
-675 -27 -56 0
-675 -27 -57 0
-675 -27 -72 0
-675 -27 -73 0
-675 -27 -76 0
-675 -27 -77 0
-675 -27 -80 0
-675 -27 -81 0
-675 -27 -92 0
-675 -27 -93 0
-675 -27 -96 0
-675 -27 -97 0
-675 -27 -100 0
-675 -27 -101 0
-675 -27 -104 0
-675 -27 -105 0
-675 -28 186 0
-675 -28 -32 -37 0
-675 -28 -49 0
-675 -28 -53 0
-675 -28 -57 0
-675 -28 -73 0
-675 -28 -77 0
-675 -28 -81 0
-675 -28 -93 0
-675 -28 -97 0
-675 -28 -101 0
-675 -28 -105 0
-676 149 0
-676 182 0
-676 -21 0
-676 -22 0
-676 -29 0
-676 -26 184 0
-676 -26 -33 -35 0
-676 -26 -51 0
-676 -26 -52 0
-676 -26 -53 0
-676 -26 -55 0
-676 -26 -56 0
-676 -26 -57 0
-676 -26 -59 0
-676 -26 -60 0
-676 -26 -61 0
-676 -26 -75 0
-676 -26 -76 0
-676 -26 -77 0
-676 -26 -79 0
-676 -26 -80 0
-676 -26 -81 0
-676 -26 -83 0
-676 -26 -84 0
-676 -26 -85 0
-676 -26 -95 0
-676 -26 -96 0
-676 -26 -97 0
-676 -26 -99 0
-676 -26 -100 0
-676 -26 -101 0
-676 -26 -103 0
-676 -26 -104 0
-676 -26 -105 0
-676 -27 185 0
-676 -27 -33 -36 0
-676 -27 -52 0
-676 -27 -53 0
-676 -27 -56 0
-676 -27 -57 0
-676 -27 -60 0
-676 -27 -61 0
-676 -27 -76 0
-676 -27 -77 0
-676 -27 -80 0
-676 -27 -81 0
-676 -27 -84 0
-676 -27 -85 0
-676 -27 -96 0
-676 -27 -97 0
-676 -27 -100 0
-676 -27 -101 0
-676 -27 -104 0
-676 -27 -105 0
-676 -28 186 0
-676 -28 -33 -37 0
-676 -28 -53 0
-676 -28 -57 0
-676 -28 -61 0
-676 -28 -77 0
-676 -28 -81 0
-676 -28 -85 0
-676 -28 -97 0
-676 -28 -101 0
-676 -28 -105 0
-677 149 0
-677 179 0
-677 183 0
-677 -30 -34 0
-677 -38 0
-677 -39 0
-677 -40 0
-677 -41 0
-677 -42 0
-677 -43 0
-677 -44 0
-677 -45 0
-677 -46 0
-677 -47 0
-677 -48 0
-677 -49 0
-677 -62 0
-677 -63 0
-677 -64 0
-677 -65 0
-677 -66 0
-677 -67 0
-677 -68 0
-677 -69 0
-677 -70 0
-677 -71 0
-677 -72 0
-677 -73 0
-677 -86 0
-677 -87 0
-677 -88 0
-677 -89 0
-677 -90 0
-677 -91 0
-677 -92 0
-677 -93 0
-677 -94 0
-677 -95 0
-677 -96 0
-677 -97 0
-678 149 0
-678 180 0
-678 183 0
-678 -31 -34 0
-678 -42 0
-678 -43 0
-678 -44 0
-678 -45 0
-678 -46 0
-678 -47 0
-678 -48 0
-678 -49 0
-678 -50 0
-678 -51 0
-678 -52 0
-678 -53 0
-678 -66 0
-678 -67 0
-678 -68 0
-678 -69 0
-678 -70 0
-678 -71 0
-678 -72 0
-678 -73 0
-678 -74 0
-678 -75 0
-678 -76 0
-678 -77 0
-678 -86 0
-678 -87 0
-678 -88 0
-678 -89 0
-678 -90 0
-678 -91 0
-678 -92 0
-678 -93 0
-678 -94 0
-678 -95 0
-678 -96 0
-678 -97 0
-678 -98 0
-678 -99 0
-678 -100 0
-678 -101 0
-679 149 0
-679 181 0
-679 183 0
-679 -32 -34 0
-679 -46 0
-679 -47 0
-679 -48 0
-679 -49 0
-679 -50 0
-679 -51 0
-679 -52 0
-679 -53 0
-679 -54 0
-679 -55 0
-679 -56 0
-679 -57 0
-679 -70 0
-679 -71 0
-679 -72 0
-679 -73 0
-679 -74 0
-679 -75 0
-679 -76 0
-679 -77 0
-679 -78 0
-679 -79 0
-679 -80 0
-679 -81 0
-679 -90 0
-679 -91 0
-679 -92 0
-679 -93 0
-679 -94 0
-679 -95 0
-679 -96 0
-679 -97 0
-679 -98 0
-679 -99 0
-679 -100 0
-679 -101 0
-679 -102 0
-679 -103 0
-679 -104 0
-679 -105 0
-680 149 0
-680 182 0
-680 183 0
-680 -33 -34 0
-680 -50 0
-680 -51 0
-680 -52 0
-680 -53 0
-680 -54 0
-680 -55 0
-680 -56 0
-680 -57 0
-680 -58 0
-680 -59 0
-680 -60 0
-680 -61 0
-680 -74 0
-680 -75 0
-680 -76 0
-680 -77 0
-680 -78 0
-680 -79 0
-680 -80 0
-680 -81 0
-680 -82 0
-680 -83 0
-680 -84 0
-680 -85 0
-680 -94 0
-680 -95 0
-680 -96 0
-680 -97 0
-680 -98 0
-680 -99 0
-680 -100 0
-680 -101 0
-680 -102 0
-680 -103 0
-680 -104 0
-680 -105 0
685 686 687 688 689 690 691 692 693 694 695 696 697 698 699 700 701 702 703 704 705 706 707 708 709 710 711 712 713 714 715 716 717 718 719 720 721 722 723 724 725 726 727 728 729 730 731 732 733 734 735 736 737 738 739 740 741 742 743 744 745 746 747 748 749 750 751 752 753 754 755 756 757 758 759 760 761 762 763 764 765 766 767 768 0
-685 -686 0
-685 -687 0
-685 -688 0
-685 -689 0
-685 -690 0
-685 -691 0
-685 -692 0
-685 -693 0
-685 -694 0
-685 -695 0
-685 -696 0
-685 -697 0
-685 -698 0
-685 -699 0
-685 -700 0
-685 -701 0
-685 -702 0
-685 -703 0
-685 -704 0
-685 -705 0
-685 -706 0
-685 -707 0
-685 -708 0
-685 -709 0
-685 -710 0
-685 -711 0
-685 -712 0
-685 -713 0
-685 -714 0
-685 -715 0
-685 -716 0
-685 -717 0
-685 -718 0
-685 -719 0
-685 -720 0
-685 -721 0
-685 -722 0
-685 -723 0
-685 -724 0
-685 -725 0
-685 -726 0
-685 -727 0
-685 -728 0
-685 -729 0
-685 -730 0
-685 -731 0
-685 -732 0
-685 -733 0
-685 -734 0
-685 -735 0
-685 -736 0
-685 -737 0
-685 -738 0
-685 -739 0
-685 -740 0
-685 -741 0
-685 -742 0
-685 -743 0
-685 -744 0
-685 -745 0
-685 -746 0
-685 -747 0
-685 -748 0
-685 -749 0
-685 -750 0
-685 -751 0
-685 -752 0
-685 -753 0
-685 -754 0
-685 -755 0
-685 -756 0
-685 -757 0
-685 -758 0
-685 -759 0
-685 -760 0
-685 -761 0
-685 -762 0
-685 -763 0
-685 -764 0
-685 -765 0
-685 -766 0
-685 -767 0
-685 -768 0
-686 -687 0
-686 -688 0
-686 -689 0
-686 -690 0
-686 -691 0
-686 -692 0
-686 -693 0
-686 -694 0
-686 -695 0
-686 -696 0
-686 -697 0
-686 -698 0
-686 -699 0
-686 -700 0
-686 -701 0
-686 -702 0
-686 -703 0
-686 -704 0
-686 -705 0
-686 -706 0
-686 -707 0
-686 -708 0
-686 -709 0
-686 -710 0
-686 -711 0
-686 -712 0
-686 -713 0
-686 -714 0
-686 -715 0
-686 -716 0
-686 -717 0
-686 -718 0
-686 -719 0
-686 -720 0
-686 -721 0
-686 -722 0
-686 -723 0
-686 -724 0
-686 -725 0
-686 -726 0
-686 -727 0
-686 -728 0
-686 -729 0
-686 -730 0
-686 -731 0
-686 -732 0
-686 -733 0
-686 -734 0
-686 -735 0
-686 -736 0
-686 -737 0
-686 -738 0
-686 -739 0
-686 -740 0
-686 -741 0
-686 -742 0
-686 -743 0
-686 -744 0
-686 -745 0
-686 -746 0
-686 -747 0
-686 -748 0
-686 -749 0
-686 -750 0
-686 -751 0
-686 -752 0
-686 -753 0
-686 -754 0
-686 -755 0
-686 -756 0
-686 -757 0
-686 -758 0
-686 -759 0
-686 -760 0
-686 -761 0
-686 -762 0
-686 -763 0
-686 -764 0
-686 -765 0
-686 -766 0
-686 -767 0
-686 -768 0
-687 -688 0
-687 -689 0
-687 -690 0
-687 -691 0
-687 -692 0
-687 -693 0
-687 -694 0
-687 -695 0
-687 -696 0
-687 -697 0
-687 -698 0
-687 -699 0
-687 -700 0
-687 -701 0
-687 -702 0
-687 -703 0
-687 -704 0
-687 -705 0
-687 -706 0
-687 -707 0
-687 -708 0
-687 -709 0
-687 -710 0
-687 -711 0
-687 -712 0
-687 -713 0
-687 -714 0
-687 -715 0
-687 -716 0
-687 -717 0
-687 -718 0
-687 -719 0
-687 -720 0
-687 -721 0
-687 -722 0
-687 -723 0
-687 -724 0
-687 -725 0
-687 -726 0
-687 -727 0
-687 -728 0
-687 -729 0
-687 -730 0
-687 -731 0
-687 -732 0
-687 -733 0
-687 -734 0
-687 -735 0
-687 -736 0
-687 -737 0
-687 -738 0
-687 -739 0
-687 -740 0
-687 -741 0
-687 -742 0
-687 -743 0
-687 -744 0
-687 -745 0
-687 -746 0
-687 -747 0
-687 -748 0
-687 -749 0
-687 -750 0
-687 -751 0
-687 -752 0
-687 -753 0
-687 -754 0
-687 -755 0
-687 -756 0
-687 -757 0
-687 -758 0
-687 -759 0
-687 -760 0
-687 -761 0
-687 -762 0
-687 -763 0
-687 -764 0
-687 -765 0
-687 -766 0
-687 -767 0
-687 -768 0
-688 -689 0
-688 -690 0
-688 -691 0
-688 -692 0
-688 -693 0
-688 -694 0
-688 -695 0
-688 -696 0
-688 -697 0
-688 -698 0
-688 -699 0
-688 -700 0
-688 -701 0
-688 -702 0
-688 -703 0
-688 -704 0
-688 -705 0
-688 -706 0
-688 -707 0
-688 -708 0
-688 -709 0
-688 -710 0
-688 -711 0
-688 -712 0
-688 -713 0
-688 -714 0
-688 -715 0
-688 -716 0
-688 -717 0
-688 -718 0
-688 -719 0
-688 -720 0
-688 -721 0
-688 -722 0
-688 -723 0
-688 -724 0
-688 -725 0
-688 -726 0
-688 -727 0
-688 -728 0
-688 -729 0
-688 -730 0
-688 -731 0
-688 -732 0
-688 -733 0
-688 -734 0
-688 -735 0
-688 -736 0
-688 -737 0
-688 -738 0
-688 -739 0
-688 -740 0
-688 -741 0
-688 -742 0
-688 -743 0
-688 -744 0
-688 -745 0
-688 -746 0
-688 -747 0
-688 -748 0
-688 -749 0
-688 -750 0
-688 -751 0
-688 -752 0
-688 -753 0
-688 -754 0
-688 -755 0
-688 -756 0
-688 -757 0
-688 -758 0
-688 -759 0
-688 -760 0
-688 -761 0
-688 -762 0
-688 -763 0
-688 -764 0
-688 -765 0
-688 -766 0
-688 -767 0
-688 -768 0
-689 -690 0
-689 -691 0
-689 -692 0
-689 -693 0
-689 -694 0
-689 -695 0
-689 -696 0
-689 -697 0
-689 -698 0
-689 -699 0
-689 -700 0
-689 -701 0
-689 -702 0
-689 -703 0
-689 -704 0
-689 -705 0
-689 -706 0
-689 -707 0
-689 -708 0
-689 -709 0
-689 -710 0
-689 -711 0
-689 -712 0
-689 -713 0
-689 -714 0
-689 -715 0
-689 -716 0
-689 -717 0
-689 -718 0
-689 -719 0
-689 -720 0
-689 -721 0
-689 -722 0
-689 -723 0
-689 -724 0
-689 -725 0
-689 -726 0
-689 -727 0
-689 -728 0
-689 -729 0
-689 -730 0
-689 -731 0
-689 -732 0
-689 -733 0
-689 -734 0
-689 -735 0
-689 -736 0
-689 -737 0
-689 -738 0
-689 -739 0
-689 -740 0
-689 -741 0
-689 -742 0
-689 -743 0
-689 -744 0
-689 -745 0
-689 -746 0
-689 -747 0
-689 -748 0
-689 -749 0
-689 -750 0
-689 -751 0
-689 -752 0
-689 -753 0
-689 -754 0
-689 -755 0
-689 -756 0
-689 -757 0
-689 -758 0
-689 -759 0
-689 -760 0
-689 -761 0
-689 -762 0
-689 -763 0
-689 -764 0
-689 -765 0
-689 -766 0
-689 -767 0
-689 -768 0
-690 -691 0
-690 -692 0
-690 -693 0
-690 -694 0
-690 -695 0
-690 -696 0
-690 -697 0
-690 -698 0
-690 -699 0
-690 -700 0
-690 -701 0
-690 -702 0
-690 -703 0
-690 -704 0
-690 -705 0
-690 -706 0
-690 -707 0
-690 -708 0
-690 -709 0
-690 -710 0
-690 -711 0
-690 -712 0
-690 -713 0
-690 -714 0
-690 -715 0
-690 -716 0
-690 -717 0
-690 -718 0
-690 -719 0
-690 -720 0
-690 -721 0
-690 -722 0
-690 -723 0
-690 -724 0
-690 -725 0
-690 -726 0
-690 -727 0
-690 -728 0
-690 -729 0
-690 -730 0
-690 -731 0
-690 -732 0
-690 -733 0
-690 -734 0
-690 -735 0
-690 -736 0
-690 -737 0
-690 -738 0
-690 -739 0
-690 -740 0
-690 -741 0
-690 -742 0
-690 -743 0
-690 -744 0
-690 -745 0
-690 -746 0
-690 -747 0
-690 -748 0
-690 -749 0
-690 -750 0
-690 -751 0
-690 -752 0
-690 -753 0
-690 -754 0
-690 -755 0
-690 -756 0
-690 -757 0
-690 -758 0
-690 -759 0
-690 -760 0
-690 -761 0
-690 -762 0
-690 -763 0
-690 -764 0
-690 -765 0
-690 -766 0
-690 -767 0
-690 -768 0
-691 -692 0
-691 -693 0
-691 -694 0
-691 -695 0
-691 -696 0
-691 -697 0
-691 -698 0
-691 -699 0
-691 -700 0
-691 -701 0
-691 -702 0
-691 -703 0
-691 -704 0
-691 -705 0
-691 -706 0
-691 -707 0
-691 -708 0
-691 -709 0
-691 -710 0
-691 -711 0
-691 -712 0
-691 -713 0
-691 -714 0
-691 -715 0
-691 -716 0
-691 -717 0
-691 -718 0
-691 -719 0
-691 -720 0
-691 -721 0
-691 -722 0
-691 -723 0
-691 -724 0
-691 -725 0
-691 -726 0
-691 -727 0
-691 -728 0
-691 -729 0
-691 -730 0
-691 -731 0
-691 -732 0
-691 -733 0
-691 -734 0
-691 -735 0
-691 -736 0
-691 -737 0
-691 -738 0
-691 -739 0
-691 -740 0
-691 -741 0
-691 -742 0
-691 -743 0
-691 -744 0
-691 -745 0
-691 -746 0
-691 -747 0
-691 -748 0
-691 -749 0
-691 -750 0
-691 -751 0
-691 -752 0
-691 -753 0
-691 -754 0
-691 -755 0
-691 -756 0
-691 -757 0
-691 -758 0
-691 -759 0
-691 -760 0
-691 -761 0
-691 -762 0
-691 -763 0
-691 -764 0
-691 -765 0
-691 -766 0
-691 -767 0
-691 -768 0
-692 -693 0
-692 -694 0
-692 -695 0
-692 -696 0
-692 -697 0
-692 -698 0
-692 -699 0
-692 -700 0
-692 -701 0
-692 -702 0
-692 -703 0
-692 -704 0
-692 -705 0
-692 -706 0
-692 -707 0
-692 -708 0
-692 -709 0
-692 -710 0
-692 -711 0
-692 -712 0
-692 -713 0
-692 -714 0
-692 -715 0
-692 -716 0
-692 -717 0
-692 -718 0
-692 -719 0
-692 -720 0
-692 -721 0
-692 -722 0
-692 -723 0
-692 -724 0
-692 -725 0
-692 -726 0
-692 -727 0
-692 -728 0
-692 -729 0
-692 -730 0
-692 -731 0
-692 -732 0
-692 -733 0
-692 -734 0
-692 -735 0
-692 -736 0
-692 -737 0
-692 -738 0
-692 -739 0
-692 -740 0
-692 -741 0
-692 -742 0
-692 -743 0
-692 -744 0
-692 -745 0
-692 -746 0
-692 -747 0
-692 -748 0
-692 -749 0
-692 -750 0
-692 -751 0
-692 -752 0
-692 -753 0
-692 -754 0
-692 -755 0
-692 -756 0
-692 -757 0
-692 -758 0
-692 -759 0
-692 -760 0
-692 -761 0
-692 -762 0
-692 -763 0
-692 -764 0
-692 -765 0
-692 -766 0
-692 -767 0
-692 -768 0
-693 -694 0
-693 -695 0
-693 -696 0
-693 -697 0
-693 -698 0
-693 -699 0
-693 -700 0
-693 -701 0
-693 -702 0
-693 -703 0
-693 -704 0
-693 -705 0
-693 -706 0
-693 -707 0
-693 -708 0
-693 -709 0
-693 -710 0
-693 -711 0
-693 -712 0
-693 -713 0
-693 -714 0
-693 -715 0
-693 -716 0
-693 -717 0
-693 -718 0
-693 -719 0
-693 -720 0
-693 -721 0
-693 -722 0
-693 -723 0
-693 -724 0
-693 -725 0
-693 -726 0
-693 -727 0
-693 -728 0
-693 -729 0
-693 -730 0
-693 -731 0
-693 -732 0
-693 -733 0
-693 -734 0
-693 -735 0
-693 -736 0
-693 -737 0
-693 -738 0
-693 -739 0
-693 -740 0
-693 -741 0
-693 -742 0
-693 -743 0
-693 -744 0
-693 -745 0
-693 -746 0
-693 -747 0
-693 -748 0
-693 -749 0
-693 -750 0
-693 -751 0
-693 -752 0
-693 -753 0
-693 -754 0
-693 -755 0
-693 -756 0
-693 -757 0
-693 -758 0
-693 -759 0
-693 -760 0
-693 -761 0
-693 -762 0
-693 -763 0
-693 -764 0
-693 -765 0
-693 -766 0
-693 -767 0
-693 -768 0
-694 -695 0
-694 -696 0
-694 -697 0
-694 -698 0
-694 -699 0
-694 -700 0
-694 -701 0
-694 -702 0
-694 -703 0
-694 -704 0
-694 -705 0
-694 -706 0
-694 -707 0
-694 -708 0
-694 -709 0
-694 -710 0
-694 -711 0
-694 -712 0
-694 -713 0
-694 -714 0
-694 -715 0
-694 -716 0
-694 -717 0
-694 -718 0
-694 -719 0
-694 -720 0
-694 -721 0
-694 -722 0
-694 -723 0
-694 -724 0
-694 -725 0
-694 -726 0
-694 -727 0
-694 -728 0
-694 -729 0
-694 -730 0
-694 -731 0
-694 -732 0
-694 -733 0
-694 -734 0
-694 -735 0
-694 -736 0
-694 -737 0
-694 -738 0
-694 -739 0
-694 -740 0
-694 -741 0
-694 -742 0
-694 -743 0
-694 -744 0
-694 -745 0
-694 -746 0
-694 -747 0
-694 -748 0
-694 -749 0
-694 -750 0
-694 -751 0
-694 -752 0
-694 -753 0
-694 -754 0
-694 -755 0
-694 -756 0
-694 -757 0
-694 -758 0
-694 -759 0
-694 -760 0
-694 -761 0
-694 -762 0
-694 -763 0
-694 -764 0
-694 -765 0
-694 -766 0
-694 -767 0
-694 -768 0
-695 -696 0
-695 -697 0
-695 -698 0
-695 -699 0
-695 -700 0
-695 -701 0
-695 -702 0
-695 -703 0
-695 -704 0
-695 -705 0
-695 -706 0
-695 -707 0
-695 -708 0
-695 -709 0
-695 -710 0
-695 -711 0
-695 -712 0
-695 -713 0
-695 -714 0
-695 -715 0
-695 -716 0
-695 -717 0
-695 -718 0
-695 -719 0
-695 -720 0
-695 -721 0
-695 -722 0
-695 -723 0
-695 -724 0
-695 -725 0
-695 -726 0
-695 -727 0
-695 -728 0
-695 -729 0
-695 -730 0
-695 -731 0
-695 -732 0
-695 -733 0
-695 -734 0
-695 -735 0
-695 -736 0
-695 -737 0
-695 -738 0
-695 -739 0
-695 -740 0
-695 -741 0
-695 -742 0
-695 -743 0
-695 -744 0
-695 -745 0
-695 -746 0
-695 -747 0
-695 -748 0
-695 -749 0
-695 -750 0
-695 -751 0
-695 -752 0
-695 -753 0
-695 -754 0
-695 -755 0
-695 -756 0
-695 -757 0
-695 -758 0
-695 -759 0
-695 -760 0
-695 -761 0
-695 -762 0
-695 -763 0
-695 -764 0
-695 -765 0
-695 -766 0
-695 -767 0
-695 -768 0
-696 -697 0
-696 -698 0
-696 -699 0
-696 -700 0
-696 -701 0
-696 -702 0
-696 -703 0
-696 -704 0
-696 -705 0
-696 -706 0
-696 -707 0
-696 -708 0
-696 -709 0
-696 -710 0
-696 -711 0
-696 -712 0
-696 -713 0
-696 -714 0
-696 -715 0
-696 -716 0
-696 -717 0
-696 -718 0
-696 -719 0
-696 -720 0
-696 -721 0
-696 -722 0
-696 -723 0
-696 -724 0
-696 -725 0
-696 -726 0
-696 -727 0
-696 -728 0
-696 -729 0
-696 -730 0
-696 -731 0
-696 -732 0
-696 -733 0
-696 -734 0
-696 -735 0
-696 -736 0
-696 -737 0
-696 -738 0
-696 -739 0
-696 -740 0
-696 -741 0
-696 -742 0
-696 -743 0
-696 -744 0
-696 -745 0
-696 -746 0
-696 -747 0
-696 -748 0
-696 -749 0
-696 -750 0
-696 -751 0
-696 -752 0
-696 -753 0
-696 -754 0
-696 -755 0
-696 -756 0
-696 -757 0
-696 -758 0
-696 -759 0
-696 -760 0
-696 -761 0
-696 -762 0
-696 -763 0
-696 -764 0
-696 -765 0
-696 -766 0
-696 -767 0
-696 -768 0
-697 -698 0
-697 -699 0
-697 -700 0
-697 -701 0
-697 -702 0
-697 -703 0
-697 -704 0
-697 -705 0
-697 -706 0
-697 -707 0
-697 -708 0
-697 -709 0
-697 -710 0
-697 -711 0
-697 -712 0
-697 -713 0
-697 -714 0
-697 -715 0
-697 -716 0
-697 -717 0
-697 -718 0
-697 -719 0
-697 -720 0
-697 -721 0
-697 -722 0
-697 -723 0
-697 -724 0
-697 -725 0
-697 -726 0
-697 -727 0
-697 -728 0
-697 -729 0
-697 -730 0
-697 -731 0
-697 -732 0
-697 -733 0
-697 -734 0
-697 -735 0
-697 -736 0
-697 -737 0
-697 -738 0
-697 -739 0
-697 -740 0
-697 -741 0
-697 -742 0
-697 -743 0
-697 -744 0
-697 -745 0
-697 -746 0
-697 -747 0
-697 -748 0
-697 -749 0
-697 -750 0
-697 -751 0
-697 -752 0
-697 -753 0
-697 -754 0
-697 -755 0
-697 -756 0
-697 -757 0
-697 -758 0
-697 -759 0
-697 -760 0
-697 -761 0
-697 -762 0
-697 -763 0
-697 -764 0
-697 -765 0
-697 -766 0
-697 -767 0
-697 -768 0
-698 -699 0
-698 -700 0
-698 -701 0
-698 -702 0
-698 -703 0
-698 -704 0
-698 -705 0
-698 -706 0
-698 -707 0
-698 -708 0
-698 -709 0
-698 -710 0
-698 -711 0
-698 -712 0
-698 -713 0
-698 -714 0
-698 -715 0
-698 -716 0
-698 -717 0
-698 -718 0
-698 -719 0
-698 -720 0
-698 -721 0
-698 -722 0
-698 -723 0
-698 -724 0
-698 -725 0
-698 -726 0
-698 -727 0
-698 -728 0
-698 -729 0
-698 -730 0
-698 -731 0
-698 -732 0
-698 -733 0
-698 -734 0
-698 -735 0
-698 -736 0
-698 -737 0
-698 -738 0
-698 -739 0
-698 -740 0
-698 -741 0
-698 -742 0
-698 -743 0
-698 -744 0
-698 -745 0
-698 -746 0
-698 -747 0
-698 -748 0
-698 -749 0
-698 -750 0
-698 -751 0
-698 -752 0
-698 -753 0
-698 -754 0
-698 -755 0
-698 -756 0
-698 -757 0
-698 -758 0
-698 -759 0
-698 -760 0
-698 -761 0
-698 -762 0
-698 -763 0
-698 -764 0
-698 -765 0
-698 -766 0
-698 -767 0
-698 -768 0
-699 -700 0
-699 -701 0
-699 -702 0
-699 -703 0
-699 -704 0
-699 -705 0
-699 -706 0
-699 -707 0
-699 -708 0
-699 -709 0
-699 -710 0
-699 -711 0
-699 -712 0
-699 -713 0
-699 -714 0
-699 -715 0
-699 -716 0
-699 -717 0
-699 -718 0
-699 -719 0
-699 -720 0
-699 -721 0
-699 -722 0
-699 -723 0
-699 -724 0
-699 -725 0
-699 -726 0
-699 -727 0
-699 -728 0
-699 -729 0
-699 -730 0
-699 -731 0
-699 -732 0
-699 -733 0
-699 -734 0
-699 -735 0
-699 -736 0
-699 -737 0
-699 -738 0
-699 -739 0
-699 -740 0
-699 -741 0
-699 -742 0
-699 -743 0
-699 -744 0
-699 -745 0
-699 -746 0
-699 -747 0
-699 -748 0
-699 -749 0
-699 -750 0
-699 -751 0
-699 -752 0
-699 -753 0
-699 -754 0
-699 -755 0
-699 -756 0
-699 -757 0
-699 -758 0
-699 -759 0
-699 -760 0
-699 -761 0
-699 -762 0
-699 -763 0
-699 -764 0
-699 -765 0
-699 -766 0
-699 -767 0
-699 -768 0
-700 -701 0
-700 -702 0
-700 -703 0
-700 -704 0
-700 -705 0
-700 -706 0
-700 -707 0
-700 -708 0
-700 -709 0
-700 -710 0
-700 -711 0
-700 -712 0
-700 -713 0
-700 -714 0
-700 -715 0
-700 -716 0
-700 -717 0
-700 -718 0
-700 -719 0
-700 -720 0
-700 -721 0
-700 -722 0
-700 -723 0
-700 -724 0
-700 -725 0
-700 -726 0
-700 -727 0
-700 -728 0
-700 -729 0
-700 -730 0
-700 -731 0
-700 -732 0
-700 -733 0
-700 -734 0
-700 -735 0
-700 -736 0
-700 -737 0
-700 -738 0
-700 -739 0
-700 -740 0
-700 -741 0
-700 -742 0
-700 -743 0
-700 -744 0
-700 -745 0
-700 -746 0
-700 -747 0
-700 -748 0
-700 -749 0
-700 -750 0
-700 -751 0
-700 -752 0
-700 -753 0
-700 -754 0
-700 -755 0
-700 -756 0
-700 -757 0
-700 -758 0
-700 -759 0
-700 -760 0
-700 -761 0
-700 -762 0
-700 -763 0
-700 -764 0
-700 -765 0
-700 -766 0
-700 -767 0
-700 -768 0
-701 -702 0
-701 -703 0
-701 -704 0
-701 -705 0
-701 -706 0
-701 -707 0
-701 -708 0
-701 -709 0
-701 -710 0
-701 -711 0
-701 -712 0
-701 -713 0
-701 -714 0
-701 -715 0
-701 -716 0
-701 -717 0
-701 -718 0
-701 -719 0
-701 -720 0
-701 -721 0
-701 -722 0
-701 -723 0
-701 -724 0
-701 -725 0
-701 -726 0
-701 -727 0
-701 -728 0
-701 -729 0
-701 -730 0
-701 -731 0
-701 -732 0
-701 -733 0
-701 -734 0
-701 -735 0
-701 -736 0
-701 -737 0
-701 -738 0
-701 -739 0
-701 -740 0
-701 -741 0
-701 -742 0
-701 -743 0
-701 -744 0
-701 -745 0
-701 -746 0
-701 -747 0
-701 -748 0
-701 -749 0
-701 -750 0
-701 -751 0
-701 -752 0
-701 -753 0
-701 -754 0
-701 -755 0
-701 -756 0
-701 -757 0
-701 -758 0
-701 -759 0
-701 -760 0
-701 -761 0
-701 -762 0
-701 -763 0
-701 -764 0
-701 -765 0
-701 -766 0
-701 -767 0
-701 -768 0
-702 -703 0
-702 -704 0
-702 -705 0
-702 -706 0
-702 -707 0
-702 -708 0
-702 -709 0
-702 -710 0
-702 -711 0
-702 -712 0
-702 -713 0
-702 -714 0
-702 -715 0
-702 -716 0
-702 -717 0
-702 -718 0
-702 -719 0
-702 -720 0
-702 -721 0
-702 -722 0
-702 -723 0
-702 -724 0
-702 -725 0
-702 -726 0
-702 -727 0
-702 -728 0
-702 -729 0
-702 -730 0
-702 -731 0
-702 -732 0
-702 -733 0
-702 -734 0
-702 -735 0
-702 -736 0
-702 -737 0
-702 -738 0
-702 -739 0
-702 -740 0
-702 -741 0
-702 -742 0
-702 -743 0
-702 -744 0
-702 -745 0
-702 -746 0
-702 -747 0
-702 -748 0
-702 -749 0
-702 -750 0
-702 -751 0
-702 -752 0
-702 -753 0
-702 -754 0
-702 -755 0
-702 -756 0
-702 -757 0
-702 -758 0
-702 -759 0
-702 -760 0
-702 -761 0
-702 -762 0
-702 -763 0
-702 -764 0
-702 -765 0
-702 -766 0
-702 -767 0
-702 -768 0
-703 -704 0
-703 -705 0
-703 -706 0
-703 -707 0
-703 -708 0
-703 -709 0
-703 -710 0
-703 -711 0
-703 -712 0
-703 -713 0
-703 -714 0
-703 -715 0
-703 -716 0
-703 -717 0
-703 -718 0
-703 -719 0
-703 -720 0
-703 -721 0
-703 -722 0
-703 -723 0
-703 -724 0
-703 -725 0
-703 -726 0
-703 -727 0
-703 -728 0
-703 -729 0
-703 -730 0
-703 -731 0
-703 -732 0
-703 -733 0
-703 -734 0
-703 -735 0
-703 -736 0
-703 -737 0
-703 -738 0
-703 -739 0
-703 -740 0
-703 -741 0
-703 -742 0
-703 -743 0
-703 -744 0
-703 -745 0
-703 -746 0
-703 -747 0
-703 -748 0
-703 -749 0
-703 -750 0
-703 -751 0
-703 -752 0
-703 -753 0
-703 -754 0
-703 -755 0
-703 -756 0
-703 -757 0
-703 -758 0
-703 -759 0
-703 -760 0
-703 -761 0
-703 -762 0
-703 -763 0
-703 -764 0
-703 -765 0
-703 -766 0
-703 -767 0
-703 -768 0
-704 -705 0
-704 -706 0
-704 -707 0
-704 -708 0
-704 -709 0
-704 -710 0
-704 -711 0
-704 -712 0
-704 -713 0
-704 -714 0
-704 -715 0
-704 -716 0
-704 -717 0
-704 -718 0
-704 -719 0
-704 -720 0
-704 -721 0
-704 -722 0
-704 -723 0
-704 -724 0
-704 -725 0
-704 -726 0
-704 -727 0
-704 -728 0
-704 -729 0
-704 -730 0
-704 -731 0
-704 -732 0
-704 -733 0
-704 -734 0
-704 -735 0
-704 -736 0
-704 -737 0
-704 -738 0
-704 -739 0
-704 -740 0
-704 -741 0
-704 -742 0
-704 -743 0
-704 -744 0
-704 -745 0
-704 -746 0
-704 -747 0
-704 -748 0
-704 -749 0
-704 -750 0
-704 -751 0
-704 -752 0
-704 -753 0
-704 -754 0
-704 -755 0
-704 -756 0
-704 -757 0
-704 -758 0
-704 -759 0
-704 -760 0
-704 -761 0
-704 -762 0
-704 -763 0
-704 -764 0
-704 -765 0
-704 -766 0
-704 -767 0
-704 -768 0
-705 -706 0
-705 -707 0
-705 -708 0
-705 -709 0
-705 -710 0
-705 -711 0
-705 -712 0
-705 -713 0
-705 -714 0
-705 -715 0
-705 -716 0
-705 -717 0
-705 -718 0
-705 -719 0
-705 -720 0
-705 -721 0
-705 -722 0
-705 -723 0
-705 -724 0
-705 -725 0
-705 -726 0
-705 -727 0
-705 -728 0
-705 -729 0
-705 -730 0
-705 -731 0
-705 -732 0
-705 -733 0
-705 -734 0
-705 -735 0
-705 -736 0
-705 -737 0
-705 -738 0
-705 -739 0
-705 -740 0
-705 -741 0
-705 -742 0
-705 -743 0
-705 -744 0
-705 -745 0
-705 -746 0
-705 -747 0
-705 -748 0
-705 -749 0
-705 -750 0
-705 -751 0
-705 -752 0
-705 -753 0
-705 -754 0
-705 -755 0
-705 -756 0
-705 -757 0
-705 -758 0
-705 -759 0
-705 -760 0
-705 -761 0
-705 -762 0
-705 -763 0
-705 -764 0
-705 -765 0
-705 -766 0
-705 -767 0
-705 -768 0
-706 -707 0
-706 -708 0
-706 -709 0
-706 -710 0
-706 -711 0
-706 -712 0
-706 -713 0
-706 -714 0
-706 -715 0
-706 -716 0
-706 -717 0
-706 -718 0
-706 -719 0
-706 -720 0
-706 -721 0
-706 -722 0
-706 -723 0
-706 -724 0
-706 -725 0
-706 -726 0
-706 -727 0
-706 -728 0
-706 -729 0
-706 -730 0
-706 -731 0
-706 -732 0
-706 -733 0
-706 -734 0
-706 -735 0
-706 -736 0
-706 -737 0
-706 -738 0
-706 -739 0
-706 -740 0
-706 -741 0
-706 -742 0
-706 -743 0
-706 -744 0
-706 -745 0
-706 -746 0
-706 -747 0
-706 -748 0
-706 -749 0
-706 -750 0
-706 -751 0
-706 -752 0
-706 -753 0
-706 -754 0
-706 -755 0
-706 -756 0
-706 -757 0
-706 -758 0
-706 -759 0
-706 -760 0
-706 -761 0
-706 -762 0
-706 -763 0
-706 -764 0
-706 -765 0
-706 -766 0
-706 -767 0
-706 -768 0
-707 -708 0
-707 -709 0
-707 -710 0
-707 -711 0
-707 -712 0
-707 -713 0
-707 -714 0
-707 -715 0
-707 -716 0
-707 -717 0
-707 -718 0
-707 -719 0
-707 -720 0
-707 -721 0
-707 -722 0
-707 -723 0
-707 -724 0
-707 -725 0
-707 -726 0
-707 -727 0
-707 -728 0
-707 -729 0
-707 -730 0
-707 -731 0
-707 -732 0
-707 -733 0
-707 -734 0
-707 -735 0
-707 -736 0
-707 -737 0
-707 -738 0
-707 -739 0
-707 -740 0
-707 -741 0
-707 -742 0
-707 -743 0
-707 -744 0
-707 -745 0
-707 -746 0
-707 -747 0
-707 -748 0
-707 -749 0
-707 -750 0
-707 -751 0
-707 -752 0
-707 -753 0
-707 -754 0
-707 -755 0
-707 -756 0
-707 -757 0
-707 -758 0
-707 -759 0
-707 -760 0
-707 -761 0
-707 -762 0
-707 -763 0
-707 -764 0
-707 -765 0
-707 -766 0
-707 -767 0
-707 -768 0
-708 -709 0
-708 -710 0
-708 -711 0
-708 -712 0
-708 -713 0
-708 -714 0
-708 -715 0
-708 -716 0
-708 -717 0
-708 -718 0
-708 -719 0
-708 -720 0
-708 -721 0
-708 -722 0
-708 -723 0
-708 -724 0
-708 -725 0
-708 -726 0
-708 -727 0
-708 -728 0
-708 -729 0
-708 -730 0
-708 -731 0
-708 -732 0
-708 -733 0
-708 -734 0
-708 -735 0
-708 -736 0
-708 -737 0
-708 -738 0
-708 -739 0
-708 -740 0
-708 -741 0
-708 -742 0
-708 -743 0
-708 -744 0
-708 -745 0
-708 -746 0
-708 -747 0
-708 -748 0
-708 -749 0
-708 -750 0
-708 -751 0
-708 -752 0
-708 -753 0
-708 -754 0
-708 -755 0
-708 -756 0
-708 -757 0
-708 -758 0
-708 -759 0
-708 -760 0
-708 -761 0
-708 -762 0
-708 -763 0
-708 -764 0
-708 -765 0
-708 -766 0
-708 -767 0
-708 -768 0
-709 -710 0
-709 -711 0
-709 -712 0
-709 -713 0
-709 -714 0
-709 -715 0
-709 -716 0
-709 -717 0
-709 -718 0
-709 -719 0
-709 -720 0
-709 -721 0
-709 -722 0
-709 -723 0
-709 -724 0
-709 -725 0
-709 -726 0
-709 -727 0
-709 -728 0
-709 -729 0
-709 -730 0
-709 -731 0
-709 -732 0
-709 -733 0
-709 -734 0
-709 -735 0
-709 -736 0
-709 -737 0
-709 -738 0
-709 -739 0
-709 -740 0
-709 -741 0
-709 -742 0
-709 -743 0
-709 -744 0
-709 -745 0
-709 -746 0
-709 -747 0
-709 -748 0
-709 -749 0
-709 -750 0
-709 -751 0
-709 -752 0
-709 -753 0
-709 -754 0
-709 -755 0
-709 -756 0
-709 -757 0
-709 -758 0
-709 -759 0
-709 -760 0
-709 -761 0
-709 -762 0
-709 -763 0
-709 -764 0
-709 -765 0
-709 -766 0
-709 -767 0
-709 -768 0
-710 -711 0
-710 -712 0
-710 -713 0
-710 -714 0
-710 -715 0
-710 -716 0
-710 -717 0
-710 -718 0
-710 -719 0
-710 -720 0
-710 -721 0
-710 -722 0
-710 -723 0
-710 -724 0
-710 -725 0
-710 -726 0
-710 -727 0
-710 -728 0
-710 -729 0
-710 -730 0
-710 -731 0
-710 -732 0
-710 -733 0
-710 -734 0
-710 -735 0
-710 -736 0
-710 -737 0
-710 -738 0
-710 -739 0
-710 -740 0
-710 -741 0
-710 -742 0
-710 -743 0
-710 -744 0
-710 -745 0
-710 -746 0
-710 -747 0
-710 -748 0
-710 -749 0
-710 -750 0
-710 -751 0
-710 -752 0
-710 -753 0
-710 -754 0
-710 -755 0
-710 -756 0
-710 -757 0
-710 -758 0
-710 -759 0
-710 -760 0
-710 -761 0
-710 -762 0
-710 -763 0
-710 -764 0
-710 -765 0
-710 -766 0
-710 -767 0
-710 -768 0
-711 -712 0
-711 -713 0
-711 -714 0
-711 -715 0
-711 -716 0
-711 -717 0
-711 -718 0
-711 -719 0
-711 -720 0
-711 -721 0
-711 -722 0
-711 -723 0
-711 -724 0
-711 -725 0
-711 -726 0
-711 -727 0
-711 -728 0
-711 -729 0
-711 -730 0
-711 -731 0
-711 -732 0
-711 -733 0
-711 -734 0
-711 -735 0
-711 -736 0
-711 -737 0
-711 -738 0
-711 -739 0
-711 -740 0
-711 -741 0
-711 -742 0
-711 -743 0
-711 -744 0
-711 -745 0
-711 -746 0
-711 -747 0
-711 -748 0
-711 -749 0
-711 -750 0
-711 -751 0
-711 -752 0
-711 -753 0
-711 -754 0
-711 -755 0
-711 -756 0
-711 -757 0
-711 -758 0
-711 -759 0
-711 -760 0
-711 -761 0
-711 -762 0
-711 -763 0
-711 -764 0
-711 -765 0
-711 -766 0
-711 -767 0
-711 -768 0
-712 -713 0
-712 -714 0
-712 -715 0
-712 -716 0
-712 -717 0
-712 -718 0
-712 -719 0
-712 -720 0
-712 -721 0
-712 -722 0
-712 -723 0
-712 -724 0
-712 -725 0
-712 -726 0
-712 -727 0
-712 -728 0
-712 -729 0
-712 -730 0
-712 -731 0
-712 -732 0
-712 -733 0
-712 -734 0
-712 -735 0
-712 -736 0
-712 -737 0
-712 -738 0
-712 -739 0
-712 -740 0
-712 -741 0
-712 -742 0
-712 -743 0
-712 -744 0
-712 -745 0
-712 -746 0
-712 -747 0
-712 -748 0
-712 -749 0
-712 -750 0
-712 -751 0
-712 -752 0
-712 -753 0
-712 -754 0
-712 -755 0
-712 -756 0
-712 -757 0
-712 -758 0
-712 -759 0
-712 -760 0
-712 -761 0
-712 -762 0
-712 -763 0
-712 -764 0
-712 -765 0
-712 -766 0
-712 -767 0
-712 -768 0
-713 -714 0
-713 -715 0
-713 -716 0
-713 -717 0
-713 -718 0
-713 -719 0
-713 -720 0
-713 -721 0
-713 -722 0
-713 -723 0
-713 -724 0
-713 -725 0
-713 -726 0
-713 -727 0
-713 -728 0
-713 -729 0
-713 -730 0
-713 -731 0
-713 -732 0
-713 -733 0
-713 -734 0
-713 -735 0
-713 -736 0
-713 -737 0
-713 -738 0
-713 -739 0
-713 -740 0
-713 -741 0
-713 -742 0
-713 -743 0
-713 -744 0
-713 -745 0
-713 -746 0
-713 -747 0
-713 -748 0
-713 -749 0
-713 -750 0
-713 -751 0
-713 -752 0
-713 -753 0
-713 -754 0
-713 -755 0
-713 -756 0
-713 -757 0
-713 -758 0
-713 -759 0
-713 -760 0
-713 -761 0
-713 -762 0
-713 -763 0
-713 -764 0
-713 -765 0
-713 -766 0
-713 -767 0
-713 -768 0
-714 -715 0
-714 -716 0
-714 -717 0
-714 -718 0
-714 -719 0
-714 -720 0
-714 -721 0
-714 -722 0
-714 -723 0
-714 -724 0
-714 -725 0
-714 -726 0
-714 -727 0
-714 -728 0
-714 -729 0
-714 -730 0
-714 -731 0
-714 -732 0
-714 -733 0
-714 -734 0
-714 -735 0
-714 -736 0
-714 -737 0
-714 -738 0
-714 -739 0
-714 -740 0
-714 -741 0
-714 -742 0
-714 -743 0
-714 -744 0
-714 -745 0
-714 -746 0
-714 -747 0
-714 -748 0
-714 -749 0
-714 -750 0
-714 -751 0
-714 -752 0
-714 -753 0
-714 -754 0
-714 -755 0
-714 -756 0
-714 -757 0
-714 -758 0
-714 -759 0
-714 -760 0
-714 -761 0
-714 -762 0
-714 -763 0
-714 -764 0
-714 -765 0
-714 -766 0
-714 -767 0
-714 -768 0
-715 -716 0
-715 -717 0
-715 -718 0
-715 -719 0
-715 -720 0
-715 -721 0
-715 -722 0
-715 -723 0
-715 -724 0
-715 -725 0
-715 -726 0
-715 -727 0
-715 -728 0
-715 -729 0
-715 -730 0
-715 -731 0
-715 -732 0
-715 -733 0
-715 -734 0
-715 -735 0
-715 -736 0
-715 -737 0
-715 -738 0
-715 -739 0
-715 -740 0
-715 -741 0
-715 -742 0
-715 -743 0
-715 -744 0
-715 -745 0
-715 -746 0
-715 -747 0
-715 -748 0
-715 -749 0
-715 -750 0
-715 -751 0
-715 -752 0
-715 -753 0
-715 -754 0
-715 -755 0
-715 -756 0
-715 -757 0
-715 -758 0
-715 -759 0
-715 -760 0
-715 -761 0
-715 -762 0
-715 -763 0
-715 -764 0
-715 -765 0
-715 -766 0
-715 -767 0
-715 -768 0
-716 -717 0
-716 -718 0
-716 -719 0
-716 -720 0
-716 -721 0
-716 -722 0
-716 -723 0
-716 -724 0
-716 -725 0
-716 -726 0
-716 -727 0
-716 -728 0
-716 -729 0
-716 -730 0
-716 -731 0
-716 -732 0
-716 -733 0
-716 -734 0
-716 -735 0
-716 -736 0
-716 -737 0
-716 -738 0
-716 -739 0
-716 -740 0
-716 -741 0
-716 -742 0
-716 -743 0
-716 -744 0
-716 -745 0
-716 -746 0
-716 -747 0
-716 -748 0
-716 -749 0
-716 -750 0
-716 -751 0
-716 -752 0
-716 -753 0
-716 -754 0
-716 -755 0
-716 -756 0
-716 -757 0
-716 -758 0
-716 -759 0
-716 -760 0
-716 -761 0
-716 -762 0
-716 -763 0
-716 -764 0
-716 -765 0
-716 -766 0
-716 -767 0
-716 -768 0
-717 -718 0
-717 -719 0
-717 -720 0
-717 -721 0
-717 -722 0
-717 -723 0
-717 -724 0
-717 -725 0
-717 -726 0
-717 -727 0
-717 -728 0
-717 -729 0
-717 -730 0
-717 -731 0
-717 -732 0
-717 -733 0
-717 -734 0
-717 -735 0
-717 -736 0
-717 -737 0
-717 -738 0
-717 -739 0
-717 -740 0
-717 -741 0
-717 -742 0
-717 -743 0
-717 -744 0
-717 -745 0
-717 -746 0
-717 -747 0
-717 -748 0
-717 -749 0
-717 -750 0
-717 -751 0
-717 -752 0
-717 -753 0
-717 -754 0
-717 -755 0
-717 -756 0
-717 -757 0
-717 -758 0
-717 -759 0
-717 -760 0
-717 -761 0
-717 -762 0
-717 -763 0
-717 -764 0
-717 -765 0
-717 -766 0
-717 -767 0
-717 -768 0
-718 -719 0
-718 -720 0
-718 -721 0
-718 -722 0
-718 -723 0
-718 -724 0
-718 -725 0
-718 -726 0
-718 -727 0
-718 -728 0
-718 -729 0
-718 -730 0
-718 -731 0
-718 -732 0
-718 -733 0
-718 -734 0
-718 -735 0
-718 -736 0
-718 -737 0
-718 -738 0
-718 -739 0
-718 -740 0
-718 -741 0
-718 -742 0
-718 -743 0
-718 -744 0
-718 -745 0
-718 -746 0
-718 -747 0
-718 -748 0
-718 -749 0
-718 -750 0
-718 -751 0
-718 -752 0
-718 -753 0
-718 -754 0
-718 -755 0
-718 -756 0
-718 -757 0
-718 -758 0
-718 -759 0
-718 -760 0
-718 -761 0
-718 -762 0
-718 -763 0
-718 -764 0
-718 -765 0
-718 -766 0
-718 -767 0
-718 -768 0
-719 -720 0
-719 -721 0
-719 -722 0
-719 -723 0
-719 -724 0
-719 -725 0
-719 -726 0
-719 -727 0
-719 -728 0
-719 -729 0
-719 -730 0
-719 -731 0
-719 -732 0
-719 -733 0
-719 -734 0
-719 -735 0
-719 -736 0
-719 -737 0
-719 -738 0
-719 -739 0
-719 -740 0
-719 -741 0
-719 -742 0
-719 -743 0
-719 -744 0
-719 -745 0
-719 -746 0
-719 -747 0
-719 -748 0
-719 -749 0
-719 -750 0
-719 -751 0
-719 -752 0
-719 -753 0
-719 -754 0
-719 -755 0
-719 -756 0
-719 -757 0
-719 -758 0
-719 -759 0
-719 -760 0
-719 -761 0
-719 -762 0
-719 -763 0
-719 -764 0
-719 -765 0
-719 -766 0
-719 -767 0
-719 -768 0
-720 -721 0
-720 -722 0
-720 -723 0
-720 -724 0
-720 -725 0
-720 -726 0
-720 -727 0
-720 -728 0
-720 -729 0
-720 -730 0
-720 -731 0
-720 -732 0
-720 -733 0
-720 -734 0
-720 -735 0
-720 -736 0
-720 -737 0
-720 -738 0
-720 -739 0
-720 -740 0
-720 -741 0
-720 -742 0
-720 -743 0
-720 -744 0
-720 -745 0
-720 -746 0
-720 -747 0
-720 -748 0
-720 -749 0
-720 -750 0
-720 -751 0
-720 -752 0
-720 -753 0
-720 -754 0
-720 -755 0
-720 -756 0
-720 -757 0
-720 -758 0
-720 -759 0
-720 -760 0
-720 -761 0
-720 -762 0
-720 -763 0
-720 -764 0
-720 -765 0
-720 -766 0
-720 -767 0
-720 -768 0
-721 -722 0
-721 -723 0
-721 -724 0
-721 -725 0
-721 -726 0
-721 -727 0
-721 -728 0
-721 -729 0
-721 -730 0
-721 -731 0
-721 -732 0
-721 -733 0
-721 -734 0
-721 -735 0
-721 -736 0
-721 -737 0
-721 -738 0
-721 -739 0
-721 -740 0
-721 -741 0
-721 -742 0
-721 -743 0
-721 -744 0
-721 -745 0
-721 -746 0
-721 -747 0
-721 -748 0
-721 -749 0
-721 -750 0
-721 -751 0
-721 -752 0
-721 -753 0
-721 -754 0
-721 -755 0
-721 -756 0
-721 -757 0
-721 -758 0
-721 -759 0
-721 -760 0
-721 -761 0
-721 -762 0
-721 -763 0
-721 -764 0
-721 -765 0
-721 -766 0
-721 -767 0
-721 -768 0
-722 -723 0
-722 -724 0
-722 -725 0
-722 -726 0
-722 -727 0
-722 -728 0
-722 -729 0
-722 -730 0
-722 -731 0
-722 -732 0
-722 -733 0
-722 -734 0
-722 -735 0
-722 -736 0
-722 -737 0
-722 -738 0
-722 -739 0
-722 -740 0
-722 -741 0
-722 -742 0
-722 -743 0
-722 -744 0
-722 -745 0
-722 -746 0
-722 -747 0
-722 -748 0
-722 -749 0
-722 -750 0
-722 -751 0
-722 -752 0
-722 -753 0
-722 -754 0
-722 -755 0
-722 -756 0
-722 -757 0
-722 -758 0
-722 -759 0
-722 -760 0
-722 -761 0
-722 -762 0
-722 -763 0
-722 -764 0
-722 -765 0
-722 -766 0
-722 -767 0
-722 -768 0
-723 -724 0
-723 -725 0
-723 -726 0
-723 -727 0
-723 -728 0
-723 -729 0
-723 -730 0
-723 -731 0
-723 -732 0
-723 -733 0
-723 -734 0
-723 -735 0
-723 -736 0
-723 -737 0
-723 -738 0
-723 -739 0
-723 -740 0
-723 -741 0
-723 -742 0
-723 -743 0
-723 -744 0
-723 -745 0
-723 -746 0
-723 -747 0
-723 -748 0
-723 -749 0
-723 -750 0
-723 -751 0
-723 -752 0
-723 -753 0
-723 -754 0
-723 -755 0
-723 -756 0
-723 -757 0
-723 -758 0
-723 -759 0
-723 -760 0
-723 -761 0
-723 -762 0
-723 -763 0
-723 -764 0
-723 -765 0
-723 -766 0
-723 -767 0
-723 -768 0
-724 -725 0
-724 -726 0
-724 -727 0
-724 -728 0
-724 -729 0
-724 -730 0
-724 -731 0
-724 -732 0
-724 -733 0
-724 -734 0
-724 -735 0
-724 -736 0
-724 -737 0
-724 -738 0
-724 -739 0
-724 -740 0
-724 -741 0
-724 -742 0
-724 -743 0
-724 -744 0
-724 -745 0
-724 -746 0
-724 -747 0
-724 -748 0
-724 -749 0
-724 -750 0
-724 -751 0
-724 -752 0
-724 -753 0
-724 -754 0
-724 -755 0
-724 -756 0
-724 -757 0
-724 -758 0
-724 -759 0
-724 -760 0
-724 -761 0
-724 -762 0
-724 -763 0
-724 -764 0
-724 -765 0
-724 -766 0
-724 -767 0
-724 -768 0
-725 -726 0
-725 -727 0
-725 -728 0
-725 -729 0
-725 -730 0
-725 -731 0
-725 -732 0
-725 -733 0
-725 -734 0
-725 -735 0
-725 -736 0
-725 -737 0
-725 -738 0
-725 -739 0
-725 -740 0
-725 -741 0
-725 -742 0
-725 -743 0
-725 -744 0
-725 -745 0
-725 -746 0
-725 -747 0
-725 -748 0
-725 -749 0
-725 -750 0
-725 -751 0
-725 -752 0
-725 -753 0
-725 -754 0
-725 -755 0
-725 -756 0
-725 -757 0
-725 -758 0
-725 -759 0
-725 -760 0
-725 -761 0
-725 -762 0
-725 -763 0
-725 -764 0
-725 -765 0
-725 -766 0
-725 -767 0
-725 -768 0
-726 -727 0
-726 -728 0
-726 -729 0
-726 -730 0
-726 -731 0
-726 -732 0
-726 -733 0
-726 -734 0
-726 -735 0
-726 -736 0
-726 -737 0
-726 -738 0
-726 -739 0
-726 -740 0
-726 -741 0
-726 -742 0
-726 -743 0
-726 -744 0
-726 -745 0
-726 -746 0
-726 -747 0
-726 -748 0
-726 -749 0
-726 -750 0
-726 -751 0
-726 -752 0
-726 -753 0
-726 -754 0
-726 -755 0
-726 -756 0
-726 -757 0
-726 -758 0
-726 -759 0
-726 -760 0
-726 -761 0
-726 -762 0
-726 -763 0
-726 -764 0
-726 -765 0
-726 -766 0
-726 -767 0
-726 -768 0
-727 -728 0
-727 -729 0
-727 -730 0
-727 -731 0
-727 -732 0
-727 -733 0
-727 -734 0
-727 -735 0
-727 -736 0
-727 -737 0
-727 -738 0
-727 -739 0
-727 -740 0
-727 -741 0
-727 -742 0
-727 -743 0
-727 -744 0
-727 -745 0
-727 -746 0
-727 -747 0
-727 -748 0
-727 -749 0
-727 -750 0
-727 -751 0
-727 -752 0
-727 -753 0
-727 -754 0
-727 -755 0
-727 -756 0
-727 -757 0
-727 -758 0
-727 -759 0
-727 -760 0
-727 -761 0
-727 -762 0
-727 -763 0
-727 -764 0
-727 -765 0
-727 -766 0
-727 -767 0
-727 -768 0
-728 -729 0
-728 -730 0
-728 -731 0
-728 -732 0
-728 -733 0
-728 -734 0
-728 -735 0
-728 -736 0
-728 -737 0
-728 -738 0
-728 -739 0
-728 -740 0
-728 -741 0
-728 -742 0
-728 -743 0
-728 -744 0
-728 -745 0
-728 -746 0
-728 -747 0
-728 -748 0
-728 -749 0
-728 -750 0
-728 -751 0
-728 -752 0
-728 -753 0
-728 -754 0
-728 -755 0
-728 -756 0
-728 -757 0
-728 -758 0
-728 -759 0
-728 -760 0
-728 -761 0
-728 -762 0
-728 -763 0
-728 -764 0
-728 -765 0
-728 -766 0
-728 -767 0
-728 -768 0
-729 -730 0
-729 -731 0
-729 -732 0
-729 -733 0
-729 -734 0
-729 -735 0
-729 -736 0
-729 -737 0
-729 -738 0
-729 -739 0
-729 -740 0
-729 -741 0
-729 -742 0
-729 -743 0
-729 -744 0
-729 -745 0
-729 -746 0
-729 -747 0
-729 -748 0
-729 -749 0
-729 -750 0
-729 -751 0
-729 -752 0
-729 -753 0
-729 -754 0
-729 -755 0
-729 -756 0
-729 -757 0
-729 -758 0
-729 -759 0
-729 -760 0
-729 -761 0
-729 -762 0
-729 -763 0
-729 -764 0
-729 -765 0
-729 -766 0
-729 -767 0
-729 -768 0
-730 -731 0
-730 -732 0
-730 -733 0
-730 -734 0
-730 -735 0
-730 -736 0
-730 -737 0
-730 -738 0
-730 -739 0
-730 -740 0
-730 -741 0
-730 -742 0
-730 -743 0
-730 -744 0
-730 -745 0
-730 -746 0
-730 -747 0
-730 -748 0
-730 -749 0
-730 -750 0
-730 -751 0
-730 -752 0
-730 -753 0
-730 -754 0
-730 -755 0
-730 -756 0
-730 -757 0
-730 -758 0
-730 -759 0
-730 -760 0
-730 -761 0
-730 -762 0
-730 -763 0
-730 -764 0
-730 -765 0
-730 -766 0
-730 -767 0
-730 -768 0
-731 -732 0
-731 -733 0
-731 -734 0
-731 -735 0
-731 -736 0
-731 -737 0
-731 -738 0
-731 -739 0
-731 -740 0
-731 -741 0
-731 -742 0
-731 -743 0
-731 -744 0
-731 -745 0
-731 -746 0
-731 -747 0
-731 -748 0
-731 -749 0
-731 -750 0
-731 -751 0
-731 -752 0
-731 -753 0
-731 -754 0
-731 -755 0
-731 -756 0
-731 -757 0
-731 -758 0
-731 -759 0
-731 -760 0
-731 -761 0
-731 -762 0
-731 -763 0
-731 -764 0
-731 -765 0
-731 -766 0
-731 -767 0
-731 -768 0
-732 -733 0
-732 -734 0
-732 -735 0
-732 -736 0
-732 -737 0
-732 -738 0
-732 -739 0
-732 -740 0
-732 -741 0
-732 -742 0
-732 -743 0
-732 -744 0
-732 -745 0
-732 -746 0
-732 -747 0
-732 -748 0
-732 -749 0
-732 -750 0
-732 -751 0
-732 -752 0
-732 -753 0
-732 -754 0
-732 -755 0
-732 -756 0
-732 -757 0
-732 -758 0
-732 -759 0
-732 -760 0
-732 -761 0
-732 -762 0
-732 -763 0
-732 -764 0
-732 -765 0
-732 -766 0
-732 -767 0
-732 -768 0
-733 -734 0
-733 -735 0
-733 -736 0
-733 -737 0
-733 -738 0
-733 -739 0
-733 -740 0
-733 -741 0
-733 -742 0
-733 -743 0
-733 -744 0
-733 -745 0
-733 -746 0
-733 -747 0
-733 -748 0
-733 -749 0
-733 -750 0
-733 -751 0
-733 -752 0
-733 -753 0
-733 -754 0
-733 -755 0
-733 -756 0
-733 -757 0
-733 -758 0
-733 -759 0
-733 -760 0
-733 -761 0
-733 -762 0
-733 -763 0
-733 -764 0
-733 -765 0
-733 -766 0
-733 -767 0
-733 -768 0
-734 -735 0
-734 -736 0
-734 -737 0
-734 -738 0
-734 -739 0
-734 -740 0
-734 -741 0
-734 -742 0
-734 -743 0
-734 -744 0
-734 -745 0
-734 -746 0
-734 -747 0
-734 -748 0
-734 -749 0
-734 -750 0
-734 -751 0
-734 -752 0
-734 -753 0
-734 -754 0
-734 -755 0
-734 -756 0
-734 -757 0
-734 -758 0
-734 -759 0
-734 -760 0
-734 -761 0
-734 -762 0
-734 -763 0
-734 -764 0
-734 -765 0
-734 -766 0
-734 -767 0
-734 -768 0
-735 -736 0
-735 -737 0
-735 -738 0
-735 -739 0
-735 -740 0
-735 -741 0
-735 -742 0
-735 -743 0
-735 -744 0
-735 -745 0
-735 -746 0
-735 -747 0
-735 -748 0
-735 -749 0
-735 -750 0
-735 -751 0
-735 -752 0
-735 -753 0
-735 -754 0
-735 -755 0
-735 -756 0
-735 -757 0
-735 -758 0
-735 -759 0
-735 -760 0
-735 -761 0
-735 -762 0
-735 -763 0
-735 -764 0
-735 -765 0
-735 -766 0
-735 -767 0
-735 -768 0
-736 -737 0
-736 -738 0
-736 -739 0
-736 -740 0
-736 -741 0
-736 -742 0
-736 -743 0
-736 -744 0
-736 -745 0
-736 -746 0
-736 -747 0
-736 -748 0
-736 -749 0
-736 -750 0
-736 -751 0
-736 -752 0
-736 -753 0
-736 -754 0
-736 -755 0
-736 -756 0
-736 -757 0
-736 -758 0
-736 -759 0
-736 -760 0
-736 -761 0
-736 -762 0
-736 -763 0
-736 -764 0
-736 -765 0
-736 -766 0
-736 -767 0
-736 -768 0
-737 -738 0
-737 -739 0
-737 -740 0
-737 -741 0
-737 -742 0
-737 -743 0
-737 -744 0
-737 -745 0
-737 -746 0
-737 -747 0
-737 -748 0
-737 -749 0
-737 -750 0
-737 -751 0
-737 -752 0
-737 -753 0
-737 -754 0
-737 -755 0
-737 -756 0
-737 -757 0
-737 -758 0
-737 -759 0
-737 -760 0
-737 -761 0
-737 -762 0
-737 -763 0
-737 -764 0
-737 -765 0
-737 -766 0
-737 -767 0
-737 -768 0
-738 -739 0
-738 -740 0
-738 -741 0
-738 -742 0
-738 -743 0
-738 -744 0
-738 -745 0
-738 -746 0
-738 -747 0
-738 -748 0
-738 -749 0
-738 -750 0
-738 -751 0
-738 -752 0
-738 -753 0
-738 -754 0
-738 -755 0
-738 -756 0
-738 -757 0
-738 -758 0
-738 -759 0
-738 -760 0
-738 -761 0
-738 -762 0
-738 -763 0
-738 -764 0
-738 -765 0
-738 -766 0
-738 -767 0
-738 -768 0
-739 -740 0
-739 -741 0
-739 -742 0
-739 -743 0
-739 -744 0
-739 -745 0
-739 -746 0
-739 -747 0
-739 -748 0
-739 -749 0
-739 -750 0
-739 -751 0
-739 -752 0
-739 -753 0
-739 -754 0
-739 -755 0
-739 -756 0
-739 -757 0
-739 -758 0
-739 -759 0
-739 -760 0
-739 -761 0
-739 -762 0
-739 -763 0
-739 -764 0
-739 -765 0
-739 -766 0
-739 -767 0
-739 -768 0
-740 -741 0
-740 -742 0
-740 -743 0
-740 -744 0
-740 -745 0
-740 -746 0
-740 -747 0
-740 -748 0
-740 -749 0
-740 -750 0
-740 -751 0
-740 -752 0
-740 -753 0
-740 -754 0
-740 -755 0
-740 -756 0
-740 -757 0
-740 -758 0
-740 -759 0
-740 -760 0
-740 -761 0
-740 -762 0
-740 -763 0
-740 -764 0
-740 -765 0
-740 -766 0
-740 -767 0
-740 -768 0
-741 -742 0
-741 -743 0
-741 -744 0
-741 -745 0
-741 -746 0
-741 -747 0
-741 -748 0
-741 -749 0
-741 -750 0
-741 -751 0
-741 -752 0
-741 -753 0
-741 -754 0
-741 -755 0
-741 -756 0
-741 -757 0
-741 -758 0
-741 -759 0
-741 -760 0
-741 -761 0
-741 -762 0
-741 -763 0
-741 -764 0
-741 -765 0
-741 -766 0
-741 -767 0
-741 -768 0
-742 -743 0
-742 -744 0
-742 -745 0
-742 -746 0
-742 -747 0
-742 -748 0
-742 -749 0
-742 -750 0
-742 -751 0
-742 -752 0
-742 -753 0
-742 -754 0
-742 -755 0
-742 -756 0
-742 -757 0
-742 -758 0
-742 -759 0
-742 -760 0
-742 -761 0
-742 -762 0
-742 -763 0
-742 -764 0
-742 -765 0
-742 -766 0
-742 -767 0
-742 -768 0
-743 -744 0
-743 -745 0
-743 -746 0
-743 -747 0
-743 -748 0
-743 -749 0
-743 -750 0
-743 -751 0
-743 -752 0
-743 -753 0
-743 -754 0
-743 -755 0
-743 -756 0
-743 -757 0
-743 -758 0
-743 -759 0
-743 -760 0
-743 -761 0
-743 -762 0
-743 -763 0
-743 -764 0
-743 -765 0
-743 -766 0
-743 -767 0
-743 -768 0
-744 -745 0
-744 -746 0
-744 -747 0
-744 -748 0
-744 -749 0
-744 -750 0
-744 -751 0
-744 -752 0
-744 -753 0
-744 -754 0
-744 -755 0
-744 -756 0
-744 -757 0
-744 -758 0
-744 -759 0
-744 -760 0
-744 -761 0
-744 -762 0
-744 -763 0
-744 -764 0
-744 -765 0
-744 -766 0
-744 -767 0
-744 -768 0
-745 -746 0
-745 -747 0
-745 -748 0
-745 -749 0
-745 -750 0
-745 -751 0
-745 -752 0
-745 -753 0
-745 -754 0
-745 -755 0
-745 -756 0
-745 -757 0
-745 -758 0
-745 -759 0
-745 -760 0
-745 -761 0
-745 -762 0
-745 -763 0
-745 -764 0
-745 -765 0
-745 -766 0
-745 -767 0
-745 -768 0
-746 -747 0
-746 -748 0
-746 -749 0
-746 -750 0
-746 -751 0
-746 -752 0
-746 -753 0
-746 -754 0
-746 -755 0
-746 -756 0
-746 -757 0
-746 -758 0
-746 -759 0
-746 -760 0
-746 -761 0
-746 -762 0
-746 -763 0
-746 -764 0
-746 -765 0
-746 -766 0
-746 -767 0
-746 -768 0
-747 -748 0
-747 -749 0
-747 -750 0
-747 -751 0
-747 -752 0
-747 -753 0
-747 -754 0
-747 -755 0
-747 -756 0
-747 -757 0
-747 -758 0
-747 -759 0
-747 -760 0
-747 -761 0
-747 -762 0
-747 -763 0
-747 -764 0
-747 -765 0
-747 -766 0
-747 -767 0
-747 -768 0
-748 -749 0
-748 -750 0
-748 -751 0
-748 -752 0
-748 -753 0
-748 -754 0
-748 -755 0
-748 -756 0
-748 -757 0
-748 -758 0
-748 -759 0
-748 -760 0
-748 -761 0
-748 -762 0
-748 -763 0
-748 -764 0
-748 -765 0
-748 -766 0
-748 -767 0
-748 -768 0
-749 -750 0
-749 -751 0
-749 -752 0
-749 -753 0
-749 -754 0
-749 -755 0
-749 -756 0
-749 -757 0
-749 -758 0
-749 -759 0
-749 -760 0
-749 -761 0
-749 -762 0
-749 -763 0
-749 -764 0
-749 -765 0
-749 -766 0
-749 -767 0
-749 -768 0
-750 -751 0
-750 -752 0
-750 -753 0
-750 -754 0
-750 -755 0
-750 -756 0
-750 -757 0
-750 -758 0
-750 -759 0
-750 -760 0
-750 -761 0
-750 -762 0
-750 -763 0
-750 -764 0
-750 -765 0
-750 -766 0
-750 -767 0
-750 -768 0
-751 -752 0
-751 -753 0
-751 -754 0
-751 -755 0
-751 -756 0
-751 -757 0
-751 -758 0
-751 -759 0
-751 -760 0
-751 -761 0
-751 -762 0
-751 -763 0
-751 -764 0
-751 -765 0
-751 -766 0
-751 -767 0
-751 -768 0
-752 -753 0
-752 -754 0
-752 -755 0
-752 -756 0
-752 -757 0
-752 -758 0
-752 -759 0
-752 -760 0
-752 -761 0
-752 -762 0
-752 -763 0
-752 -764 0
-752 -765 0
-752 -766 0
-752 -767 0
-752 -768 0
-753 -754 0
-753 -755 0
-753 -756 0
-753 -757 0
-753 -758 0
-753 -759 0
-753 -760 0
-753 -761 0
-753 -762 0
-753 -763 0
-753 -764 0
-753 -765 0
-753 -766 0
-753 -767 0
-753 -768 0
-754 -755 0
-754 -756 0
-754 -757 0
-754 -758 0
-754 -759 0
-754 -760 0
-754 -761 0
-754 -762 0
-754 -763 0
-754 -764 0
-754 -765 0
-754 -766 0
-754 -767 0
-754 -768 0
-755 -756 0
-755 -757 0
-755 -758 0
-755 -759 0
-755 -760 0
-755 -761 0
-755 -762 0
-755 -763 0
-755 -764 0
-755 -765 0
-755 -766 0
-755 -767 0
-755 -768 0
-756 -757 0
-756 -758 0
-756 -759 0
-756 -760 0
-756 -761 0
-756 -762 0
-756 -763 0
-756 -764 0
-756 -765 0
-756 -766 0
-756 -767 0
-756 -768 0
-757 -758 0
-757 -759 0
-757 -760 0
-757 -761 0
-757 -762 0
-757 -763 0
-757 -764 0
-757 -765 0
-757 -766 0
-757 -767 0
-757 -768 0
-758 -759 0
-758 -760 0
-758 -761 0
-758 -762 0
-758 -763 0
-758 -764 0
-758 -765 0
-758 -766 0
-758 -767 0
-758 -768 0
-759 -760 0
-759 -761 0
-759 -762 0
-759 -763 0
-759 -764 0
-759 -765 0
-759 -766 0
-759 -767 0
-759 -768 0
-760 -761 0
-760 -762 0
-760 -763 0
-760 -764 0
-760 -765 0
-760 -766 0
-760 -767 0
-760 -768 0
-761 -762 0
-761 -763 0
-761 -764 0
-761 -765 0
-761 -766 0
-761 -767 0
-761 -768 0
-762 -763 0
-762 -764 0
-762 -765 0
-762 -766 0
-762 -767 0
-762 -768 0
-763 -764 0
-763 -765 0
-763 -766 0
-763 -767 0
-763 -768 0
-764 -765 0
-764 -766 0
-764 -767 0
-764 -768 0
-765 -766 0
-765 -767 0
-765 -768 0
-766 -767 0
-766 -768 0
-767 -768 0
-769 685 686 687 688 689 690 691 692 693 694 695 696 697 698 699 700 701 702 703 704 705 706 707 708 0
-685 769 0
-686 769 0
-687 769 0
-688 769 0
-689 769 0
-690 769 0
-691 769 0
-692 769 0
-693 769 0
-694 769 0
-695 769 0
-696 769 0
-697 769 0
-698 769 0
-699 769 0
-700 769 0
-701 769 0
-702 769 0
-703 769 0
-704 769 0
-705 769 0
-706 769 0
-707 769 0
-708 769 0
769 -150 299 0
769 150 -299 0
769 -151 300 0
769 151 -300 0
769 -152 301 0
769 152 -301 0
769 -153 302 0
769 153 -302 0
769 -154 303 0
769 154 -303 0
769 -155 304 0
769 155 -304 0
769 -156 305 0
769 156 -305 0
769 -157 306 0
769 157 -306 0
769 -158 307 0
769 158 -307 0
769 -159 308 0
769 159 -308 0
-770 709 710 711 712 713 714 715 716 717 718 719 720 721 722 723 724 725 726 727 728 729 730 731 732 0
-709 770 0
-710 770 0
-711 770 0
-712 770 0
-713 770 0
-714 770 0
-715 770 0
-716 770 0
-717 770 0
-718 770 0
-719 770 0
-720 770 0
-721 770 0
-722 770 0
-723 770 0
-724 770 0
-725 770 0
-726 770 0
-727 770 0
-728 770 0
-729 770 0
-730 770 0
-731 770 0
-732 770 0
770 -160 309 0
770 160 -309 0
770 -161 310 0
770 161 -310 0
770 -162 311 0
770 162 -311 0
770 -163 312 0
770 163 -312 0
770 -164 313 0
770 164 -313 0
770 -165 314 0
770 165 -314 0
770 -166 315 0
770 166 -315 0
770 -167 316 0
770 167 -316 0
770 -168 317 0
770 168 -317 0
770 -169 318 0
770 169 -318 0
-771 733 734 735 736 737 738 739 740 741 742 743 744 745 746 747 748 749 750 751 752 0
-733 771 0
-734 771 0
-735 771 0
-736 771 0
-737 771 0
-738 771 0
-739 771 0
-740 771 0
-741 771 0
-742 771 0
-743 771 0
-744 771 0
-745 771 0
-746 771 0
-747 771 0
-748 771 0
-749 771 0
-750 771 0
-751 771 0
-752 771 0
771 -170 319 0
771 170 -319 0
771 -171 320 0
771 171 -320 0
771 -172 321 0
771 172 -321 0
771 -173 322 0
771 173 -322 0
771 -174 323 0
771 174 -323 0
771 -175 324 0
771 175 -324 0
771 -176 325 0
771 176 -325 0
771 -177 326 0
771 177 -326 0
771 -178 327 0
771 178 -327 0
-772 753 754 755 756 757 758 759 760 761 762 763 764 765 766 767 768 0
-753 772 0
-754 772 0
-755 772 0
-756 772 0
-757 772 0
-758 772 0
-759 772 0
-760 772 0
-761 772 0
-762 772 0
-763 772 0
-764 772 0
-765 772 0
-766 772 0
-767 772 0
-768 772 0
772 -179 328 0
772 179 -328 0
772 -180 329 0
772 180 -329 0
772 -181 330 0
772 181 -330 0
772 -182 331 0
772 182 -331 0
772 -183 332 0
772 183 -332 0
772 -184 333 0
772 184 -333 0
772 -185 334 0
772 185 -334 0
772 -186 335 0
772 186 -335 0
-685 295 0
-685 299 0
-685 -161 0
-685 -162 0
-685 -163 0
-685 -164 0
-685 -165 0
-685 -169 0
-685 -166 306 0
-685 -166 -150 -157 0
-685 -166 -212 0
-685 -166 -213 0
-685 -166 -214 0
-685 -166 -236 0
-685 -166 -237 0
-685 -166 -238 0
-685 -166 -256 0
-685 -166 -257 0
-685 -166 -258 0
-685 -167 307 0
-685 -167 -150 -158 0
-685 -167 -213 0
-685 -167 -214 0
-685 -167 -237 0
-685 -167 -238 0
-685 -167 -257 0
-685 -167 -258 0
-685 -168 308 0
-685 -168 -150 -159 0
-685 -168 -214 0
-685 -168 -238 0
-685 -168 -258 0
-686 295 0
-686 300 0
-686 -160 0
-686 -162 0
-686 -163 0
-686 -164 0
-686 -165 0
-686 -169 0
-686 -166 306 0
-686 -166 -151 -157 0
-686 -166 -216 0
-686 -166 -217 0
-686 -166 -218 0
-686 -166 -236 0
-686 -166 -237 0
-686 -166 -238 0
-686 -166 -240 0
-686 -166 -241 0
-686 -166 -242 0
-686 -166 -256 0
-686 -166 -257 0
-686 -166 -258 0
-686 -166 -260 0
-686 -166 -261 0
-686 -166 -262 0
-686 -167 307 0
-686 -167 -151 -158 0
-686 -167 -217 0
-686 -167 -218 0
-686 -167 -237 0
-686 -167 -238 0
-686 -167 -241 0
-686 -167 -242 0
-686 -167 -257 0
-686 -167 -258 0
-686 -167 -261 0
-686 -167 -262 0
-686 -168 308 0
-686 -168 -151 -159 0
-686 -168 -218 0
-686 -168 -238 0
-686 -168 -242 0
-686 -168 -258 0
-686 -168 -262 0
-687 295 0
-687 301 0
-687 -160 0
-687 -161 0
-687 -163 0
-687 -164 0
-687 -165 0
-687 -169 0
-687 -166 306 0
-687 -166 -152 -157 0
-687 -166 -220 0
-687 -166 -221 0
-687 -166 -222 0
-687 -166 -240 0
-687 -166 -241 0
-687 -166 -242 0
-687 -166 -244 0
-687 -166 -245 0
-687 -166 -246 0
-687 -166 -256 0
-687 -166 -257 0
-687 -166 -258 0
-687 -166 -260 0
-687 -166 -261 0
-687 -166 -262 0
-687 -166 -264 0
-687 -166 -265 0
-687 -166 -266 0
-687 -167 307 0
-687 -167 -152 -158 0
-687 -167 -221 0
-687 -167 -222 0
-687 -167 -241 0
-687 -167 -242 0
-687 -167 -245 0
-687 -167 -246 0
-687 -167 -257 0
-687 -167 -258 0
-687 -167 -261 0
-687 -167 -262 0
-687 -167 -265 0
-687 -167 -266 0
-687 -168 308 0
-687 -168 -152 -159 0
-687 -168 -222 0
-687 -168 -242 0
-687 -168 -246 0
-687 -168 -258 0
-687 -168 -262 0
-687 -168 -266 0
-688 295 0
-688 302 0
-688 -160 0
-688 -161 0
-688 -162 0
-688 -164 0
-688 -165 0
-688 -169 0
-688 -166 306 0
-688 -166 -153 -157 0
-688 -166 -224 0
-688 -166 -225 0
-688 -166 -226 0
-688 -166 -244 0
-688 -166 -245 0
-688 -166 -246 0
-688 -166 -248 0
-688 -166 -249 0
-688 -166 -250 0
-688 -166 -260 0
-688 -166 -261 0
-688 -166 -262 0
-688 -166 -264 0
-688 -166 -265 0
-688 -166 -266 0
-688 -166 -268 0
-688 -166 -269 0
-688 -166 -270 0
-688 -167 307 0
-688 -167 -153 -158 0
-688 -167 -225 0
-688 -167 -226 0
-688 -167 -245 0
-688 -167 -246 0
-688 -167 -249 0
-688 -167 -250 0
-688 -167 -261 0
-688 -167 -262 0
-688 -167 -265 0
-688 -167 -266 0
-688 -167 -269 0
-688 -167 -270 0
-688 -168 308 0
-688 -168 -153 -159 0
-688 -168 -226 0
-688 -168 -246 0
-688 -168 -250 0
-688 -168 -262 0
-688 -168 -266 0
-688 -168 -270 0
-689 295 0
-689 303 0
-689 -160 0
-689 -161 0
-689 -162 0
-689 -163 0
-689 -165 0
-689 -169 0
-689 -166 306 0
-689 -166 -154 -157 0
-689 -166 -228 0
-689 -166 -229 0
-689 -166 -230 0
-689 -166 -248 0
-689 -166 -249 0
-689 -166 -250 0
-689 -166 -252 0
-689 -166 -253 0
-689 -166 -254 0
-689 -166 -264 0
-689 -166 -265 0
-689 -166 -266 0
-689 -166 -268 0
-689 -166 -269 0
-689 -166 -270 0
-689 -167 307 0
-689 -167 -154 -158 0
-689 -167 -229 0
-689 -167 -230 0
-689 -167 -249 0
-689 -167 -250 0
-689 -167 -253 0
-689 -167 -254 0
-689 -167 -265 0
-689 -167 -266 0
-689 -167 -269 0
-689 -167 -270 0
-689 -168 308 0
-689 -168 -154 -159 0
-689 -168 -230 0
-689 -168 -250 0
-689 -168 -254 0
-689 -168 -266 0
-689 -168 -270 0
-690 295 0
-690 304 0
-690 -160 0
-690 -161 0
-690 -162 0
-690 -163 0
-690 -164 0
-690 -169 0
-690 -166 306 0
-690 -166 -155 -157 0
-690 -166 -232 0
-690 -166 -233 0
-690 -166 -234 0
-690 -166 -252 0
-690 -166 -253 0
-690 -166 -254 0
-690 -166 -268 0
-690 -166 -269 0
-690 -166 -270 0
-690 -167 307 0
-690 -167 -155 -158 0
-690 -167 -233 0
-690 -167 -234 0
-690 -167 -253 0
-690 -167 -254 0
-690 -167 -269 0
-690 -167 -270 0
-690 -168 308 0
-690 -168 -155 -159 0
-690 -168 -234 0
-690 -168 -254 0
-690 -168 -270 0
-691 295 0
-691 299 0
-691 -171 0
-691 -172 0
-691 -173 0
-691 -174 0
-691 -178 0
-691 -175 306 0
-691 -175 -150 -157 0
-691 -175 -212 0
-691 -175 -213 0
-691 -175 -214 0
-691 -175 -236 0
-691 -175 -237 0
-691 -175 -238 0
-691 -175 -256 0
-691 -175 -257 0
-691 -175 -258 0
-691 -176 307 0
-691 -176 -150 -158 0
-691 -176 -213 0
-691 -176 -214 0
-691 -176 -237 0
-691 -176 -238 0
-691 -176 -257 0
-691 -176 -258 0
-691 -177 308 0
-691 -177 -150 -159 0
-691 -177 -214 0
-691 -177 -238 0
-691 -177 -258 0
-692 295 0
-692 300 0
-692 -172 0
-692 -173 0
-692 -174 0
-692 -178 0
-692 -175 306 0
-692 -175 -151 -157 0
-692 -175 -216 0
-692 -175 -217 0
-692 -175 -218 0
-692 -175 -236 0
-692 -175 -237 0
-692 -175 -238 0
-692 -175 -240 0
-692 -175 -241 0
-692 -175 -242 0
-692 -175 -256 0
-692 -175 -257 0
-692 -175 -258 0
-692 -175 -260 0
-692 -175 -261 0
-692 -175 -262 0
-692 -176 307 0
-692 -176 -151 -158 0
-692 -176 -217 0
-692 -176 -218 0
-692 -176 -237 0
-692 -176 -238 0
-692 -176 -241 0
-692 -176 -242 0
-692 -176 -257 0
-692 -176 -258 0
-692 -176 -261 0
-692 -176 -262 0
-692 -177 308 0
-692 -177 -151 -159 0
-692 -177 -218 0
-692 -177 -238 0
-692 -177 -242 0
-692 -177 -258 0
-692 -177 -262 0
-693 295 0
-693 301 0
-693 -170 0
-693 -173 0
-693 -174 0
-693 -178 0
-693 -175 306 0
-693 -175 -152 -157 0
-693 -175 -220 0
-693 -175 -221 0
-693 -175 -222 0
-693 -175 -240 0
-693 -175 -241 0
-693 -175 -242 0
-693 -175 -244 0
-693 -175 -245 0
-693 -175 -246 0
-693 -175 -256 0
-693 -175 -257 0
-693 -175 -258 0
-693 -175 -260 0
-693 -175 -261 0
-693 -175 -262 0
-693 -175 -264 0
-693 -175 -265 0
-693 -175 -266 0
-693 -176 307 0
-693 -176 -152 -158 0
-693 -176 -221 0
-693 -176 -222 0
-693 -176 -241 0
-693 -176 -242 0
-693 -176 -245 0
-693 -176 -246 0
-693 -176 -257 0
-693 -176 -258 0
-693 -176 -261 0
-693 -176 -262 0
-693 -176 -265 0
-693 -176 -266 0
-693 -177 308 0
-693 -177 -152 -159 0
-693 -177 -222 0
-693 -177 -242 0
-693 -177 -246 0
-693 -177 -258 0
-693 -177 -262 0
-693 -177 -266 0
-694 295 0
-694 302 0
-694 -170 0
-694 -171 0
-694 -174 0
-694 -178 0
-694 -175 306 0
-694 -175 -153 -157 0
-694 -175 -224 0
-694 -175 -225 0
-694 -175 -226 0
-694 -175 -244 0
-694 -175 -245 0
-694 -175 -246 0
-694 -175 -248 0
-694 -175 -249 0
-694 -175 -250 0
-694 -175 -260 0
-694 -175 -261 0
-694 -175 -262 0
-694 -175 -264 0
-694 -175 -265 0
-694 -175 -266 0
-694 -175 -268 0
-694 -175 -269 0
-694 -175 -270 0
-694 -176 307 0
-694 -176 -153 -158 0
-694 -176 -225 0
-694 -176 -226 0
-694 -176 -245 0
-694 -176 -246 0
-694 -176 -249 0
-694 -176 -250 0
-694 -176 -261 0
-694 -176 -262 0
-694 -176 -265 0
-694 -176 -266 0
-694 -176 -269 0
-694 -176 -270 0
-694 -177 308 0
-694 -177 -153 -159 0
-694 -177 -226 0
-694 -177 -246 0
-694 -177 -250 0
-694 -177 -262 0
-694 -177 -266 0
-694 -177 -270 0
-695 295 0
-695 303 0
-695 -170 0
-695 -171 0
-695 -172 0
-695 -178 0
-695 -175 306 0
-695 -175 -154 -157 0
-695 -175 -228 0
-695 -175 -229 0
-695 -175 -230 0
-695 -175 -248 0
-695 -175 -249 0
-695 -175 -250 0
-695 -175 -252 0
-695 -175 -253 0
-695 -175 -254 0
-695 -175 -264 0
-695 -175 -265 0
-695 -175 -266 0
-695 -175 -268 0
-695 -175 -269 0
-695 -175 -270 0
-695 -176 307 0
-695 -176 -154 -158 0
-695 -176 -229 0
-695 -176 -230 0
-695 -176 -249 0
-695 -176 -250 0
-695 -176 -253 0
-695 -176 -254 0
-695 -176 -265 0
-695 -176 -266 0
-695 -176 -269 0
-695 -176 -270 0
-695 -177 308 0
-695 -177 -154 -159 0
-695 -177 -230 0
-695 -177 -250 0
-695 -177 -254 0
-695 -177 -266 0
-695 -177 -270 0
-696 295 0
-696 304 0
-696 -170 0
-696 -171 0
-696 -172 0
-696 -173 0
-696 -178 0
-696 -175 306 0
-696 -175 -155 -157 0
-696 -175 -232 0
-696 -175 -233 0
-696 -175 -234 0
-696 -175 -252 0
-696 -175 -253 0
-696 -175 -254 0
-696 -175 -268 0
-696 -175 -269 0
-696 -175 -270 0
-696 -176 307 0
-696 -176 -155 -158 0
-696 -176 -233 0
-696 -176 -234 0
-696 -176 -253 0
-696 -176 -254 0
-696 -176 -269 0
-696 -176 -270 0
-696 -177 308 0
-696 -177 -155 -159 0
-696 -177 -234 0
-696 -177 -254 0
-696 -177 -270 0
-697 295 0
-697 299 0
-697 -180 0
-697 -181 0
-697 -182 0
-697 -186 0
-697 -183 306 0
-697 -183 -150 -157 0
-697 -183 -212 0
-697 -183 -213 0
-697 -183 -214 0
-697 -183 -236 0
-697 -183 -237 0
-697 -183 -238 0
-697 -183 -256 0
-697 -183 -257 0
-697 -183 -258 0
-697 -184 307 0
-697 -184 -150 -158 0
-697 -184 -213 0
-697 -184 -214 0
-697 -184 -237 0
-697 -184 -238 0
-697 -184 -257 0
-697 -184 -258 0
-697 -185 308 0
-697 -185 -150 -159 0
-697 -185 -214 0
-697 -185 -238 0
-697 -185 -258 0
-698 295 0
-698 300 0
-698 -181 0
-698 -182 0
-698 -186 0
-698 -183 306 0
-698 -183 -151 -157 0
-698 -183 -216 0
-698 -183 -217 0
-698 -183 -218 0
-698 -183 -236 0
-698 -183 -237 0
-698 -183 -238 0
-698 -183 -240 0
-698 -183 -241 0
-698 -183 -242 0
-698 -183 -256 0
-698 -183 -257 0
-698 -183 -258 0
-698 -183 -260 0
-698 -183 -261 0
-698 -183 -262 0
-698 -184 307 0
-698 -184 -151 -158 0
-698 -184 -217 0
-698 -184 -218 0
-698 -184 -237 0
-698 -184 -238 0
-698 -184 -241 0
-698 -184 -242 0
-698 -184 -257 0
-698 -184 -258 0
-698 -184 -261 0
-698 -184 -262 0
-698 -185 308 0
-698 -185 -151 -159 0
-698 -185 -218 0
-698 -185 -238 0
-698 -185 -242 0
-698 -185 -258 0
-698 -185 -262 0
-699 295 0
-699 301 0
-699 -182 0
-699 -186 0
-699 -183 306 0
-699 -183 -152 -157 0
-699 -183 -220 0
-699 -183 -221 0
-699 -183 -222 0
-699 -183 -240 0
-699 -183 -241 0
-699 -183 -242 0
-699 -183 -244 0
-699 -183 -245 0
-699 -183 -246 0
-699 -183 -256 0
-699 -183 -257 0
-699 -183 -258 0
-699 -183 -260 0
-699 -183 -261 0
-699 -183 -262 0
-699 -183 -264 0
-699 -183 -265 0
-699 -183 -266 0
-699 -184 307 0
-699 -184 -152 -158 0
-699 -184 -221 0
-699 -184 -222 0
-699 -184 -241 0
-699 -184 -242 0
-699 -184 -245 0
-699 -184 -246 0
-699 -184 -257 0
-699 -184 -258 0
-699 -184 -261 0
-699 -184 -262 0
-699 -184 -265 0
-699 -184 -266 0
-699 -185 308 0
-699 -185 -152 -159 0
-699 -185 -222 0
-699 -185 -242 0
-699 -185 -246 0
-699 -185 -258 0
-699 -185 -262 0
-699 -185 -266 0
-700 295 0
-700 302 0
-700 -179 0
-700 -186 0
-700 -183 306 0
-700 -183 -153 -157 0
-700 -183 -224 0
-700 -183 -225 0
-700 -183 -226 0
-700 -183 -244 0
-700 -183 -245 0
-700 -183 -246 0
-700 -183 -248 0
-700 -183 -249 0
-700 -183 -250 0
-700 -183 -260 0
-700 -183 -261 0
-700 -183 -262 0
-700 -183 -264 0
-700 -183 -265 0
-700 -183 -266 0
-700 -183 -268 0
-700 -183 -269 0
-700 -183 -270 0
-700 -184 307 0
-700 -184 -153 -158 0
-700 -184 -225 0
-700 -184 -226 0
-700 -184 -245 0
-700 -184 -246 0
-700 -184 -249 0
-700 -184 -250 0
-700 -184 -261 0
-700 -184 -262 0
-700 -184 -265 0
-700 -184 -266 0
-700 -184 -269 0
-700 -184 -270 0
-700 -185 308 0
-700 -185 -153 -159 0
-700 -185 -226 0
-700 -185 -246 0
-700 -185 -250 0
-700 -185 -262 0
-700 -185 -266 0
-700 -185 -270 0
-701 295 0
-701 303 0
-701 -179 0
-701 -180 0
-701 -186 0
-701 -183 306 0
-701 -183 -154 -157 0
-701 -183 -228 0
-701 -183 -229 0
-701 -183 -230 0
-701 -183 -248 0
-701 -183 -249 0
-701 -183 -250 0
-701 -183 -252 0
-701 -183 -253 0
-701 -183 -254 0
-701 -183 -264 0
-701 -183 -265 0
-701 -183 -266 0
-701 -183 -268 0
-701 -183 -269 0
-701 -183 -270 0
-701 -184 307 0
-701 -184 -154 -158 0
-701 -184 -229 0
-701 -184 -230 0
-701 -184 -249 0
-701 -184 -250 0
-701 -184 -253 0
-701 -184 -254 0
-701 -184 -265 0
-701 -184 -266 0
-701 -184 -269 0
-701 -184 -270 0
-701 -185 308 0
-701 -185 -154 -159 0
-701 -185 -230 0
-701 -185 -250 0
-701 -185 -254 0
-701 -185 -266 0
-701 -185 -270 0
-702 295 0
-702 304 0
-702 -179 0
-702 -180 0
-702 -181 0
-702 -186 0
-702 -183 306 0
-702 -183 -155 -157 0
-702 -183 -232 0
-702 -183 -233 0
-702 -183 -234 0
-702 -183 -252 0
-702 -183 -253 0
-702 -183 -254 0
-702 -183 -268 0
-702 -183 -269 0
-702 -183 -270 0
-702 -184 307 0
-702 -184 -155 -158 0
-702 -184 -233 0
-702 -184 -234 0
-702 -184 -253 0
-702 -184 -254 0
-702 -184 -269 0
-702 -184 -270 0
-702 -185 308 0
-702 -185 -155 -159 0
-702 -185 -234 0
-702 -185 -254 0
-702 -185 -270 0
-703 295 0
-703 299 0
-703 305 0
-703 -150 -156 0
-703 -211 0
-703 -212 0
-703 -213 0
-703 -214 0
-703 -235 0
-703 -236 0
-703 -237 0
-703 -238 0
-703 -255 0
-703 -256 0
-703 -257 0
-703 -258 0
-704 295 0
-704 300 0
-704 305 0
-704 -151 -156 0
-704 -215 0
-704 -216 0
-704 -217 0
-704 -218 0
-704 -235 0
-704 -236 0
-704 -237 0
-704 -238 0
-704 -239 0
-704 -240 0
-704 -241 0
-704 -242 0
-704 -255 0
-704 -256 0
-704 -257 0
-704 -258 0
-704 -259 0
-704 -260 0
-704 -261 0
-704 -262 0
-705 295 0
-705 301 0
-705 305 0
-705 -152 -156 0
-705 -219 0
-705 -220 0
-705 -221 0
-705 -222 0
-705 -239 0
-705 -240 0
-705 -241 0
-705 -242 0
-705 -243 0
-705 -244 0
-705 -245 0
-705 -246 0
-705 -255 0
-705 -256 0
-705 -257 0
-705 -258 0
-705 -259 0
-705 -260 0
-705 -261 0
-705 -262 0
-705 -263 0
-705 -264 0
-705 -265 0
-705 -266 0
-706 295 0
-706 302 0
-706 305 0
-706 -153 -156 0
-706 -223 0
-706 -224 0
-706 -225 0
-706 -226 0
-706 -243 0
-706 -244 0
-706 -245 0
-706 -246 0
-706 -247 0
-706 -248 0
-706 -249 0
-706 -250 0
-706 -259 0
-706 -260 0
-706 -261 0
-706 -262 0
-706 -263 0
-706 -264 0
-706 -265 0
-706 -266 0
-706 -267 0
-706 -268 0
-706 -269 0
-706 -270 0
-707 295 0
-707 303 0
-707 305 0
-707 -154 -156 0
-707 -227 0
-707 -228 0
-707 -229 0
-707 -230 0
-707 -247 0
-707 -248 0
-707 -249 0
-707 -250 0
-707 -251 0
-707 -252 0
-707 -253 0
-707 -254 0
-707 -263 0
-707 -264 0
-707 -265 0
-707 -266 0
-707 -267 0
-707 -268 0
-707 -269 0
-707 -270 0
-708 295 0
-708 304 0
-708 305 0
-708 -155 -156 0
-708 -231 0
-708 -232 0
-708 -233 0
-708 -234 0
-708 -251 0
-708 -252 0
-708 -253 0
-708 -254 0
-708 -267 0
-708 -268 0
-708 -269 0
-708 -270 0
-709 296 0
-709 309 0
-709 -151 0
-709 -152 0
-709 -153 0
-709 -154 0
-709 -155 0
-709 -159 0
-709 -156 316 0
-709 -156 -160 -167 0
-709 -156 -188 0
-709 -156 -189 0
-709 -156 -190 0
-709 -156 -236 0
-709 -156 -237 0
-709 -156 -238 0
-709 -156 -256 0
-709 -156 -257 0
-709 -156 -258 0
-709 -157 317 0
-709 -157 -160 -168 0
-709 -157 -189 0
-709 -157 -190 0
-709 -157 -237 0
-709 -157 -238 0
-709 -157 -257 0
-709 -157 -258 0
-709 -158 318 0
-709 -158 -160 -169 0
-709 -158 -190 0
-709 -158 -238 0
-709 -158 -258 0
-710 296 0
-710 310 0
-710 -150 0
-710 -152 0
-710 -153 0
-710 -154 0
-710 -155 0
-710 -159 0
-710 -156 316 0
-710 -156 -161 -167 0
-710 -156 -192 0
-710 -156 -193 0
-710 -156 -194 0
-710 -156 -236 0
-710 -156 -237 0
-710 -156 -238 0
-710 -156 -240 0
-710 -156 -241 0
-710 -156 -242 0
-710 -156 -256 0
-710 -156 -257 0
-710 -156 -258 0
-710 -156 -260 0
-710 -156 -261 0
-710 -156 -262 0
-710 -157 317 0
-710 -157 -161 -168 0
-710 -157 -193 0
-710 -157 -194 0
-710 -157 -237 0
-710 -157 -238 0
-710 -157 -241 0
-710 -157 -242 0
-710 -157 -257 0
-710 -157 -258 0
-710 -157 -261 0
-710 -157 -262 0
-710 -158 318 0
-710 -158 -161 -169 0
-710 -158 -194 0
-710 -158 -238 0
-710 -158 -242 0
-710 -158 -258 0
-710 -158 -262 0
-711 296 0
-711 311 0
-711 -150 0
-711 -151 0
-711 -153 0
-711 -154 0
-711 -155 0
-711 -159 0
-711 -156 316 0
-711 -156 -162 -167 0
-711 -156 -196 0
-711 -156 -197 0
-711 -156 -198 0
-711 -156 -240 0
-711 -156 -241 0
-711 -156 -242 0
-711 -156 -244 0
-711 -156 -245 0
-711 -156 -246 0
-711 -156 -256 0
-711 -156 -257 0
-711 -156 -258 0
-711 -156 -260 0
-711 -156 -261 0
-711 -156 -262 0
-711 -156 -264 0
-711 -156 -265 0
-711 -156 -266 0
-711 -157 317 0
-711 -157 -162 -168 0
-711 -157 -197 0
-711 -157 -198 0
-711 -157 -241 0
-711 -157 -242 0
-711 -157 -245 0
-711 -157 -246 0
-711 -157 -257 0
-711 -157 -258 0
-711 -157 -261 0
-711 -157 -262 0
-711 -157 -265 0
-711 -157 -266 0
-711 -158 318 0
-711 -158 -162 -169 0
-711 -158 -198 0
-711 -158 -242 0
-711 -158 -246 0
-711 -158 -258 0
-711 -158 -262 0
-711 -158 -266 0
-712 296 0
-712 312 0
-712 -150 0
-712 -151 0
-712 -152 0
-712 -154 0
-712 -155 0
-712 -159 0
-712 -156 316 0
-712 -156 -163 -167 0
-712 -156 -200 0
-712 -156 -201 0
-712 -156 -202 0
-712 -156 -244 0
-712 -156 -245 0
-712 -156 -246 0
-712 -156 -248 0
-712 -156 -249 0
-712 -156 -250 0
-712 -156 -260 0
-712 -156 -261 0
-712 -156 -262 0
-712 -156 -264 0
-712 -156 -265 0
-712 -156 -266 0
-712 -156 -268 0
-712 -156 -269 0
-712 -156 -270 0
-712 -157 317 0
-712 -157 -163 -168 0
-712 -157 -201 0
-712 -157 -202 0
-712 -157 -245 0
-712 -157 -246 0
-712 -157 -249 0
-712 -157 -250 0
-712 -157 -261 0
-712 -157 -262 0
-712 -157 -265 0
-712 -157 -266 0
-712 -157 -269 0
-712 -157 -270 0
-712 -158 318 0
-712 -158 -163 -169 0
-712 -158 -202 0
-712 -158 -246 0
-712 -158 -250 0
-712 -158 -262 0
-712 -158 -266 0
-712 -158 -270 0
-713 296 0
-713 313 0
-713 -150 0
-713 -151 0
-713 -152 0
-713 -153 0
-713 -155 0
-713 -159 0
-713 -156 316 0
-713 -156 -164 -167 0
-713 -156 -204 0
-713 -156 -205 0
-713 -156 -206 0
-713 -156 -248 0
-713 -156 -249 0
-713 -156 -250 0
-713 -156 -252 0
-713 -156 -253 0
-713 -156 -254 0
-713 -156 -264 0
-713 -156 -265 0
-713 -156 -266 0
-713 -156 -268 0
-713 -156 -269 0
-713 -156 -270 0
-713 -157 317 0
-713 -157 -164 -168 0
-713 -157 -205 0
-713 -157 -206 0
-713 -157 -249 0
-713 -157 -250 0
-713 -157 -253 0
-713 -157 -254 0
-713 -157 -265 0
-713 -157 -266 0
-713 -157 -269 0
-713 -157 -270 0
-713 -158 318 0
-713 -158 -164 -169 0
-713 -158 -206 0
-713 -158 -250 0
-713 -158 -254 0
-713 -158 -266 0
-713 -158 -270 0
-714 296 0
-714 314 0
-714 -150 0
-714 -151 0
-714 -152 0
-714 -153 0
-714 -154 0
-714 -159 0
-714 -156 316 0
-714 -156 -165 -167 0
-714 -156 -208 0
-714 -156 -209 0
-714 -156 -210 0
-714 -156 -252 0
-714 -156 -253 0
-714 -156 -254 0
-714 -156 -268 0
-714 -156 -269 0
-714 -156 -270 0
-714 -157 317 0
-714 -157 -165 -168 0
-714 -157 -209 0
-714 -157 -210 0
-714 -157 -253 0
-714 -157 -254 0
-714 -157 -269 0
-714 -157 -270 0
-714 -158 318 0
-714 -158 -165 -169 0
-714 -158 -210 0
-714 -158 -254 0
-714 -158 -270 0
-715 296 0
-715 309 0
-715 -171 0
-715 -172 0
-715 -173 0
-715 -174 0
-715 -178 0
-715 -175 316 0
-715 -175 -160 -167 0
-715 -175 -188 0
-715 -175 -189 0
-715 -175 -190 0
-715 -175 -236 0
-715 -175 -237 0
-715 -175 -238 0
-715 -175 -256 0
-715 -175 -257 0
-715 -175 -258 0
-715 -176 317 0
-715 -176 -160 -168 0
-715 -176 -189 0
-715 -176 -190 0
-715 -176 -237 0
-715 -176 -238 0
-715 -176 -257 0
-715 -176 -258 0
-715 -177 318 0
-715 -177 -160 -169 0
-715 -177 -190 0
-715 -177 -238 0
-715 -177 -258 0
-716 296 0
-716 310 0
-716 -172 0
-716 -173 0
-716 -174 0
-716 -178 0
-716 -175 316 0
-716 -175 -161 -167 0
-716 -175 -192 0
-716 -175 -193 0
-716 -175 -194 0
-716 -175 -236 0
-716 -175 -237 0
-716 -175 -238 0
-716 -175 -240 0
-716 -175 -241 0
-716 -175 -242 0
-716 -175 -256 0
-716 -175 -257 0
-716 -175 -258 0
-716 -175 -260 0
-716 -175 -261 0
-716 -175 -262 0
-716 -176 317 0
-716 -176 -161 -168 0
-716 -176 -193 0
-716 -176 -194 0
-716 -176 -237 0
-716 -176 -238 0
-716 -176 -241 0
-716 -176 -242 0
-716 -176 -257 0
-716 -176 -258 0
-716 -176 -261 0
-716 -176 -262 0
-716 -177 318 0
-716 -177 -161 -169 0
-716 -177 -194 0
-716 -177 -238 0
-716 -177 -242 0
-716 -177 -258 0
-716 -177 -262 0
-717 296 0
-717 311 0
-717 -170 0
-717 -173 0
-717 -174 0
-717 -178 0
-717 -175 316 0
-717 -175 -162 -167 0
-717 -175 -196 0
-717 -175 -197 0
-717 -175 -198 0
-717 -175 -240 0
-717 -175 -241 0
-717 -175 -242 0
-717 -175 -244 0
-717 -175 -245 0
-717 -175 -246 0
-717 -175 -256 0
-717 -175 -257 0
-717 -175 -258 0
-717 -175 -260 0
-717 -175 -261 0
-717 -175 -262 0
-717 -175 -264 0
-717 -175 -265 0
-717 -175 -266 0
-717 -176 317 0
-717 -176 -162 -168 0
-717 -176 -197 0
-717 -176 -198 0
-717 -176 -241 0
-717 -176 -242 0
-717 -176 -245 0
-717 -176 -246 0
-717 -176 -257 0
-717 -176 -258 0
-717 -176 -261 0
-717 -176 -262 0
-717 -176 -265 0
-717 -176 -266 0
-717 -177 318 0
-717 -177 -162 -169 0
-717 -177 -198 0
-717 -177 -242 0
-717 -177 -246 0
-717 -177 -258 0
-717 -177 -262 0
-717 -177 -266 0
-718 296 0
-718 312 0
-718 -170 0
-718 -171 0
-718 -174 0
-718 -178 0
-718 -175 316 0
-718 -175 -163 -167 0
-718 -175 -200 0
-718 -175 -201 0
-718 -175 -202 0
-718 -175 -244 0
-718 -175 -245 0
-718 -175 -246 0
-718 -175 -248 0
-718 -175 -249 0
-718 -175 -250 0
-718 -175 -260 0
-718 -175 -261 0
-718 -175 -262 0
-718 -175 -264 0
-718 -175 -265 0
-718 -175 -266 0
-718 -175 -268 0
-718 -175 -269 0
-718 -175 -270 0
-718 -176 317 0
-718 -176 -163 -168 0
-718 -176 -201 0
-718 -176 -202 0
-718 -176 -245 0
-718 -176 -246 0
-718 -176 -249 0
-718 -176 -250 0
-718 -176 -261 0
-718 -176 -262 0
-718 -176 -265 0
-718 -176 -266 0
-718 -176 -269 0
-718 -176 -270 0
-718 -177 318 0
-718 -177 -163 -169 0
-718 -177 -202 0
-718 -177 -246 0
-718 -177 -250 0
-718 -177 -262 0
-718 -177 -266 0
-718 -177 -270 0
-719 296 0
-719 313 0
-719 -170 0
-719 -171 0
-719 -172 0
-719 -178 0
-719 -175 316 0
-719 -175 -164 -167 0
-719 -175 -204 0
-719 -175 -205 0
-719 -175 -206 0
-719 -175 -248 0
-719 -175 -249 0
-719 -175 -250 0
-719 -175 -252 0
-719 -175 -253 0
-719 -175 -254 0
-719 -175 -264 0
-719 -175 -265 0
-719 -175 -266 0
-719 -175 -268 0
-719 -175 -269 0
-719 -175 -270 0
-719 -176 317 0
-719 -176 -164 -168 0
-719 -176 -205 0
-719 -176 -206 0
-719 -176 -249 0
-719 -176 -250 0
-719 -176 -253 0
-719 -176 -254 0
-719 -176 -265 0
-719 -176 -266 0
-719 -176 -269 0
-719 -176 -270 0
-719 -177 318 0
-719 -177 -164 -169 0
-719 -177 -206 0
-719 -177 -250 0
-719 -177 -254 0
-719 -177 -266 0
-719 -177 -270 0
-720 296 0
-720 314 0
-720 -170 0
-720 -171 0
-720 -172 0
-720 -173 0
-720 -178 0
-720 -175 316 0
-720 -175 -165 -167 0
-720 -175 -208 0
-720 -175 -209 0
-720 -175 -210 0
-720 -175 -252 0
-720 -175 -253 0
-720 -175 -254 0
-720 -175 -268 0
-720 -175 -269 0
-720 -175 -270 0
-720 -176 317 0
-720 -176 -165 -168 0
-720 -176 -209 0
-720 -176 -210 0
-720 -176 -253 0
-720 -176 -254 0
-720 -176 -269 0
-720 -176 -270 0
-720 -177 318 0
-720 -177 -165 -169 0
-720 -177 -210 0
-720 -177 -254 0
-720 -177 -270 0
-721 296 0
-721 309 0
-721 -180 0
-721 -181 0
-721 -182 0
-721 -186 0
-721 -183 316 0
-721 -183 -160 -167 0
-721 -183 -188 0
-721 -183 -189 0
-721 -183 -190 0
-721 -183 -236 0
-721 -183 -237 0
-721 -183 -238 0
-721 -183 -256 0
-721 -183 -257 0
-721 -183 -258 0
-721 -184 317 0
-721 -184 -160 -168 0
-721 -184 -189 0
-721 -184 -190 0
-721 -184 -237 0
-721 -184 -238 0
-721 -184 -257 0
-721 -184 -258 0
-721 -185 318 0
-721 -185 -160 -169 0
-721 -185 -190 0
-721 -185 -238 0
-721 -185 -258 0
-722 296 0
-722 310 0
-722 -181 0
-722 -182 0
-722 -186 0
-722 -183 316 0
-722 -183 -161 -167 0
-722 -183 -192 0
-722 -183 -193 0
-722 -183 -194 0
-722 -183 -236 0
-722 -183 -237 0
-722 -183 -238 0
-722 -183 -240 0
-722 -183 -241 0
-722 -183 -242 0
-722 -183 -256 0
-722 -183 -257 0
-722 -183 -258 0
-722 -183 -260 0
-722 -183 -261 0
-722 -183 -262 0
-722 -184 317 0
-722 -184 -161 -168 0
-722 -184 -193 0
-722 -184 -194 0
-722 -184 -237 0
-722 -184 -238 0
-722 -184 -241 0
-722 -184 -242 0
-722 -184 -257 0
-722 -184 -258 0
-722 -184 -261 0
-722 -184 -262 0
-722 -185 318 0
-722 -185 -161 -169 0
-722 -185 -194 0
-722 -185 -238 0
-722 -185 -242 0
-722 -185 -258 0
-722 -185 -262 0
-723 296 0
-723 311 0
-723 -182 0
-723 -186 0
-723 -183 316 0
-723 -183 -162 -167 0
-723 -183 -196 0
-723 -183 -197 0
-723 -183 -198 0
-723 -183 -240 0
-723 -183 -241 0
-723 -183 -242 0
-723 -183 -244 0
-723 -183 -245 0
-723 -183 -246 0
-723 -183 -256 0
-723 -183 -257 0
-723 -183 -258 0
-723 -183 -260 0
-723 -183 -261 0
-723 -183 -262 0
-723 -183 -264 0
-723 -183 -265 0
-723 -183 -266 0
-723 -184 317 0
-723 -184 -162 -168 0
-723 -184 -197 0
-723 -184 -198 0
-723 -184 -241 0
-723 -184 -242 0
-723 -184 -245 0
-723 -184 -246 0
-723 -184 -257 0
-723 -184 -258 0
-723 -184 -261 0
-723 -184 -262 0
-723 -184 -265 0
-723 -184 -266 0
-723 -185 318 0
-723 -185 -162 -169 0
-723 -185 -198 0
-723 -185 -242 0
-723 -185 -246 0
-723 -185 -258 0
-723 -185 -262 0
-723 -185 -266 0
-724 296 0
-724 312 0
-724 -179 0
-724 -186 0
-724 -183 316 0
-724 -183 -163 -167 0
-724 -183 -200 0
-724 -183 -201 0
-724 -183 -202 0
-724 -183 -244 0
-724 -183 -245 0
-724 -183 -246 0
-724 -183 -248 0
-724 -183 -249 0
-724 -183 -250 0
-724 -183 -260 0
-724 -183 -261 0
-724 -183 -262 0
-724 -183 -264 0
-724 -183 -265 0
-724 -183 -266 0
-724 -183 -268 0
-724 -183 -269 0
-724 -183 -270 0
-724 -184 317 0
-724 -184 -163 -168 0
-724 -184 -201 0
-724 -184 -202 0
-724 -184 -245 0
-724 -184 -246 0
-724 -184 -249 0
-724 -184 -250 0
-724 -184 -261 0
-724 -184 -262 0
-724 -184 -265 0
-724 -184 -266 0
-724 -184 -269 0
-724 -184 -270 0
-724 -185 318 0
-724 -185 -163 -169 0
-724 -185 -202 0
-724 -185 -246 0
-724 -185 -250 0
-724 -185 -262 0
-724 -185 -266 0
-724 -185 -270 0
-725 296 0
-725 313 0
-725 -179 0
-725 -180 0
-725 -186 0
-725 -183 316 0
-725 -183 -164 -167 0
-725 -183 -204 0
-725 -183 -205 0
-725 -183 -206 0
-725 -183 -248 0
-725 -183 -249 0
-725 -183 -250 0
-725 -183 -252 0
-725 -183 -253 0
-725 -183 -254 0
-725 -183 -264 0
-725 -183 -265 0
-725 -183 -266 0
-725 -183 -268 0
-725 -183 -269 0
-725 -183 -270 0
-725 -184 317 0
-725 -184 -164 -168 0
-725 -184 -205 0
-725 -184 -206 0
-725 -184 -249 0
-725 -184 -250 0
-725 -184 -253 0
-725 -184 -254 0
-725 -184 -265 0
-725 -184 -266 0
-725 -184 -269 0
-725 -184 -270 0
-725 -185 318 0
-725 -185 -164 -169 0
-725 -185 -206 0
-725 -185 -250 0
-725 -185 -254 0
-725 -185 -266 0
-725 -185 -270 0
-726 296 0
-726 314 0
-726 -179 0
-726 -180 0
-726 -181 0
-726 -186 0
-726 -183 316 0
-726 -183 -165 -167 0
-726 -183 -208 0
-726 -183 -209 0
-726 -183 -210 0
-726 -183 -252 0
-726 -183 -253 0
-726 -183 -254 0
-726 -183 -268 0
-726 -183 -269 0
-726 -183 -270 0
-726 -184 317 0
-726 -184 -165 -168 0
-726 -184 -209 0
-726 -184 -210 0
-726 -184 -253 0
-726 -184 -254 0
-726 -184 -269 0
-726 -184 -270 0
-726 -185 318 0
-726 -185 -165 -169 0
-726 -185 -210 0
-726 -185 -254 0
-726 -185 -270 0
-727 296 0
-727 309 0
-727 315 0
-727 -160 -166 0
-727 -187 0
-727 -188 0
-727 -189 0
-727 -190 0
-727 -235 0
-727 -236 0
-727 -237 0
-727 -238 0
-727 -255 0
-727 -256 0
-727 -257 0
-727 -258 0
-728 296 0
-728 310 0
-728 315 0
-728 -161 -166 0
-728 -191 0
-728 -192 0
-728 -193 0
-728 -194 0
-728 -235 0
-728 -236 0
-728 -237 0
-728 -238 0
-728 -239 0
-728 -240 0
-728 -241 0
-728 -242 0
-728 -255 0
-728 -256 0
-728 -257 0
-728 -258 0
-728 -259 0
-728 -260 0
-728 -261 0
-728 -262 0
-729 296 0
-729 311 0
-729 315 0
-729 -162 -166 0
-729 -195 0
-729 -196 0
-729 -197 0
-729 -198 0
-729 -239 0
-729 -240 0
-729 -241 0
-729 -242 0
-729 -243 0
-729 -244 0
-729 -245 0
-729 -246 0
-729 -255 0
-729 -256 0
-729 -257 0
-729 -258 0
-729 -259 0
-729 -260 0
-729 -261 0
-729 -262 0
-729 -263 0
-729 -264 0
-729 -265 0
-729 -266 0
-730 296 0
-730 312 0
-730 315 0
-730 -163 -166 0
-730 -199 0
-730 -200 0
-730 -201 0
-730 -202 0
-730 -243 0
-730 -244 0
-730 -245 0
-730 -246 0
-730 -247 0
-730 -248 0
-730 -249 0
-730 -250 0
-730 -259 0
-730 -260 0
-730 -261 0
-730 -262 0
-730 -263 0
-730 -264 0
-730 -265 0
-730 -266 0
-730 -267 0
-730 -268 0
-730 -269 0
-730 -270 0
-731 296 0
-731 313 0
-731 315 0
-731 -164 -166 0
-731 -203 0
-731 -204 0
-731 -205 0
-731 -206 0
-731 -247 0
-731 -248 0
-731 -249 0
-731 -250 0
-731 -251 0
-731 -252 0
-731 -253 0
-731 -254 0
-731 -263 0
-731 -264 0
-731 -265 0
-731 -266 0
-731 -267 0
-731 -268 0
-731 -269 0
-731 -270 0
-732 296 0
-732 314 0
-732 315 0
-732 -165 -166 0
-732 -207 0
-732 -208 0
-732 -209 0
-732 -210 0
-732 -251 0
-732 -252 0
-732 -253 0
-732 -254 0
-732 -267 0
-732 -268 0
-732 -269 0
-732 -270 0
-733 297 0
-733 319 0
-733 -152 0
-733 -153 0
-733 -154 0
-733 -155 0
-733 -159 0
-733 -156 325 0
-733 -156 -170 -176 0
-733 -156 -188 0
-733 -156 -189 0
-733 -156 -190 0
-733 -156 -192 0
-733 -156 -193 0
-733 -156 -194 0
-733 -156 -212 0
-733 -156 -213 0
-733 -156 -214 0
-733 -156 -216 0
-733 -156 -217 0
-733 -156 -218 0
-733 -156 -256 0
-733 -156 -257 0
-733 -156 -258 0
-733 -156 -260 0
-733 -156 -261 0
-733 -156 -262 0
-733 -157 326 0
-733 -157 -170 -177 0
-733 -157 -189 0
-733 -157 -190 0
-733 -157 -193 0
-733 -157 -194 0
-733 -157 -213 0
-733 -157 -214 0
-733 -157 -217 0
-733 -157 -218 0
-733 -157 -257 0
-733 -157 -258 0
-733 -157 -261 0
-733 -157 -262 0
-733 -158 327 0
-733 -158 -170 -178 0
-733 -158 -190 0
-733 -158 -194 0
-733 -158 -214 0
-733 -158 -218 0
-733 -158 -258 0
-733 -158 -262 0
-734 297 0
-734 320 0
-734 -150 0
-734 -153 0
-734 -154 0
-734 -155 0
-734 -159 0
-734 -156 325 0
-734 -156 -171 -176 0
-734 -156 -192 0
-734 -156 -193 0
-734 -156 -194 0
-734 -156 -196 0
-734 -156 -197 0
-734 -156 -198 0
-734 -156 -216 0
-734 -156 -217 0
-734 -156 -218 0
-734 -156 -220 0
-734 -156 -221 0
-734 -156 -222 0
-734 -156 -256 0
-734 -156 -257 0
-734 -156 -258 0
-734 -156 -260 0
-734 -156 -261 0
-734 -156 -262 0
-734 -156 -264 0
-734 -156 -265 0
-734 -156 -266 0
-734 -157 326 0
-734 -157 -171 -177 0
-734 -157 -193 0
-734 -157 -194 0
-734 -157 -197 0
-734 -157 -198 0
-734 -157 -217 0
-734 -157 -218 0
-734 -157 -221 0
-734 -157 -222 0
-734 -157 -257 0
-734 -157 -258 0
-734 -157 -261 0
-734 -157 -262 0
-734 -157 -265 0
-734 -157 -266 0
-734 -158 327 0
-734 -158 -171 -178 0
-734 -158 -194 0
-734 -158 -198 0
-734 -158 -218 0
-734 -158 -222 0
-734 -158 -258 0
-734 -158 -262 0
-734 -158 -266 0
-735 297 0
-735 321 0
-735 -150 0
-735 -151 0
-735 -154 0
-735 -155 0
-735 -159 0
-735 -156 325 0
-735 -156 -172 -176 0
-735 -156 -196 0
-735 -156 -197 0
-735 -156 -198 0
-735 -156 -200 0
-735 -156 -201 0
-735 -156 -202 0
-735 -156 -220 0
-735 -156 -221 0
-735 -156 -222 0
-735 -156 -224 0
-735 -156 -225 0
-735 -156 -226 0
-735 -156 -256 0
-735 -156 -257 0
-735 -156 -258 0
-735 -156 -260 0
-735 -156 -261 0
-735 -156 -262 0
-735 -156 -264 0
-735 -156 -265 0
-735 -156 -266 0
-735 -156 -268 0
-735 -156 -269 0
-735 -156 -270 0
-735 -157 326 0
-735 -157 -172 -177 0
-735 -157 -197 0
-735 -157 -198 0
-735 -157 -201 0
-735 -157 -202 0
-735 -157 -221 0
-735 -157 -222 0
-735 -157 -225 0
-735 -157 -226 0
-735 -157 -257 0
-735 -157 -258 0
-735 -157 -261 0
-735 -157 -262 0
-735 -157 -265 0
-735 -157 -266 0
-735 -157 -269 0
-735 -157 -270 0
-735 -158 327 0
-735 -158 -172 -178 0
-735 -158 -198 0
-735 -158 -202 0
-735 -158 -222 0
-735 -158 -226 0
-735 -158 -258 0
-735 -158 -262 0
-735 -158 -266 0
-735 -158 -270 0
-736 297 0
-736 322 0
-736 -150 0
-736 -151 0
-736 -152 0
-736 -155 0
-736 -159 0
-736 -156 325 0
-736 -156 -173 -176 0
-736 -156 -200 0
-736 -156 -201 0
-736 -156 -202 0
-736 -156 -204 0
-736 -156 -205 0
-736 -156 -206 0
-736 -156 -224 0
-736 -156 -225 0
-736 -156 -226 0
-736 -156 -228 0
-736 -156 -229 0
-736 -156 -230 0
-736 -156 -260 0
-736 -156 -261 0
-736 -156 -262 0
-736 -156 -264 0
-736 -156 -265 0
-736 -156 -266 0
-736 -156 -268 0
-736 -156 -269 0
-736 -156 -270 0
-736 -157 326 0
-736 -157 -173 -177 0
-736 -157 -201 0
-736 -157 -202 0
-736 -157 -205 0
-736 -157 -206 0
-736 -157 -225 0
-736 -157 -226 0
-736 -157 -229 0
-736 -157 -230 0
-736 -157 -261 0
-736 -157 -262 0
-736 -157 -265 0
-736 -157 -266 0
-736 -157 -269 0
-736 -157 -270 0
-736 -158 327 0
-736 -158 -173 -178 0
-736 -158 -202 0
-736 -158 -206 0
-736 -158 -226 0
-736 -158 -230 0
-736 -158 -262 0
-736 -158 -266 0
-736 -158 -270 0
-737 297 0
-737 323 0
-737 -150 0
-737 -151 0
-737 -152 0
-737 -153 0
-737 -159 0
-737 -156 325 0
-737 -156 -174 -176 0
-737 -156 -204 0
-737 -156 -205 0
-737 -156 -206 0
-737 -156 -208 0
-737 -156 -209 0
-737 -156 -210 0
-737 -156 -228 0
-737 -156 -229 0
-737 -156 -230 0
-737 -156 -232 0
-737 -156 -233 0
-737 -156 -234 0
-737 -156 -264 0
-737 -156 -265 0
-737 -156 -266 0
-737 -156 -268 0
-737 -156 -269 0
-737 -156 -270 0
-737 -157 326 0
-737 -157 -174 -177 0
-737 -157 -205 0
-737 -157 -206 0
-737 -157 -209 0
-737 -157 -210 0
-737 -157 -229 0
-737 -157 -230 0
-737 -157 -233 0
-737 -157 -234 0
-737 -157 -265 0
-737 -157 -266 0
-737 -157 -269 0
-737 -157 -270 0
-737 -158 327 0
-737 -158 -174 -178 0
-737 -158 -206 0
-737 -158 -210 0
-737 -158 -230 0
-737 -158 -234 0
-737 -158 -266 0
-737 -158 -270 0
-738 297 0
-738 319 0
-738 -162 0
-738 -163 0
-738 -164 0
-738 -165 0
-738 -169 0
-738 -166 325 0
-738 -166 -170 -176 0
-738 -166 -188 0
-738 -166 -189 0
-738 -166 -190 0
-738 -166 -192 0
-738 -166 -193 0
-738 -166 -194 0
-738 -166 -212 0
-738 -166 -213 0
-738 -166 -214 0
-738 -166 -216 0
-738 -166 -217 0
-738 -166 -218 0
-738 -166 -256 0
-738 -166 -257 0
-738 -166 -258 0
-738 -166 -260 0
-738 -166 -261 0
-738 -166 -262 0
-738 -167 326 0
-738 -167 -170 -177 0
-738 -167 -189 0
-738 -167 -190 0
-738 -167 -193 0
-738 -167 -194 0
-738 -167 -213 0
-738 -167 -214 0
-738 -167 -217 0
-738 -167 -218 0
-738 -167 -257 0
-738 -167 -258 0
-738 -167 -261 0
-738 -167 -262 0
-738 -168 327 0
-738 -168 -170 -178 0
-738 -168 -190 0
-738 -168 -194 0
-738 -168 -214 0
-738 -168 -218 0
-738 -168 -258 0
-738 -168 -262 0
-739 297 0
-739 320 0
-739 -160 0
-739 -163 0
-739 -164 0
-739 -165 0
-739 -169 0
-739 -166 325 0
-739 -166 -171 -176 0
-739 -166 -192 0
-739 -166 -193 0
-739 -166 -194 0
-739 -166 -196 0
-739 -166 -197 0
-739 -166 -198 0
-739 -166 -216 0
-739 -166 -217 0
-739 -166 -218 0
-739 -166 -220 0
-739 -166 -221 0
-739 -166 -222 0
-739 -166 -256 0
-739 -166 -257 0
-739 -166 -258 0
-739 -166 -260 0
-739 -166 -261 0
-739 -166 -262 0
-739 -166 -264 0
-739 -166 -265 0
-739 -166 -266 0
-739 -167 326 0
-739 -167 -171 -177 0
-739 -167 -193 0
-739 -167 -194 0
-739 -167 -197 0
-739 -167 -198 0
-739 -167 -217 0
-739 -167 -218 0
-739 -167 -221 0
-739 -167 -222 0
-739 -167 -257 0
-739 -167 -258 0
-739 -167 -261 0
-739 -167 -262 0
-739 -167 -265 0
-739 -167 -266 0
-739 -168 327 0
-739 -168 -171 -178 0
-739 -168 -194 0
-739 -168 -198 0
-739 -168 -218 0
-739 -168 -222 0
-739 -168 -258 0
-739 -168 -262 0
-739 -168 -266 0
-740 297 0
-740 321 0
-740 -160 0
-740 -161 0
-740 -164 0
-740 -165 0
-740 -169 0
-740 -166 325 0
-740 -166 -172 -176 0
-740 -166 -196 0
-740 -166 -197 0
-740 -166 -198 0
-740 -166 -200 0
-740 -166 -201 0
-740 -166 -202 0
-740 -166 -220 0
-740 -166 -221 0
-740 -166 -222 0
-740 -166 -224 0
-740 -166 -225 0
-740 -166 -226 0
-740 -166 -256 0
-740 -166 -257 0
-740 -166 -258 0
-740 -166 -260 0
-740 -166 -261 0
-740 -166 -262 0
-740 -166 -264 0
-740 -166 -265 0
-740 -166 -266 0
-740 -166 -268 0
-740 -166 -269 0
-740 -166 -270 0
-740 -167 326 0
-740 -167 -172 -177 0
-740 -167 -197 0
-740 -167 -198 0
-740 -167 -201 0
-740 -167 -202 0
-740 -167 -221 0
-740 -167 -222 0
-740 -167 -225 0
-740 -167 -226 0
-740 -167 -257 0
-740 -167 -258 0
-740 -167 -261 0
-740 -167 -262 0
-740 -167 -265 0
-740 -167 -266 0
-740 -167 -269 0
-740 -167 -270 0
-740 -168 327 0
-740 -168 -172 -178 0
-740 -168 -198 0
-740 -168 -202 0
-740 -168 -222 0
-740 -168 -226 0
-740 -168 -258 0
-740 -168 -262 0
-740 -168 -266 0
-740 -168 -270 0
-741 297 0
-741 322 0
-741 -160 0
-741 -161 0
-741 -162 0
-741 -165 0
-741 -169 0
-741 -166 325 0
-741 -166 -173 -176 0
-741 -166 -200 0
-741 -166 -201 0
-741 -166 -202 0
-741 -166 -204 0
-741 -166 -205 0
-741 -166 -206 0
-741 -166 -224 0
-741 -166 -225 0
-741 -166 -226 0
-741 -166 -228 0
-741 -166 -229 0
-741 -166 -230 0
-741 -166 -260 0
-741 -166 -261 0
-741 -166 -262 0
-741 -166 -264 0
-741 -166 -265 0
-741 -166 -266 0
-741 -166 -268 0
-741 -166 -269 0
-741 -166 -270 0
-741 -167 326 0
-741 -167 -173 -177 0
-741 -167 -201 0
-741 -167 -202 0
-741 -167 -205 0
-741 -167 -206 0
-741 -167 -225 0
-741 -167 -226 0
-741 -167 -229 0
-741 -167 -230 0
-741 -167 -261 0
-741 -167 -262 0
-741 -167 -265 0
-741 -167 -266 0
-741 -167 -269 0
-741 -167 -270 0
-741 -168 327 0
-741 -168 -173 -178 0
-741 -168 -202 0
-741 -168 -206 0
-741 -168 -226 0
-741 -168 -230 0
-741 -168 -262 0
-741 -168 -266 0
-741 -168 -270 0
-742 297 0
-742 323 0
-742 -160 0
-742 -161 0
-742 -162 0
-742 -163 0
-742 -169 0
-742 -166 325 0
-742 -166 -174 -176 0
-742 -166 -204 0
-742 -166 -205 0
-742 -166 -206 0
-742 -166 -208 0
-742 -166 -209 0
-742 -166 -210 0
-742 -166 -228 0
-742 -166 -229 0
-742 -166 -230 0
-742 -166 -232 0
-742 -166 -233 0
-742 -166 -234 0
-742 -166 -264 0
-742 -166 -265 0
-742 -166 -266 0
-742 -166 -268 0
-742 -166 -269 0
-742 -166 -270 0
-742 -167 326 0
-742 -167 -174 -177 0
-742 -167 -205 0
-742 -167 -206 0
-742 -167 -209 0
-742 -167 -210 0
-742 -167 -229 0
-742 -167 -230 0
-742 -167 -233 0
-742 -167 -234 0
-742 -167 -265 0
-742 -167 -266 0
-742 -167 -269 0
-742 -167 -270 0
-742 -168 327 0
-742 -168 -174 -178 0
-742 -168 -206 0
-742 -168 -210 0
-742 -168 -230 0
-742 -168 -234 0
-742 -168 -266 0
-742 -168 -270 0
-743 297 0
-743 319 0
-743 -181 0
-743 -182 0
-743 -186 0
-743 -183 325 0
-743 -183 -170 -176 0
-743 -183 -188 0
-743 -183 -189 0
-743 -183 -190 0
-743 -183 -192 0
-743 -183 -193 0
-743 -183 -194 0
-743 -183 -212 0
-743 -183 -213 0
-743 -183 -214 0
-743 -183 -216 0
-743 -183 -217 0
-743 -183 -218 0
-743 -183 -256 0
-743 -183 -257 0
-743 -183 -258 0
-743 -183 -260 0
-743 -183 -261 0
-743 -183 -262 0
-743 -184 326 0
-743 -184 -170 -177 0
-743 -184 -189 0
-743 -184 -190 0
-743 -184 -193 0
-743 -184 -194 0
-743 -184 -213 0
-743 -184 -214 0
-743 -184 -217 0
-743 -184 -218 0
-743 -184 -257 0
-743 -184 -258 0
-743 -184 -261 0
-743 -184 -262 0
-743 -185 327 0
-743 -185 -170 -178 0
-743 -185 -190 0
-743 -185 -194 0
-743 -185 -214 0
-743 -185 -218 0
-743 -185 -258 0
-743 -185 -262 0
-744 297 0
-744 320 0
-744 -182 0
-744 -186 0
-744 -183 325 0
-744 -183 -171 -176 0
-744 -183 -192 0
-744 -183 -193 0
-744 -183 -194 0
-744 -183 -196 0
-744 -183 -197 0
-744 -183 -198 0
-744 -183 -216 0
-744 -183 -217 0
-744 -183 -218 0
-744 -183 -220 0
-744 -183 -221 0
-744 -183 -222 0
-744 -183 -256 0
-744 -183 -257 0
-744 -183 -258 0
-744 -183 -260 0
-744 -183 -261 0
-744 -183 -262 0
-744 -183 -264 0
-744 -183 -265 0
-744 -183 -266 0
-744 -184 326 0
-744 -184 -171 -177 0
-744 -184 -193 0
-744 -184 -194 0
-744 -184 -197 0
-744 -184 -198 0
-744 -184 -217 0
-744 -184 -218 0
-744 -184 -221 0
-744 -184 -222 0
-744 -184 -257 0
-744 -184 -258 0
-744 -184 -261 0
-744 -184 -262 0
-744 -184 -265 0
-744 -184 -266 0
-744 -185 327 0
-744 -185 -171 -178 0
-744 -185 -194 0
-744 -185 -198 0
-744 -185 -218 0
-744 -185 -222 0
-744 -185 -258 0
-744 -185 -262 0
-744 -185 -266 0
-745 297 0
-745 321 0
-745 -186 0
-745 -183 325 0
-745 -183 -172 -176 0
-745 -183 -196 0
-745 -183 -197 0
-745 -183 -198 0
-745 -183 -200 0
-745 -183 -201 0
-745 -183 -202 0
-745 -183 -220 0
-745 -183 -221 0
-745 -183 -222 0
-745 -183 -224 0
-745 -183 -225 0
-745 -183 -226 0
-745 -183 -256 0
-745 -183 -257 0
-745 -183 -258 0
-745 -183 -260 0
-745 -183 -261 0
-745 -183 -262 0
-745 -183 -264 0
-745 -183 -265 0
-745 -183 -266 0
-745 -183 -268 0
-745 -183 -269 0
-745 -183 -270 0
-745 -184 326 0
-745 -184 -172 -177 0
-745 -184 -197 0
-745 -184 -198 0
-745 -184 -201 0
-745 -184 -202 0
-745 -184 -221 0
-745 -184 -222 0
-745 -184 -225 0
-745 -184 -226 0
-745 -184 -257 0
-745 -184 -258 0
-745 -184 -261 0
-745 -184 -262 0
-745 -184 -265 0
-745 -184 -266 0
-745 -184 -269 0
-745 -184 -270 0
-745 -185 327 0
-745 -185 -172 -178 0
-745 -185 -198 0
-745 -185 -202 0
-745 -185 -222 0
-745 -185 -226 0
-745 -185 -258 0
-745 -185 -262 0
-745 -185 -266 0
-745 -185 -270 0
-746 297 0
-746 322 0
-746 -179 0
-746 -186 0
-746 -183 325 0
-746 -183 -173 -176 0
-746 -183 -200 0
-746 -183 -201 0
-746 -183 -202 0
-746 -183 -204 0
-746 -183 -205 0
-746 -183 -206 0
-746 -183 -224 0
-746 -183 -225 0
-746 -183 -226 0
-746 -183 -228 0
-746 -183 -229 0
-746 -183 -230 0
-746 -183 -260 0
-746 -183 -261 0
-746 -183 -262 0
-746 -183 -264 0
-746 -183 -265 0
-746 -183 -266 0
-746 -183 -268 0
-746 -183 -269 0
-746 -183 -270 0
-746 -184 326 0
-746 -184 -173 -177 0
-746 -184 -201 0
-746 -184 -202 0
-746 -184 -205 0
-746 -184 -206 0
-746 -184 -225 0
-746 -184 -226 0
-746 -184 -229 0
-746 -184 -230 0
-746 -184 -261 0
-746 -184 -262 0
-746 -184 -265 0
-746 -184 -266 0
-746 -184 -269 0
-746 -184 -270 0
-746 -185 327 0
-746 -185 -173 -178 0
-746 -185 -202 0
-746 -185 -206 0
-746 -185 -226 0
-746 -185 -230 0
-746 -185 -262 0
-746 -185 -266 0
-746 -185 -270 0
-747 297 0
-747 323 0
-747 -179 0
-747 -180 0
-747 -186 0
-747 -183 325 0
-747 -183 -174 -176 0
-747 -183 -204 0
-747 -183 -205 0
-747 -183 -206 0
-747 -183 -208 0
-747 -183 -209 0
-747 -183 -210 0
-747 -183 -228 0
-747 -183 -229 0
-747 -183 -230 0
-747 -183 -232 0
-747 -183 -233 0
-747 -183 -234 0
-747 -183 -264 0
-747 -183 -265 0
-747 -183 -266 0
-747 -183 -268 0
-747 -183 -269 0
-747 -183 -270 0
-747 -184 326 0
-747 -184 -174 -177 0
-747 -184 -205 0
-747 -184 -206 0
-747 -184 -209 0
-747 -184 -210 0
-747 -184 -229 0
-747 -184 -230 0
-747 -184 -233 0
-747 -184 -234 0
-747 -184 -265 0
-747 -184 -266 0
-747 -184 -269 0
-747 -184 -270 0
-747 -185 327 0
-747 -185 -174 -178 0
-747 -185 -206 0
-747 -185 -210 0
-747 -185 -230 0
-747 -185 -234 0
-747 -185 -266 0
-747 -185 -270 0
-748 297 0
-748 319 0
-748 324 0
-748 -170 -175 0
-748 -187 0
-748 -188 0
-748 -189 0
-748 -190 0
-748 -191 0
-748 -192 0
-748 -193 0
-748 -194 0
-748 -211 0
-748 -212 0
-748 -213 0
-748 -214 0
-748 -215 0
-748 -216 0
-748 -217 0
-748 -218 0
-748 -255 0
-748 -256 0
-748 -257 0
-748 -258 0
-748 -259 0
-748 -260 0
-748 -261 0
-748 -262 0
-749 297 0
-749 320 0
-749 324 0
-749 -171 -175 0
-749 -191 0
-749 -192 0
-749 -193 0
-749 -194 0
-749 -195 0
-749 -196 0
-749 -197 0
-749 -198 0
-749 -215 0
-749 -216 0
-749 -217 0
-749 -218 0
-749 -219 0
-749 -220 0
-749 -221 0
-749 -222 0
-749 -255 0
-749 -256 0
-749 -257 0
-749 -258 0
-749 -259 0
-749 -260 0
-749 -261 0
-749 -262 0
-749 -263 0
-749 -264 0
-749 -265 0
-749 -266 0
-750 297 0
-750 321 0
-750 324 0
-750 -172 -175 0
-750 -195 0
-750 -196 0
-750 -197 0
-750 -198 0
-750 -199 0
-750 -200 0
-750 -201 0
-750 -202 0
-750 -219 0
-750 -220 0
-750 -221 0
-750 -222 0
-750 -223 0
-750 -224 0
-750 -225 0
-750 -226 0
-750 -255 0
-750 -256 0
-750 -257 0
-750 -258 0
-750 -259 0
-750 -260 0
-750 -261 0
-750 -262 0
-750 -263 0
-750 -264 0
-750 -265 0
-750 -266 0
-750 -267 0
-750 -268 0
-750 -269 0
-750 -270 0
-751 297 0
-751 322 0
-751 324 0
-751 -173 -175 0
-751 -199 0
-751 -200 0
-751 -201 0
-751 -202 0
-751 -203 0
-751 -204 0
-751 -205 0
-751 -206 0
-751 -223 0
-751 -224 0
-751 -225 0
-751 -226 0
-751 -227 0
-751 -228 0
-751 -229 0
-751 -230 0
-751 -259 0
-751 -260 0
-751 -261 0
-751 -262 0
-751 -263 0
-751 -264 0
-751 -265 0
-751 -266 0
-751 -267 0
-751 -268 0
-751 -269 0
-751 -270 0
-752 297 0
-752 323 0
-752 324 0
-752 -174 -175 0
-752 -203 0
-752 -204 0
-752 -205 0
-752 -206 0
-752 -207 0
-752 -208 0
-752 -209 0
-752 -210 0
-752 -227 0
-752 -228 0
-752 -229 0
-752 -230 0
-752 -231 0
-752 -232 0
-752 -233 0
-752 -234 0
-752 -263 0
-752 -264 0
-752 -265 0
-752 -266 0
-752 -267 0
-752 -268 0
-752 -269 0
-752 -270 0
-753 298 0
-753 328 0
-753 -153 0
-753 -154 0
-753 -155 0
-753 -159 0
-753 -156 333 0
-753 -156 -179 -184 0
-753 -156 -188 0
-753 -156 -189 0
-753 -156 -190 0
-753 -156 -192 0
-753 -156 -193 0
-753 -156 -194 0
-753 -156 -196 0
-753 -156 -197 0
-753 -156 -198 0
-753 -156 -212 0
-753 -156 -213 0
-753 -156 -214 0
-753 -156 -216 0
-753 -156 -217 0
-753 -156 -218 0
-753 -156 -220 0
-753 -156 -221 0
-753 -156 -222 0
-753 -156 -236 0
-753 -156 -237 0
-753 -156 -238 0
-753 -156 -240 0
-753 -156 -241 0
-753 -156 -242 0
-753 -156 -244 0
-753 -156 -245 0
-753 -156 -246 0
-753 -157 334 0
-753 -157 -179 -185 0
-753 -157 -189 0
-753 -157 -190 0
-753 -157 -193 0
-753 -157 -194 0
-753 -157 -197 0
-753 -157 -198 0
-753 -157 -213 0
-753 -157 -214 0
-753 -157 -217 0
-753 -157 -218 0
-753 -157 -221 0
-753 -157 -222 0
-753 -157 -237 0
-753 -157 -238 0
-753 -157 -241 0
-753 -157 -242 0
-753 -157 -245 0
-753 -157 -246 0
-753 -158 335 0
-753 -158 -179 -186 0
-753 -158 -190 0
-753 -158 -194 0
-753 -158 -198 0
-753 -158 -214 0
-753 -158 -218 0
-753 -158 -222 0
-753 -158 -238 0
-753 -158 -242 0
-753 -158 -246 0
-754 298 0
-754 329 0
-754 -150 0
-754 -154 0
-754 -155 0
-754 -159 0
-754 -156 333 0
-754 -156 -180 -184 0
-754 -156 -192 0
-754 -156 -193 0
-754 -156 -194 0
-754 -156 -196 0
-754 -156 -197 0
-754 -156 -198 0
-754 -156 -200 0
-754 -156 -201 0
-754 -156 -202 0
-754 -156 -216 0
-754 -156 -217 0
-754 -156 -218 0
-754 -156 -220 0
-754 -156 -221 0
-754 -156 -222 0
-754 -156 -224 0
-754 -156 -225 0
-754 -156 -226 0
-754 -156 -236 0
-754 -156 -237 0
-754 -156 -238 0
-754 -156 -240 0
-754 -156 -241 0
-754 -156 -242 0
-754 -156 -244 0
-754 -156 -245 0
-754 -156 -246 0
-754 -156 -248 0
-754 -156 -249 0
-754 -156 -250 0
-754 -157 334 0
-754 -157 -180 -185 0
-754 -157 -193 0
-754 -157 -194 0
-754 -157 -197 0
-754 -157 -198 0
-754 -157 -201 0
-754 -157 -202 0
-754 -157 -217 0
-754 -157 -218 0
-754 -157 -221 0
-754 -157 -222 0
-754 -157 -225 0
-754 -157 -226 0
-754 -157 -237 0
-754 -157 -238 0
-754 -157 -241 0
-754 -157 -242 0
-754 -157 -245 0
-754 -157 -246 0
-754 -157 -249 0
-754 -157 -250 0
-754 -158 335 0
-754 -158 -180 -186 0
-754 -158 -194 0
-754 -158 -198 0
-754 -158 -202 0
-754 -158 -218 0
-754 -158 -222 0
-754 -158 -226 0
-754 -158 -238 0
-754 -158 -242 0
-754 -158 -246 0
-754 -158 -250 0
-755 298 0
-755 330 0
-755 -150 0
-755 -151 0
-755 -155 0
-755 -159 0
-755 -156 333 0
-755 -156 -181 -184 0
-755 -156 -196 0
-755 -156 -197 0
-755 -156 -198 0
-755 -156 -200 0
-755 -156 -201 0
-755 -156 -202 0
-755 -156 -204 0
-755 -156 -205 0
-755 -156 -206 0
-755 -156 -220 0
-755 -156 -221 0
-755 -156 -222 0
-755 -156 -224 0
-755 -156 -225 0
-755 -156 -226 0
-755 -156 -228 0
-755 -156 -229 0
-755 -156 -230 0
-755 -156 -240 0
-755 -156 -241 0
-755 -156 -242 0
-755 -156 -244 0
-755 -156 -245 0
-755 -156 -246 0
-755 -156 -248 0
-755 -156 -249 0
-755 -156 -250 0
-755 -156 -252 0
-755 -156 -253 0
-755 -156 -254 0
-755 -157 334 0
-755 -157 -181 -185 0
-755 -157 -197 0
-755 -157 -198 0
-755 -157 -201 0
-755 -157 -202 0
-755 -157 -205 0
-755 -157 -206 0
-755 -157 -221 0
-755 -157 -222 0
-755 -157 -225 0
-755 -157 -226 0
-755 -157 -229 0
-755 -157 -230 0
-755 -157 -241 0
-755 -157 -242 0
-755 -157 -245 0
-755 -157 -246 0
-755 -157 -249 0
-755 -157 -250 0
-755 -157 -253 0
-755 -157 -254 0
-755 -158 335 0
-755 -158 -181 -186 0
-755 -158 -198 0
-755 -158 -202 0
-755 -158 -206 0
-755 -158 -222 0
-755 -158 -226 0
-755 -158 -230 0
-755 -158 -242 0
-755 -158 -246 0
-755 -158 -250 0
-755 -158 -254 0
-756 298 0
-756 331 0
-756 -150 0
-756 -151 0
-756 -152 0
-756 -159 0
-756 -156 333 0
-756 -156 -182 -184 0
-756 -156 -200 0
-756 -156 -201 0
-756 -156 -202 0
-756 -156 -204 0
-756 -156 -205 0
-756 -156 -206 0
-756 -156 -208 0
-756 -156 -209 0
-756 -156 -210 0
-756 -156 -224 0
-756 -156 -225 0
-756 -156 -226 0
-756 -156 -228 0
-756 -156 -229 0
-756 -156 -230 0
-756 -156 -232 0
-756 -156 -233 0
-756 -156 -234 0
-756 -156 -244 0
-756 -156 -245 0
-756 -156 -246 0
-756 -156 -248 0
-756 -156 -249 0
-756 -156 -250 0
-756 -156 -252 0
-756 -156 -253 0
-756 -156 -254 0
-756 -157 334 0
-756 -157 -182 -185 0
-756 -157 -201 0
-756 -157 -202 0
-756 -157 -205 0
-756 -157 -206 0
-756 -157 -209 0
-756 -157 -210 0
-756 -157 -225 0
-756 -157 -226 0
-756 -157 -229 0
-756 -157 -230 0
-756 -157 -233 0
-756 -157 -234 0
-756 -157 -245 0
-756 -157 -246 0
-756 -157 -249 0
-756 -157 -250 0
-756 -157 -253 0
-756 -157 -254 0
-756 -158 335 0
-756 -158 -182 -186 0
-756 -158 -202 0
-756 -158 -206 0
-756 -158 -210 0
-756 -158 -226 0
-756 -158 -230 0
-756 -158 -234 0
-756 -158 -246 0
-756 -158 -250 0
-756 -158 -254 0
-757 298 0
-757 328 0
-757 -163 0
-757 -164 0
-757 -165 0
-757 -169 0
-757 -166 333 0
-757 -166 -179 -184 0
-757 -166 -188 0
-757 -166 -189 0
-757 -166 -190 0
-757 -166 -192 0
-757 -166 -193 0
-757 -166 -194 0
-757 -166 -196 0
-757 -166 -197 0
-757 -166 -198 0
-757 -166 -212 0
-757 -166 -213 0
-757 -166 -214 0
-757 -166 -216 0
-757 -166 -217 0
-757 -166 -218 0
-757 -166 -220 0
-757 -166 -221 0
-757 -166 -222 0
-757 -166 -236 0
-757 -166 -237 0
-757 -166 -238 0
-757 -166 -240 0
-757 -166 -241 0
-757 -166 -242 0
-757 -166 -244 0
-757 -166 -245 0
-757 -166 -246 0
-757 -167 334 0
-757 -167 -179 -185 0
-757 -167 -189 0
-757 -167 -190 0
-757 -167 -193 0
-757 -167 -194 0
-757 -167 -197 0
-757 -167 -198 0
-757 -167 -213 0
-757 -167 -214 0
-757 -167 -217 0
-757 -167 -218 0
-757 -167 -221 0
-757 -167 -222 0
-757 -167 -237 0
-757 -167 -238 0
-757 -167 -241 0
-757 -167 -242 0
-757 -167 -245 0
-757 -167 -246 0
-757 -168 335 0
-757 -168 -179 -186 0
-757 -168 -190 0
-757 -168 -194 0
-757 -168 -198 0
-757 -168 -214 0
-757 -168 -218 0
-757 -168 -222 0
-757 -168 -238 0
-757 -168 -242 0
-757 -168 -246 0
-758 298 0
-758 329 0
-758 -160 0
-758 -164 0
-758 -165 0
-758 -169 0
-758 -166 333 0
-758 -166 -180 -184 0
-758 -166 -192 0
-758 -166 -193 0
-758 -166 -194 0
-758 -166 -196 0
-758 -166 -197 0
-758 -166 -198 0
-758 -166 -200 0
-758 -166 -201 0
-758 -166 -202 0
-758 -166 -216 0
-758 -166 -217 0
-758 -166 -218 0
-758 -166 -220 0
-758 -166 -221 0
-758 -166 -222 0
-758 -166 -224 0
-758 -166 -225 0
-758 -166 -226 0
-758 -166 -236 0
-758 -166 -237 0
-758 -166 -238 0
-758 -166 -240 0
-758 -166 -241 0
-758 -166 -242 0
-758 -166 -244 0
-758 -166 -245 0
-758 -166 -246 0
-758 -166 -248 0
-758 -166 -249 0
-758 -166 -250 0
-758 -167 334 0
-758 -167 -180 -185 0
-758 -167 -193 0
-758 -167 -194 0
-758 -167 -197 0
-758 -167 -198 0
-758 -167 -201 0
-758 -167 -202 0
-758 -167 -217 0
-758 -167 -218 0
-758 -167 -221 0
-758 -167 -222 0
-758 -167 -225 0
-758 -167 -226 0
-758 -167 -237 0
-758 -167 -238 0
-758 -167 -241 0
-758 -167 -242 0
-758 -167 -245 0
-758 -167 -246 0
-758 -167 -249 0
-758 -167 -250 0
-758 -168 335 0
-758 -168 -180 -186 0
-758 -168 -194 0
-758 -168 -198 0
-758 -168 -202 0
-758 -168 -218 0
-758 -168 -222 0
-758 -168 -226 0
-758 -168 -238 0
-758 -168 -242 0
-758 -168 -246 0
-758 -168 -250 0
-759 298 0
-759 330 0
-759 -160 0
-759 -161 0
-759 -165 0
-759 -169 0
-759 -166 333 0
-759 -166 -181 -184 0
-759 -166 -196 0
-759 -166 -197 0
-759 -166 -198 0
-759 -166 -200 0
-759 -166 -201 0
-759 -166 -202 0
-759 -166 -204 0
-759 -166 -205 0
-759 -166 -206 0
-759 -166 -220 0
-759 -166 -221 0
-759 -166 -222 0
-759 -166 -224 0
-759 -166 -225 0
-759 -166 -226 0
-759 -166 -228 0
-759 -166 -229 0
-759 -166 -230 0
-759 -166 -240 0
-759 -166 -241 0
-759 -166 -242 0
-759 -166 -244 0
-759 -166 -245 0
-759 -166 -246 0
-759 -166 -248 0
-759 -166 -249 0
-759 -166 -250 0
-759 -166 -252 0
-759 -166 -253 0
-759 -166 -254 0
-759 -167 334 0
-759 -167 -181 -185 0
-759 -167 -197 0
-759 -167 -198 0
-759 -167 -201 0
-759 -167 -202 0
-759 -167 -205 0
-759 -167 -206 0
-759 -167 -221 0
-759 -167 -222 0
-759 -167 -225 0
-759 -167 -226 0
-759 -167 -229 0
-759 -167 -230 0
-759 -167 -241 0
-759 -167 -242 0
-759 -167 -245 0
-759 -167 -246 0
-759 -167 -249 0
-759 -167 -250 0
-759 -167 -253 0
-759 -167 -254 0
-759 -168 335 0
-759 -168 -181 -186 0
-759 -168 -198 0
-759 -168 -202 0
-759 -168 -206 0
-759 -168 -222 0
-759 -168 -226 0
-759 -168 -230 0
-759 -168 -242 0
-759 -168 -246 0
-759 -168 -250 0
-759 -168 -254 0
-760 298 0
-760 331 0
-760 -160 0
-760 -161 0
-760 -162 0
-760 -169 0
-760 -166 333 0
-760 -166 -182 -184 0
-760 -166 -200 0
-760 -166 -201 0
-760 -166 -202 0
-760 -166 -204 0
-760 -166 -205 0
-760 -166 -206 0
-760 -166 -208 0
-760 -166 -209 0
-760 -166 -210 0
-760 -166 -224 0
-760 -166 -225 0
-760 -166 -226 0
-760 -166 -228 0
-760 -166 -229 0
-760 -166 -230 0
-760 -166 -232 0
-760 -166 -233 0
-760 -166 -234 0
-760 -166 -244 0
-760 -166 -245 0
-760 -166 -246 0
-760 -166 -248 0
-760 -166 -249 0
-760 -166 -250 0
-760 -166 -252 0
-760 -166 -253 0
-760 -166 -254 0
-760 -167 334 0
-760 -167 -182 -185 0
-760 -167 -201 0
-760 -167 -202 0
-760 -167 -205 0
-760 -167 -206 0
-760 -167 -209 0
-760 -167 -210 0
-760 -167 -225 0
-760 -167 -226 0
-760 -167 -229 0
-760 -167 -230 0
-760 -167 -233 0
-760 -167 -234 0
-760 -167 -245 0
-760 -167 -246 0
-760 -167 -249 0
-760 -167 -250 0
-760 -167 -253 0
-760 -167 -254 0
-760 -168 335 0
-760 -168 -182 -186 0
-760 -168 -202 0
-760 -168 -206 0
-760 -168 -210 0
-760 -168 -226 0
-760 -168 -230 0
-760 -168 -234 0
-760 -168 -246 0
-760 -168 -250 0
-760 -168 -254 0
-761 298 0
-761 328 0
-761 -173 0
-761 -174 0
-761 -178 0
-761 -175 333 0
-761 -175 -179 -184 0
-761 -175 -188 0
-761 -175 -189 0
-761 -175 -190 0
-761 -175 -192 0
-761 -175 -193 0
-761 -175 -194 0
-761 -175 -196 0
-761 -175 -197 0
-761 -175 -198 0
-761 -175 -212 0
-761 -175 -213 0
-761 -175 -214 0
-761 -175 -216 0
-761 -175 -217 0
-761 -175 -218 0
-761 -175 -220 0
-761 -175 -221 0
-761 -175 -222 0
-761 -175 -236 0
-761 -175 -237 0
-761 -175 -238 0
-761 -175 -240 0
-761 -175 -241 0
-761 -175 -242 0
-761 -175 -244 0
-761 -175 -245 0
-761 -175 -246 0
-761 -176 334 0
-761 -176 -179 -185 0
-761 -176 -189 0
-761 -176 -190 0
-761 -176 -193 0
-761 -176 -194 0
-761 -176 -197 0
-761 -176 -198 0
-761 -176 -213 0
-761 -176 -214 0
-761 -176 -217 0
-761 -176 -218 0
-761 -176 -221 0
-761 -176 -222 0
-761 -176 -237 0
-761 -176 -238 0
-761 -176 -241 0
-761 -176 -242 0
-761 -176 -245 0
-761 -176 -246 0
-761 -177 335 0
-761 -177 -179 -186 0
-761 -177 -190 0
-761 -177 -194 0
-761 -177 -198 0
-761 -177 -214 0
-761 -177 -218 0
-761 -177 -222 0
-761 -177 -238 0
-761 -177 -242 0
-761 -177 -246 0
-762 298 0
-762 329 0
-762 -174 0
-762 -178 0
-762 -175 333 0
-762 -175 -180 -184 0
-762 -175 -192 0
-762 -175 -193 0
-762 -175 -194 0
-762 -175 -196 0
-762 -175 -197 0
-762 -175 -198 0
-762 -175 -200 0
-762 -175 -201 0
-762 -175 -202 0
-762 -175 -216 0
-762 -175 -217 0
-762 -175 -218 0
-762 -175 -220 0
-762 -175 -221 0
-762 -175 -222 0
-762 -175 -224 0
-762 -175 -225 0
-762 -175 -226 0
-762 -175 -236 0
-762 -175 -237 0
-762 -175 -238 0
-762 -175 -240 0
-762 -175 -241 0
-762 -175 -242 0
-762 -175 -244 0
-762 -175 -245 0
-762 -175 -246 0
-762 -175 -248 0
-762 -175 -249 0
-762 -175 -250 0
-762 -176 334 0
-762 -176 -180 -185 0
-762 -176 -193 0
-762 -176 -194 0
-762 -176 -197 0
-762 -176 -198 0
-762 -176 -201 0
-762 -176 -202 0
-762 -176 -217 0
-762 -176 -218 0
-762 -176 -221 0
-762 -176 -222 0
-762 -176 -225 0
-762 -176 -226 0
-762 -176 -237 0
-762 -176 -238 0
-762 -176 -241 0
-762 -176 -242 0
-762 -176 -245 0
-762 -176 -246 0
-762 -176 -249 0
-762 -176 -250 0
-762 -177 335 0
-762 -177 -180 -186 0
-762 -177 -194 0
-762 -177 -198 0
-762 -177 -202 0
-762 -177 -218 0
-762 -177 -222 0
-762 -177 -226 0
-762 -177 -238 0
-762 -177 -242 0
-762 -177 -246 0
-762 -177 -250 0
-763 298 0
-763 330 0
-763 -170 0
-763 -178 0
-763 -175 333 0
-763 -175 -181 -184 0
-763 -175 -196 0
-763 -175 -197 0
-763 -175 -198 0
-763 -175 -200 0
-763 -175 -201 0
-763 -175 -202 0
-763 -175 -204 0
-763 -175 -205 0
-763 -175 -206 0
-763 -175 -220 0
-763 -175 -221 0
-763 -175 -222 0
-763 -175 -224 0
-763 -175 -225 0
-763 -175 -226 0
-763 -175 -228 0
-763 -175 -229 0
-763 -175 -230 0
-763 -175 -240 0
-763 -175 -241 0
-763 -175 -242 0
-763 -175 -244 0
-763 -175 -245 0
-763 -175 -246 0
-763 -175 -248 0
-763 -175 -249 0
-763 -175 -250 0
-763 -175 -252 0
-763 -175 -253 0
-763 -175 -254 0
-763 -176 334 0
-763 -176 -181 -185 0
-763 -176 -197 0
-763 -176 -198 0
-763 -176 -201 0
-763 -176 -202 0
-763 -176 -205 0
-763 -176 -206 0
-763 -176 -221 0
-763 -176 -222 0
-763 -176 -225 0
-763 -176 -226 0
-763 -176 -229 0
-763 -176 -230 0
-763 -176 -241 0
-763 -176 -242 0
-763 -176 -245 0
-763 -176 -246 0
-763 -176 -249 0
-763 -176 -250 0
-763 -176 -253 0
-763 -176 -254 0
-763 -177 335 0
-763 -177 -181 -186 0
-763 -177 -198 0
-763 -177 -202 0
-763 -177 -206 0
-763 -177 -222 0
-763 -177 -226 0
-763 -177 -230 0
-763 -177 -242 0
-763 -177 -246 0
-763 -177 -250 0
-763 -177 -254 0
-764 298 0
-764 331 0
-764 -170 0
-764 -171 0
-764 -178 0
-764 -175 333 0
-764 -175 -182 -184 0
-764 -175 -200 0
-764 -175 -201 0
-764 -175 -202 0
-764 -175 -204 0
-764 -175 -205 0
-764 -175 -206 0
-764 -175 -208 0
-764 -175 -209 0
-764 -175 -210 0
-764 -175 -224 0
-764 -175 -225 0
-764 -175 -226 0
-764 -175 -228 0
-764 -175 -229 0
-764 -175 -230 0
-764 -175 -232 0
-764 -175 -233 0
-764 -175 -234 0
-764 -175 -244 0
-764 -175 -245 0
-764 -175 -246 0
-764 -175 -248 0
-764 -175 -249 0
-764 -175 -250 0
-764 -175 -252 0
-764 -175 -253 0
-764 -175 -254 0
-764 -176 334 0
-764 -176 -182 -185 0
-764 -176 -201 0
-764 -176 -202 0
-764 -176 -205 0
-764 -176 -206 0
-764 -176 -209 0
-764 -176 -210 0
-764 -176 -225 0
-764 -176 -226 0
-764 -176 -229 0
-764 -176 -230 0
-764 -176 -233 0
-764 -176 -234 0
-764 -176 -245 0
-764 -176 -246 0
-764 -176 -249 0
-764 -176 -250 0
-764 -176 -253 0
-764 -176 -254 0
-764 -177 335 0
-764 -177 -182 -186 0
-764 -177 -202 0
-764 -177 -206 0
-764 -177 -210 0
-764 -177 -226 0
-764 -177 -230 0
-764 -177 -234 0
-764 -177 -246 0
-764 -177 -250 0
-764 -177 -254 0
-765 298 0
-765 328 0
-765 332 0
-765 -179 -183 0
-765 -187 0
-765 -188 0
-765 -189 0
-765 -190 0
-765 -191 0
-765 -192 0
-765 -193 0
-765 -194 0
-765 -195 0
-765 -196 0
-765 -197 0
-765 -198 0
-765 -211 0
-765 -212 0
-765 -213 0
-765 -214 0
-765 -215 0
-765 -216 0
-765 -217 0
-765 -218 0
-765 -219 0
-765 -220 0
-765 -221 0
-765 -222 0
-765 -235 0
-765 -236 0
-765 -237 0
-765 -238 0
-765 -239 0
-765 -240 0
-765 -241 0
-765 -242 0
-765 -243 0
-765 -244 0
-765 -245 0
-765 -246 0
-766 298 0
-766 329 0
-766 332 0
-766 -180 -183 0
-766 -191 0
-766 -192 0
-766 -193 0
-766 -194 0
-766 -195 0
-766 -196 0
-766 -197 0
-766 -198 0
-766 -199 0
-766 -200 0
-766 -201 0
-766 -202 0
-766 -215 0
-766 -216 0
-766 -217 0
-766 -218 0
-766 -219 0
-766 -220 0
-766 -221 0
-766 -222 0
-766 -223 0
-766 -224 0
-766 -225 0
-766 -226 0
-766 -235 0
-766 -236 0
-766 -237 0
-766 -238 0
-766 -239 0
-766 -240 0
-766 -241 0
-766 -242 0
-766 -243 0
-766 -244 0
-766 -245 0
-766 -246 0
-766 -247 0
-766 -248 0
-766 -249 0
-766 -250 0
-767 298 0
-767 330 0
-767 332 0
-767 -181 -183 0
-767 -195 0
-767 -196 0
-767 -197 0
-767 -198 0
-767 -199 0
-767 -200 0
-767 -201 0
-767 -202 0
-767 -203 0
-767 -204 0
-767 -205 0
-767 -206 0
-767 -219 0
-767 -220 0
-767 -221 0
-767 -222 0
-767 -223 0
-767 -224 0
-767 -225 0
-767 -226 0
-767 -227 0
-767 -228 0
-767 -229 0
-767 -230 0
-767 -239 0
-767 -240 0
-767 -241 0
-767 -242 0
-767 -243 0
-767 -244 0
-767 -245 0
-767 -246 0
-767 -247 0
-767 -248 0
-767 -249 0
-767 -250 0
-767 -251 0
-767 -252 0
-767 -253 0
-767 -254 0
-768 298 0
-768 331 0
-768 332 0
-768 -182 -183 0
-768 -199 0
-768 -200 0
-768 -201 0
-768 -202 0
-768 -203 0
-768 -204 0
-768 -205 0
-768 -206 0
-768 -207 0
-768 -208 0
-768 -209 0
-768 -210 0
-768 -223 0
-768 -224 0
-768 -225 0
-768 -226 0
-768 -227 0
-768 -228 0
-768 -229 0
-768 -230 0
-768 -231 0
-768 -232 0
-768 -233 0
-768 -234 0
-768 -243 0
-768 -244 0
-768 -245 0
-768 -246 0
-768 -247 0
-768 -248 0
-768 -249 0
-768 -250 0
-768 -251 0
-768 -252 0
-768 -253 0
-768 -254 0
773 774 775 776 777 778 779 780 781 782 783 784 785 786 787 788 789 790 791 792 793 794 795 796 797 798 799 800 801 802 803 804 805 806 807 808 809 810 811 812 813 814 815 816 817 818 819 820 821 822 823 824 825 826 827 828 829 830 831 832 833 834 835 836 837 838 839 840 841 842 843 844 845 846 847 848 849 850 851 852 853 854 855 856 0
-773 -774 0
-773 -775 0
-773 -776 0
-773 -777 0
-773 -778 0
-773 -779 0
-773 -780 0
-773 -781 0
-773 -782 0
-773 -783 0
-773 -784 0
-773 -785 0
-773 -786 0
-773 -787 0
-773 -788 0
-773 -789 0
-773 -790 0
-773 -791 0
-773 -792 0
-773 -793 0
-773 -794 0
-773 -795 0
-773 -796 0
-773 -797 0
-773 -798 0
-773 -799 0
-773 -800 0
-773 -801 0
-773 -802 0
-773 -803 0
-773 -804 0
-773 -805 0
-773 -806 0
-773 -807 0
-773 -808 0
-773 -809 0
-773 -810 0
-773 -811 0
-773 -812 0
-773 -813 0
-773 -814 0
-773 -815 0
-773 -816 0
-773 -817 0
-773 -818 0
-773 -819 0
-773 -820 0
-773 -821 0
-773 -822 0
-773 -823 0
-773 -824 0
-773 -825 0
-773 -826 0
-773 -827 0
-773 -828 0
-773 -829 0
-773 -830 0
-773 -831 0
-773 -832 0
-773 -833 0
-773 -834 0
-773 -835 0
-773 -836 0
-773 -837 0
-773 -838 0
-773 -839 0
-773 -840 0
-773 -841 0
-773 -842 0
-773 -843 0
-773 -844 0
-773 -845 0
-773 -846 0
-773 -847 0
-773 -848 0
-773 -849 0
-773 -850 0
-773 -851 0
-773 -852 0
-773 -853 0
-773 -854 0
-773 -855 0
-773 -856 0
-774 -775 0
-774 -776 0
-774 -777 0
-774 -778 0
-774 -779 0
-774 -780 0
-774 -781 0
-774 -782 0
-774 -783 0
-774 -784 0
-774 -785 0
-774 -786 0
-774 -787 0
-774 -788 0
-774 -789 0
-774 -790 0
-774 -791 0
-774 -792 0
-774 -793 0
-774 -794 0
-774 -795 0
-774 -796 0
-774 -797 0
-774 -798 0
-774 -799 0
-774 -800 0
-774 -801 0
-774 -802 0
-774 -803 0
-774 -804 0
-774 -805 0
-774 -806 0
-774 -807 0
-774 -808 0
-774 -809 0
-774 -810 0
-774 -811 0
-774 -812 0
-774 -813 0
-774 -814 0
-774 -815 0
-774 -816 0
-774 -817 0
-774 -818 0
-774 -819 0
-774 -820 0
-774 -821 0
-774 -822 0
-774 -823 0
-774 -824 0
-774 -825 0
-774 -826 0
-774 -827 0
-774 -828 0
-774 -829 0
-774 -830 0
-774 -831 0
-774 -832 0
-774 -833 0
-774 -834 0
-774 -835 0
-774 -836 0
-774 -837 0
-774 -838 0
-774 -839 0
-774 -840 0
-774 -841 0
-774 -842 0
-774 -843 0
-774 -844 0
-774 -845 0
-774 -846 0
-774 -847 0
-774 -848 0
-774 -849 0
-774 -850 0
-774 -851 0
-774 -852 0
-774 -853 0
-774 -854 0
-774 -855 0
-774 -856 0
-775 -776 0
-775 -777 0
-775 -778 0
-775 -779 0
-775 -780 0
-775 -781 0
-775 -782 0
-775 -783 0
-775 -784 0
-775 -785 0
-775 -786 0
-775 -787 0
-775 -788 0
-775 -789 0
-775 -790 0
-775 -791 0
-775 -792 0
-775 -793 0
-775 -794 0
-775 -795 0
-775 -796 0
-775 -797 0
-775 -798 0
-775 -799 0
-775 -800 0
-775 -801 0
-775 -802 0
-775 -803 0
-775 -804 0
-775 -805 0
-775 -806 0
-775 -807 0
-775 -808 0
-775 -809 0
-775 -810 0
-775 -811 0
-775 -812 0
-775 -813 0
-775 -814 0
-775 -815 0
-775 -816 0
-775 -817 0
-775 -818 0
-775 -819 0
-775 -820 0
-775 -821 0
-775 -822 0
-775 -823 0
-775 -824 0
-775 -825 0
-775 -826 0
-775 -827 0
-775 -828 0
-775 -829 0
-775 -830 0
-775 -831 0
-775 -832 0
-775 -833 0
-775 -834 0
-775 -835 0
-775 -836 0
-775 -837 0
-775 -838 0
-775 -839 0
-775 -840 0
-775 -841 0
-775 -842 0
-775 -843 0
-775 -844 0
-775 -845 0
-775 -846 0
-775 -847 0
-775 -848 0
-775 -849 0
-775 -850 0
-775 -851 0
-775 -852 0
-775 -853 0
-775 -854 0
-775 -855 0
-775 -856 0
-776 -777 0
-776 -778 0
-776 -779 0
-776 -780 0
-776 -781 0
-776 -782 0
-776 -783 0
-776 -784 0
-776 -785 0
-776 -786 0
-776 -787 0
-776 -788 0
-776 -789 0
-776 -790 0
-776 -791 0
-776 -792 0
-776 -793 0
-776 -794 0
-776 -795 0
-776 -796 0
-776 -797 0
-776 -798 0
-776 -799 0
-776 -800 0
-776 -801 0
-776 -802 0
-776 -803 0
-776 -804 0
-776 -805 0
-776 -806 0
-776 -807 0
-776 -808 0
-776 -809 0
-776 -810 0
-776 -811 0
-776 -812 0
-776 -813 0
-776 -814 0
-776 -815 0
-776 -816 0
-776 -817 0
-776 -818 0
-776 -819 0
-776 -820 0
-776 -821 0
-776 -822 0
-776 -823 0
-776 -824 0
-776 -825 0
-776 -826 0
-776 -827 0
-776 -828 0
-776 -829 0
-776 -830 0
-776 -831 0
-776 -832 0
-776 -833 0
-776 -834 0
-776 -835 0
-776 -836 0
-776 -837 0
-776 -838 0
-776 -839 0
-776 -840 0
-776 -841 0
-776 -842 0
-776 -843 0
-776 -844 0
-776 -845 0
-776 -846 0
-776 -847 0
-776 -848 0
-776 -849 0
-776 -850 0
-776 -851 0
-776 -852 0
-776 -853 0
-776 -854 0
-776 -855 0
-776 -856 0
-777 -778 0
-777 -779 0
-777 -780 0
-777 -781 0
-777 -782 0
-777 -783 0
-777 -784 0
-777 -785 0
-777 -786 0
-777 -787 0
-777 -788 0
-777 -789 0
-777 -790 0
-777 -791 0
-777 -792 0
-777 -793 0
-777 -794 0
-777 -795 0
-777 -796 0
-777 -797 0
-777 -798 0
-777 -799 0
-777 -800 0
-777 -801 0
-777 -802 0
-777 -803 0
-777 -804 0
-777 -805 0
-777 -806 0
-777 -807 0
-777 -808 0
-777 -809 0
-777 -810 0
-777 -811 0
-777 -812 0
-777 -813 0
-777 -814 0
-777 -815 0
-777 -816 0
-777 -817 0
-777 -818 0
-777 -819 0
-777 -820 0
-777 -821 0
-777 -822 0
-777 -823 0
-777 -824 0
-777 -825 0
-777 -826 0
-777 -827 0
-777 -828 0
-777 -829 0
-777 -830 0
-777 -831 0
-777 -832 0
-777 -833 0
-777 -834 0
-777 -835 0
-777 -836 0
-777 -837 0
-777 -838 0
-777 -839 0
-777 -840 0
-777 -841 0
-777 -842 0
-777 -843 0
-777 -844 0
-777 -845 0
-777 -846 0
-777 -847 0
-777 -848 0
-777 -849 0
-777 -850 0
-777 -851 0
-777 -852 0
-777 -853 0
-777 -854 0
-777 -855 0
-777 -856 0
-778 -779 0
-778 -780 0
-778 -781 0
-778 -782 0
-778 -783 0
-778 -784 0
-778 -785 0
-778 -786 0
-778 -787 0
-778 -788 0
-778 -789 0
-778 -790 0
-778 -791 0
-778 -792 0
-778 -793 0
-778 -794 0
-778 -795 0
-778 -796 0
-778 -797 0
-778 -798 0
-778 -799 0
-778 -800 0
-778 -801 0
-778 -802 0
-778 -803 0
-778 -804 0
-778 -805 0
-778 -806 0
-778 -807 0
-778 -808 0
-778 -809 0
-778 -810 0
-778 -811 0
-778 -812 0
-778 -813 0
-778 -814 0
-778 -815 0
-778 -816 0
-778 -817 0
-778 -818 0
-778 -819 0
-778 -820 0
-778 -821 0
-778 -822 0
-778 -823 0
-778 -824 0
-778 -825 0
-778 -826 0
-778 -827 0
-778 -828 0
-778 -829 0
-778 -830 0
-778 -831 0
-778 -832 0
-778 -833 0
-778 -834 0
-778 -835 0
-778 -836 0
-778 -837 0
-778 -838 0
-778 -839 0
-778 -840 0
-778 -841 0
-778 -842 0
-778 -843 0
-778 -844 0
-778 -845 0
-778 -846 0
-778 -847 0
-778 -848 0
-778 -849 0
-778 -850 0
-778 -851 0
-778 -852 0
-778 -853 0
-778 -854 0
-778 -855 0
-778 -856 0
-779 -780 0
-779 -781 0
-779 -782 0
-779 -783 0
-779 -784 0
-779 -785 0
-779 -786 0
-779 -787 0
-779 -788 0
-779 -789 0
-779 -790 0
-779 -791 0
-779 -792 0
-779 -793 0
-779 -794 0
-779 -795 0
-779 -796 0
-779 -797 0
-779 -798 0
-779 -799 0
-779 -800 0
-779 -801 0
-779 -802 0
-779 -803 0
-779 -804 0
-779 -805 0
-779 -806 0
-779 -807 0
-779 -808 0
-779 -809 0
-779 -810 0
-779 -811 0
-779 -812 0
-779 -813 0
-779 -814 0
-779 -815 0
-779 -816 0
-779 -817 0
-779 -818 0
-779 -819 0
-779 -820 0
-779 -821 0
-779 -822 0
-779 -823 0
-779 -824 0
-779 -825 0
-779 -826 0
-779 -827 0
-779 -828 0
-779 -829 0
-779 -830 0
-779 -831 0
-779 -832 0
-779 -833 0
-779 -834 0
-779 -835 0
-779 -836 0
-779 -837 0
-779 -838 0
-779 -839 0
-779 -840 0
-779 -841 0
-779 -842 0
-779 -843 0
-779 -844 0
-779 -845 0
-779 -846 0
-779 -847 0
-779 -848 0
-779 -849 0
-779 -850 0
-779 -851 0
-779 -852 0
-779 -853 0
-779 -854 0
-779 -855 0
-779 -856 0
-780 -781 0
-780 -782 0
-780 -783 0
-780 -784 0
-780 -785 0
-780 -786 0
-780 -787 0
-780 -788 0
-780 -789 0
-780 -790 0
-780 -791 0
-780 -792 0
-780 -793 0
-780 -794 0
-780 -795 0
-780 -796 0
-780 -797 0
-780 -798 0
-780 -799 0
-780 -800 0
-780 -801 0
-780 -802 0
-780 -803 0
-780 -804 0
-780 -805 0
-780 -806 0
-780 -807 0
-780 -808 0
-780 -809 0
-780 -810 0
-780 -811 0
-780 -812 0
-780 -813 0
-780 -814 0
-780 -815 0
-780 -816 0
-780 -817 0
-780 -818 0
-780 -819 0
-780 -820 0
-780 -821 0
-780 -822 0
-780 -823 0
-780 -824 0
-780 -825 0
-780 -826 0
-780 -827 0
-780 -828 0
-780 -829 0
-780 -830 0
-780 -831 0
-780 -832 0
-780 -833 0
-780 -834 0
-780 -835 0
-780 -836 0
-780 -837 0
-780 -838 0
-780 -839 0
-780 -840 0
-780 -841 0
-780 -842 0
-780 -843 0
-780 -844 0
-780 -845 0
-780 -846 0
-780 -847 0
-780 -848 0
-780 -849 0
-780 -850 0
-780 -851 0
-780 -852 0
-780 -853 0
-780 -854 0
-780 -855 0
-780 -856 0
-781 -782 0
-781 -783 0
-781 -784 0
-781 -785 0
-781 -786 0
-781 -787 0
-781 -788 0
-781 -789 0
-781 -790 0
-781 -791 0
-781 -792 0
-781 -793 0
-781 -794 0
-781 -795 0
-781 -796 0
-781 -797 0
-781 -798 0
-781 -799 0
-781 -800 0
-781 -801 0
-781 -802 0
-781 -803 0
-781 -804 0
-781 -805 0
-781 -806 0
-781 -807 0
-781 -808 0
-781 -809 0
-781 -810 0
-781 -811 0
-781 -812 0
-781 -813 0
-781 -814 0
-781 -815 0
-781 -816 0
-781 -817 0
-781 -818 0
-781 -819 0
-781 -820 0
-781 -821 0
-781 -822 0
-781 -823 0
-781 -824 0
-781 -825 0
-781 -826 0
-781 -827 0
-781 -828 0
-781 -829 0
-781 -830 0
-781 -831 0
-781 -832 0
-781 -833 0
-781 -834 0
-781 -835 0
-781 -836 0
-781 -837 0
-781 -838 0
-781 -839 0
-781 -840 0
-781 -841 0
-781 -842 0
-781 -843 0
-781 -844 0
-781 -845 0
-781 -846 0
-781 -847 0
-781 -848 0
-781 -849 0
-781 -850 0
-781 -851 0
-781 -852 0
-781 -853 0
-781 -854 0
-781 -855 0
-781 -856 0
-782 -783 0
-782 -784 0
-782 -785 0
-782 -786 0
-782 -787 0
-782 -788 0
-782 -789 0
-782 -790 0
-782 -791 0
-782 -792 0
-782 -793 0
-782 -794 0
-782 -795 0
-782 -796 0
-782 -797 0
-782 -798 0
-782 -799 0
-782 -800 0
-782 -801 0
-782 -802 0
-782 -803 0
-782 -804 0
-782 -805 0
-782 -806 0
-782 -807 0
-782 -808 0
-782 -809 0
-782 -810 0
-782 -811 0
-782 -812 0
-782 -813 0
-782 -814 0
-782 -815 0
-782 -816 0
-782 -817 0
-782 -818 0
-782 -819 0
-782 -820 0
-782 -821 0
-782 -822 0
-782 -823 0
-782 -824 0
-782 -825 0
-782 -826 0
-782 -827 0
-782 -828 0
-782 -829 0
-782 -830 0
-782 -831 0
-782 -832 0
-782 -833 0
-782 -834 0
-782 -835 0
-782 -836 0
-782 -837 0
-782 -838 0
-782 -839 0
-782 -840 0
-782 -841 0
-782 -842 0
-782 -843 0
-782 -844 0
-782 -845 0
-782 -846 0
-782 -847 0
-782 -848 0
-782 -849 0
-782 -850 0
-782 -851 0
-782 -852 0
-782 -853 0
-782 -854 0
-782 -855 0
-782 -856 0
-783 -784 0
-783 -785 0
-783 -786 0
-783 -787 0
-783 -788 0
-783 -789 0
-783 -790 0
-783 -791 0
-783 -792 0
-783 -793 0
-783 -794 0
-783 -795 0
-783 -796 0
-783 -797 0
-783 -798 0
-783 -799 0
-783 -800 0
-783 -801 0
-783 -802 0
-783 -803 0
-783 -804 0
-783 -805 0
-783 -806 0
-783 -807 0
-783 -808 0
-783 -809 0
-783 -810 0
-783 -811 0
-783 -812 0
-783 -813 0
-783 -814 0
-783 -815 0
-783 -816 0
-783 -817 0
-783 -818 0
-783 -819 0
-783 -820 0
-783 -821 0
-783 -822 0
-783 -823 0
-783 -824 0
-783 -825 0
-783 -826 0
-783 -827 0
-783 -828 0
-783 -829 0
-783 -830 0
-783 -831 0
-783 -832 0
-783 -833 0
-783 -834 0
-783 -835 0
-783 -836 0
-783 -837 0
-783 -838 0
-783 -839 0
-783 -840 0
-783 -841 0
-783 -842 0
-783 -843 0
-783 -844 0
-783 -845 0
-783 -846 0
-783 -847 0
-783 -848 0
-783 -849 0
-783 -850 0
-783 -851 0
-783 -852 0
-783 -853 0
-783 -854 0
-783 -855 0
-783 -856 0
-784 -785 0
-784 -786 0
-784 -787 0
-784 -788 0
-784 -789 0
-784 -790 0
-784 -791 0
-784 -792 0
-784 -793 0
-784 -794 0
-784 -795 0
-784 -796 0
-784 -797 0
-784 -798 0
-784 -799 0
-784 -800 0
-784 -801 0
-784 -802 0
-784 -803 0
-784 -804 0
-784 -805 0
-784 -806 0
-784 -807 0
-784 -808 0
-784 -809 0
-784 -810 0
-784 -811 0
-784 -812 0
-784 -813 0
-784 -814 0
-784 -815 0
-784 -816 0
-784 -817 0
-784 -818 0
-784 -819 0
-784 -820 0
-784 -821 0
-784 -822 0
-784 -823 0
-784 -824 0
-784 -825 0
-784 -826 0
-784 -827 0
-784 -828 0
-784 -829 0
-784 -830 0
-784 -831 0
-784 -832 0
-784 -833 0
-784 -834 0
-784 -835 0
-784 -836 0
-784 -837 0
-784 -838 0
-784 -839 0
-784 -840 0
-784 -841 0
-784 -842 0
-784 -843 0
-784 -844 0
-784 -845 0
-784 -846 0
-784 -847 0
-784 -848 0
-784 -849 0
-784 -850 0
-784 -851 0
-784 -852 0
-784 -853 0
-784 -854 0
-784 -855 0
-784 -856 0
-785 -786 0
-785 -787 0
-785 -788 0
-785 -789 0
-785 -790 0
-785 -791 0
-785 -792 0
-785 -793 0
-785 -794 0
-785 -795 0
-785 -796 0
-785 -797 0
-785 -798 0
-785 -799 0
-785 -800 0
-785 -801 0
-785 -802 0
-785 -803 0
-785 -804 0
-785 -805 0
-785 -806 0
-785 -807 0
-785 -808 0
-785 -809 0
-785 -810 0
-785 -811 0
-785 -812 0
-785 -813 0
-785 -814 0
-785 -815 0
-785 -816 0
-785 -817 0
-785 -818 0
-785 -819 0
-785 -820 0
-785 -821 0
-785 -822 0
-785 -823 0
-785 -824 0
-785 -825 0
-785 -826 0
-785 -827 0
-785 -828 0
-785 -829 0
-785 -830 0
-785 -831 0
-785 -832 0
-785 -833 0
-785 -834 0
-785 -835 0
-785 -836 0
-785 -837 0
-785 -838 0
-785 -839 0
-785 -840 0
-785 -841 0
-785 -842 0
-785 -843 0
-785 -844 0
-785 -845 0
-785 -846 0
-785 -847 0
-785 -848 0
-785 -849 0
-785 -850 0
-785 -851 0
-785 -852 0
-785 -853 0
-785 -854 0
-785 -855 0
-785 -856 0
-786 -787 0
-786 -788 0
-786 -789 0
-786 -790 0
-786 -791 0
-786 -792 0
-786 -793 0
-786 -794 0
-786 -795 0
-786 -796 0
-786 -797 0
-786 -798 0
-786 -799 0
-786 -800 0
-786 -801 0
-786 -802 0
-786 -803 0
-786 -804 0
-786 -805 0
-786 -806 0
-786 -807 0
-786 -808 0
-786 -809 0
-786 -810 0
-786 -811 0
-786 -812 0
-786 -813 0
-786 -814 0
-786 -815 0
-786 -816 0
-786 -817 0
-786 -818 0
-786 -819 0
-786 -820 0
-786 -821 0
-786 -822 0
-786 -823 0
-786 -824 0
-786 -825 0
-786 -826 0
-786 -827 0
-786 -828 0
-786 -829 0
-786 -830 0
-786 -831 0
-786 -832 0
-786 -833 0
-786 -834 0
-786 -835 0
-786 -836 0
-786 -837 0
-786 -838 0
-786 -839 0
-786 -840 0
-786 -841 0
-786 -842 0
-786 -843 0
-786 -844 0
-786 -845 0
-786 -846 0
-786 -847 0
-786 -848 0
-786 -849 0
-786 -850 0
-786 -851 0
-786 -852 0
-786 -853 0
-786 -854 0
-786 -855 0
-786 -856 0
-787 -788 0
-787 -789 0
-787 -790 0
-787 -791 0
-787 -792 0
-787 -793 0
-787 -794 0
-787 -795 0
-787 -796 0
-787 -797 0
-787 -798 0
-787 -799 0
-787 -800 0
-787 -801 0
-787 -802 0
-787 -803 0
-787 -804 0
-787 -805 0
-787 -806 0
-787 -807 0
-787 -808 0
-787 -809 0
-787 -810 0
-787 -811 0
-787 -812 0
-787 -813 0
-787 -814 0
-787 -815 0
-787 -816 0
-787 -817 0
-787 -818 0
-787 -819 0
-787 -820 0
-787 -821 0
-787 -822 0
-787 -823 0
-787 -824 0
-787 -825 0
-787 -826 0
-787 -827 0
-787 -828 0
-787 -829 0
-787 -830 0
-787 -831 0
-787 -832 0
-787 -833 0
-787 -834 0
-787 -835 0
-787 -836 0
-787 -837 0
-787 -838 0
-787 -839 0
-787 -840 0
-787 -841 0
-787 -842 0
-787 -843 0
-787 -844 0
-787 -845 0
-787 -846 0
-787 -847 0
-787 -848 0
-787 -849 0
-787 -850 0
-787 -851 0
-787 -852 0
-787 -853 0
-787 -854 0
-787 -855 0
-787 -856 0
-788 -789 0
-788 -790 0
-788 -791 0
-788 -792 0
-788 -793 0
-788 -794 0
-788 -795 0
-788 -796 0
-788 -797 0
-788 -798 0
-788 -799 0
-788 -800 0
-788 -801 0
-788 -802 0
-788 -803 0
-788 -804 0
-788 -805 0
-788 -806 0
-788 -807 0
-788 -808 0
-788 -809 0
-788 -810 0
-788 -811 0
-788 -812 0
-788 -813 0
-788 -814 0
-788 -815 0
-788 -816 0
-788 -817 0
-788 -818 0
-788 -819 0
-788 -820 0
-788 -821 0
-788 -822 0
-788 -823 0
-788 -824 0
-788 -825 0
-788 -826 0
-788 -827 0
-788 -828 0
-788 -829 0
-788 -830 0
-788 -831 0
-788 -832 0
-788 -833 0
-788 -834 0
-788 -835 0
-788 -836 0
-788 -837 0
-788 -838 0
-788 -839 0
-788 -840 0
-788 -841 0
-788 -842 0
-788 -843 0
-788 -844 0
-788 -845 0
-788 -846 0
-788 -847 0
-788 -848 0
-788 -849 0
-788 -850 0
-788 -851 0
-788 -852 0
-788 -853 0
-788 -854 0
-788 -855 0
-788 -856 0
-789 -790 0
-789 -791 0
-789 -792 0
-789 -793 0
-789 -794 0
-789 -795 0
-789 -796 0
-789 -797 0
-789 -798 0
-789 -799 0
-789 -800 0
-789 -801 0
-789 -802 0
-789 -803 0
-789 -804 0
-789 -805 0
-789 -806 0
-789 -807 0
-789 -808 0
-789 -809 0
-789 -810 0
-789 -811 0
-789 -812 0
-789 -813 0
-789 -814 0
-789 -815 0
-789 -816 0
-789 -817 0
-789 -818 0
-789 -819 0
-789 -820 0
-789 -821 0
-789 -822 0
-789 -823 0
-789 -824 0
-789 -825 0
-789 -826 0
-789 -827 0
-789 -828 0
-789 -829 0
-789 -830 0
-789 -831 0
-789 -832 0
-789 -833 0
-789 -834 0
-789 -835 0
-789 -836 0
-789 -837 0
-789 -838 0
-789 -839 0
-789 -840 0
-789 -841 0
-789 -842 0
-789 -843 0
-789 -844 0
-789 -845 0
-789 -846 0
-789 -847 0
-789 -848 0
-789 -849 0
-789 -850 0
-789 -851 0
-789 -852 0
-789 -853 0
-789 -854 0
-789 -855 0
-789 -856 0
-790 -791 0
-790 -792 0
-790 -793 0
-790 -794 0
-790 -795 0
-790 -796 0
-790 -797 0
-790 -798 0
-790 -799 0
-790 -800 0
-790 -801 0
-790 -802 0
-790 -803 0
-790 -804 0
-790 -805 0
-790 -806 0
-790 -807 0
-790 -808 0
-790 -809 0
-790 -810 0
-790 -811 0
-790 -812 0
-790 -813 0
-790 -814 0
-790 -815 0
-790 -816 0
-790 -817 0
-790 -818 0
-790 -819 0
-790 -820 0
-790 -821 0
-790 -822 0
-790 -823 0
-790 -824 0
-790 -825 0
-790 -826 0
-790 -827 0
-790 -828 0
-790 -829 0
-790 -830 0
-790 -831 0
-790 -832 0
-790 -833 0
-790 -834 0
-790 -835 0
-790 -836 0
-790 -837 0
-790 -838 0
-790 -839 0
-790 -840 0
-790 -841 0
-790 -842 0
-790 -843 0
-790 -844 0
-790 -845 0
-790 -846 0
-790 -847 0
-790 -848 0
-790 -849 0
-790 -850 0
-790 -851 0
-790 -852 0
-790 -853 0
-790 -854 0
-790 -855 0
-790 -856 0
-791 -792 0
-791 -793 0
-791 -794 0
-791 -795 0
-791 -796 0
-791 -797 0
-791 -798 0
-791 -799 0
-791 -800 0
-791 -801 0
-791 -802 0
-791 -803 0
-791 -804 0
-791 -805 0
-791 -806 0
-791 -807 0
-791 -808 0
-791 -809 0
-791 -810 0
-791 -811 0
-791 -812 0
-791 -813 0
-791 -814 0
-791 -815 0
-791 -816 0
-791 -817 0
-791 -818 0
-791 -819 0
-791 -820 0
-791 -821 0
-791 -822 0
-791 -823 0
-791 -824 0
-791 -825 0
-791 -826 0
-791 -827 0
-791 -828 0
-791 -829 0
-791 -830 0
-791 -831 0
-791 -832 0
-791 -833 0
-791 -834 0
-791 -835 0
-791 -836 0
-791 -837 0
-791 -838 0
-791 -839 0
-791 -840 0
-791 -841 0
-791 -842 0
-791 -843 0
-791 -844 0
-791 -845 0
-791 -846 0
-791 -847 0
-791 -848 0
-791 -849 0
-791 -850 0
-791 -851 0
-791 -852 0
-791 -853 0
-791 -854 0
-791 -855 0
-791 -856 0
-792 -793 0
-792 -794 0
-792 -795 0
-792 -796 0
-792 -797 0
-792 -798 0
-792 -799 0
-792 -800 0
-792 -801 0
-792 -802 0
-792 -803 0
-792 -804 0
-792 -805 0
-792 -806 0
-792 -807 0
-792 -808 0
-792 -809 0
-792 -810 0
-792 -811 0
-792 -812 0
-792 -813 0
-792 -814 0
-792 -815 0
-792 -816 0
-792 -817 0
-792 -818 0
-792 -819 0
-792 -820 0
-792 -821 0
-792 -822 0
-792 -823 0
-792 -824 0
-792 -825 0
-792 -826 0
-792 -827 0
-792 -828 0
-792 -829 0
-792 -830 0
-792 -831 0
-792 -832 0
-792 -833 0
-792 -834 0
-792 -835 0
-792 -836 0
-792 -837 0
-792 -838 0
-792 -839 0
-792 -840 0
-792 -841 0
-792 -842 0
-792 -843 0
-792 -844 0
-792 -845 0
-792 -846 0
-792 -847 0
-792 -848 0
-792 -849 0
-792 -850 0
-792 -851 0
-792 -852 0
-792 -853 0
-792 -854 0
-792 -855 0
-792 -856 0
-793 -794 0
-793 -795 0
-793 -796 0
-793 -797 0
-793 -798 0
-793 -799 0
-793 -800 0
-793 -801 0
-793 -802 0
-793 -803 0
-793 -804 0
-793 -805 0
-793 -806 0
-793 -807 0
-793 -808 0
-793 -809 0
-793 -810 0
-793 -811 0
-793 -812 0
-793 -813 0
-793 -814 0
-793 -815 0
-793 -816 0
-793 -817 0
-793 -818 0
-793 -819 0
-793 -820 0
-793 -821 0
-793 -822 0
-793 -823 0
-793 -824 0
-793 -825 0
-793 -826 0
-793 -827 0
-793 -828 0
-793 -829 0
-793 -830 0
-793 -831 0
-793 -832 0
-793 -833 0
-793 -834 0
-793 -835 0
-793 -836 0
-793 -837 0
-793 -838 0
-793 -839 0
-793 -840 0
-793 -841 0
-793 -842 0
-793 -843 0
-793 -844 0
-793 -845 0
-793 -846 0
-793 -847 0
-793 -848 0
-793 -849 0
-793 -850 0
-793 -851 0
-793 -852 0
-793 -853 0
-793 -854 0
-793 -855 0
-793 -856 0
-794 -795 0
-794 -796 0
-794 -797 0
-794 -798 0
-794 -799 0
-794 -800 0
-794 -801 0
-794 -802 0
-794 -803 0
-794 -804 0
-794 -805 0
-794 -806 0
-794 -807 0
-794 -808 0
-794 -809 0
-794 -810 0
-794 -811 0
-794 -812 0
-794 -813 0
-794 -814 0
-794 -815 0
-794 -816 0
-794 -817 0
-794 -818 0
-794 -819 0
-794 -820 0
-794 -821 0
-794 -822 0
-794 -823 0
-794 -824 0
-794 -825 0
-794 -826 0
-794 -827 0
-794 -828 0
-794 -829 0
-794 -830 0
-794 -831 0
-794 -832 0
-794 -833 0
-794 -834 0
-794 -835 0
-794 -836 0
-794 -837 0
-794 -838 0
-794 -839 0
-794 -840 0
-794 -841 0
-794 -842 0
-794 -843 0
-794 -844 0
-794 -845 0
-794 -846 0
-794 -847 0
-794 -848 0
-794 -849 0
-794 -850 0
-794 -851 0
-794 -852 0
-794 -853 0
-794 -854 0
-794 -855 0
-794 -856 0
-795 -796 0
-795 -797 0
-795 -798 0
-795 -799 0
-795 -800 0
-795 -801 0
-795 -802 0
-795 -803 0
-795 -804 0
-795 -805 0
-795 -806 0
-795 -807 0
-795 -808 0
-795 -809 0
-795 -810 0
-795 -811 0
-795 -812 0
-795 -813 0
-795 -814 0
-795 -815 0
-795 -816 0
-795 -817 0
-795 -818 0
-795 -819 0
-795 -820 0
-795 -821 0
-795 -822 0
-795 -823 0
-795 -824 0
-795 -825 0
-795 -826 0
-795 -827 0
-795 -828 0
-795 -829 0
-795 -830 0
-795 -831 0
-795 -832 0
-795 -833 0
-795 -834 0
-795 -835 0
-795 -836 0
-795 -837 0
-795 -838 0
-795 -839 0
-795 -840 0
-795 -841 0
-795 -842 0
-795 -843 0
-795 -844 0
-795 -845 0
-795 -846 0
-795 -847 0
-795 -848 0
-795 -849 0
-795 -850 0
-795 -851 0
-795 -852 0
-795 -853 0
-795 -854 0
-795 -855 0
-795 -856 0
-796 -797 0
-796 -798 0
-796 -799 0
-796 -800 0
-796 -801 0
-796 -802 0
-796 -803 0
-796 -804 0
-796 -805 0
-796 -806 0
-796 -807 0
-796 -808 0
-796 -809 0
-796 -810 0
-796 -811 0
-796 -812 0
-796 -813 0
-796 -814 0
-796 -815 0
-796 -816 0
-796 -817 0
-796 -818 0
-796 -819 0
-796 -820 0
-796 -821 0
-796 -822 0
-796 -823 0
-796 -824 0
-796 -825 0
-796 -826 0
-796 -827 0
-796 -828 0
-796 -829 0
-796 -830 0
-796 -831 0
-796 -832 0
-796 -833 0
-796 -834 0
-796 -835 0
-796 -836 0
-796 -837 0
-796 -838 0
-796 -839 0
-796 -840 0
-796 -841 0
-796 -842 0
-796 -843 0
-796 -844 0
-796 -845 0
-796 -846 0
-796 -847 0
-796 -848 0
-796 -849 0
-796 -850 0
-796 -851 0
-796 -852 0
-796 -853 0
-796 -854 0
-796 -855 0
-796 -856 0
-797 -798 0
-797 -799 0
-797 -800 0
-797 -801 0
-797 -802 0
-797 -803 0
-797 -804 0
-797 -805 0
-797 -806 0
-797 -807 0
-797 -808 0
-797 -809 0
-797 -810 0
-797 -811 0
-797 -812 0
-797 -813 0
-797 -814 0
-797 -815 0
-797 -816 0
-797 -817 0
-797 -818 0
-797 -819 0
-797 -820 0
-797 -821 0
-797 -822 0
-797 -823 0
-797 -824 0
-797 -825 0
-797 -826 0
-797 -827 0
-797 -828 0
-797 -829 0
-797 -830 0
-797 -831 0
-797 -832 0
-797 -833 0
-797 -834 0
-797 -835 0
-797 -836 0
-797 -837 0
-797 -838 0
-797 -839 0
-797 -840 0
-797 -841 0
-797 -842 0
-797 -843 0
-797 -844 0
-797 -845 0
-797 -846 0
-797 -847 0
-797 -848 0
-797 -849 0
-797 -850 0
-797 -851 0
-797 -852 0
-797 -853 0
-797 -854 0
-797 -855 0
-797 -856 0
-798 -799 0
-798 -800 0
-798 -801 0
-798 -802 0
-798 -803 0
-798 -804 0
-798 -805 0
-798 -806 0
-798 -807 0
-798 -808 0
-798 -809 0
-798 -810 0
-798 -811 0
-798 -812 0
-798 -813 0
-798 -814 0
-798 -815 0
-798 -816 0
-798 -817 0
-798 -818 0
-798 -819 0
-798 -820 0
-798 -821 0
-798 -822 0
-798 -823 0
-798 -824 0
-798 -825 0
-798 -826 0
-798 -827 0
-798 -828 0
-798 -829 0
-798 -830 0
-798 -831 0
-798 -832 0
-798 -833 0
-798 -834 0
-798 -835 0
-798 -836 0
-798 -837 0
-798 -838 0
-798 -839 0
-798 -840 0
-798 -841 0
-798 -842 0
-798 -843 0
-798 -844 0
-798 -845 0
-798 -846 0
-798 -847 0
-798 -848 0
-798 -849 0
-798 -850 0
-798 -851 0
-798 -852 0
-798 -853 0
-798 -854 0
-798 -855 0
-798 -856 0
-799 -800 0
-799 -801 0
-799 -802 0
-799 -803 0
-799 -804 0
-799 -805 0
-799 -806 0
-799 -807 0
-799 -808 0
-799 -809 0
-799 -810 0
-799 -811 0
-799 -812 0
-799 -813 0
-799 -814 0
-799 -815 0
-799 -816 0
-799 -817 0
-799 -818 0
-799 -819 0
-799 -820 0
-799 -821 0
-799 -822 0
-799 -823 0
-799 -824 0
-799 -825 0
-799 -826 0
-799 -827 0
-799 -828 0
-799 -829 0
-799 -830 0
-799 -831 0
-799 -832 0
-799 -833 0
-799 -834 0
-799 -835 0
-799 -836 0
-799 -837 0
-799 -838 0
-799 -839 0
-799 -840 0
-799 -841 0
-799 -842 0
-799 -843 0
-799 -844 0
-799 -845 0
-799 -846 0
-799 -847 0
-799 -848 0
-799 -849 0
-799 -850 0
-799 -851 0
-799 -852 0
-799 -853 0
-799 -854 0
-799 -855 0
-799 -856 0
-800 -801 0
-800 -802 0
-800 -803 0
-800 -804 0
-800 -805 0
-800 -806 0
-800 -807 0
-800 -808 0
-800 -809 0
-800 -810 0
-800 -811 0
-800 -812 0
-800 -813 0
-800 -814 0
-800 -815 0
-800 -816 0
-800 -817 0
-800 -818 0
-800 -819 0
-800 -820 0
-800 -821 0
-800 -822 0
-800 -823 0
-800 -824 0
-800 -825 0
-800 -826 0
-800 -827 0
-800 -828 0
-800 -829 0
-800 -830 0
-800 -831 0
-800 -832 0
-800 -833 0
-800 -834 0
-800 -835 0
-800 -836 0
-800 -837 0
-800 -838 0
-800 -839 0
-800 -840 0
-800 -841 0
-800 -842 0
-800 -843 0
-800 -844 0
-800 -845 0
-800 -846 0
-800 -847 0
-800 -848 0
-800 -849 0
-800 -850 0
-800 -851 0
-800 -852 0
-800 -853 0
-800 -854 0
-800 -855 0
-800 -856 0
-801 -802 0
-801 -803 0
-801 -804 0
-801 -805 0
-801 -806 0
-801 -807 0
-801 -808 0
-801 -809 0
-801 -810 0
-801 -811 0
-801 -812 0
-801 -813 0
-801 -814 0
-801 -815 0
-801 -816 0
-801 -817 0
-801 -818 0
-801 -819 0
-801 -820 0
-801 -821 0
-801 -822 0
-801 -823 0
-801 -824 0
-801 -825 0
-801 -826 0
-801 -827 0
-801 -828 0
-801 -829 0
-801 -830 0
-801 -831 0
-801 -832 0
-801 -833 0
-801 -834 0
-801 -835 0
-801 -836 0
-801 -837 0
-801 -838 0
-801 -839 0
-801 -840 0
-801 -841 0
-801 -842 0
-801 -843 0
-801 -844 0
-801 -845 0
-801 -846 0
-801 -847 0
-801 -848 0
-801 -849 0
-801 -850 0
-801 -851 0
-801 -852 0
-801 -853 0
-801 -854 0
-801 -855 0
-801 -856 0
-802 -803 0
-802 -804 0
-802 -805 0
-802 -806 0
-802 -807 0
-802 -808 0
-802 -809 0
-802 -810 0
-802 -811 0
-802 -812 0
-802 -813 0
-802 -814 0
-802 -815 0
-802 -816 0
-802 -817 0
-802 -818 0
-802 -819 0
-802 -820 0
-802 -821 0
-802 -822 0
-802 -823 0
-802 -824 0
-802 -825 0
-802 -826 0
-802 -827 0
-802 -828 0
-802 -829 0
-802 -830 0
-802 -831 0
-802 -832 0
-802 -833 0
-802 -834 0
-802 -835 0
-802 -836 0
-802 -837 0
-802 -838 0
-802 -839 0
-802 -840 0
-802 -841 0
-802 -842 0
-802 -843 0
-802 -844 0
-802 -845 0
-802 -846 0
-802 -847 0
-802 -848 0
-802 -849 0
-802 -850 0
-802 -851 0
-802 -852 0
-802 -853 0
-802 -854 0
-802 -855 0
-802 -856 0
-803 -804 0
-803 -805 0
-803 -806 0
-803 -807 0
-803 -808 0
-803 -809 0
-803 -810 0
-803 -811 0
-803 -812 0
-803 -813 0
-803 -814 0
-803 -815 0
-803 -816 0
-803 -817 0
-803 -818 0
-803 -819 0
-803 -820 0
-803 -821 0
-803 -822 0
-803 -823 0
-803 -824 0
-803 -825 0
-803 -826 0
-803 -827 0
-803 -828 0
-803 -829 0
-803 -830 0
-803 -831 0
-803 -832 0
-803 -833 0
-803 -834 0
-803 -835 0
-803 -836 0
-803 -837 0
-803 -838 0
-803 -839 0
-803 -840 0
-803 -841 0
-803 -842 0
-803 -843 0
-803 -844 0
-803 -845 0
-803 -846 0
-803 -847 0
-803 -848 0
-803 -849 0
-803 -850 0
-803 -851 0
-803 -852 0
-803 -853 0
-803 -854 0
-803 -855 0
-803 -856 0
-804 -805 0
-804 -806 0
-804 -807 0
-804 -808 0
-804 -809 0
-804 -810 0
-804 -811 0
-804 -812 0
-804 -813 0
-804 -814 0
-804 -815 0
-804 -816 0
-804 -817 0
-804 -818 0
-804 -819 0
-804 -820 0
-804 -821 0
-804 -822 0
-804 -823 0
-804 -824 0
-804 -825 0
-804 -826 0
-804 -827 0
-804 -828 0
-804 -829 0
-804 -830 0
-804 -831 0
-804 -832 0
-804 -833 0
-804 -834 0
-804 -835 0
-804 -836 0
-804 -837 0
-804 -838 0
-804 -839 0
-804 -840 0
-804 -841 0
-804 -842 0
-804 -843 0
-804 -844 0
-804 -845 0
-804 -846 0
-804 -847 0
-804 -848 0
-804 -849 0
-804 -850 0
-804 -851 0
-804 -852 0
-804 -853 0
-804 -854 0
-804 -855 0
-804 -856 0
-805 -806 0
-805 -807 0
-805 -808 0
-805 -809 0
-805 -810 0
-805 -811 0
-805 -812 0
-805 -813 0
-805 -814 0
-805 -815 0
-805 -816 0
-805 -817 0
-805 -818 0
-805 -819 0
-805 -820 0
-805 -821 0
-805 -822 0
-805 -823 0
-805 -824 0
-805 -825 0
-805 -826 0
-805 -827 0
-805 -828 0
-805 -829 0
-805 -830 0
-805 -831 0
-805 -832 0
-805 -833 0
-805 -834 0
-805 -835 0
-805 -836 0
-805 -837 0
-805 -838 0
-805 -839 0
-805 -840 0
-805 -841 0
-805 -842 0
-805 -843 0
-805 -844 0
-805 -845 0
-805 -846 0
-805 -847 0
-805 -848 0
-805 -849 0
-805 -850 0
-805 -851 0
-805 -852 0
-805 -853 0
-805 -854 0
-805 -855 0
-805 -856 0
-806 -807 0
-806 -808 0
-806 -809 0
-806 -810 0
-806 -811 0
-806 -812 0
-806 -813 0
-806 -814 0
-806 -815 0
-806 -816 0
-806 -817 0
-806 -818 0
-806 -819 0
-806 -820 0
-806 -821 0
-806 -822 0
-806 -823 0
-806 -824 0
-806 -825 0
-806 -826 0
-806 -827 0
-806 -828 0
-806 -829 0
-806 -830 0
-806 -831 0
-806 -832 0
-806 -833 0
-806 -834 0
-806 -835 0
-806 -836 0
-806 -837 0
-806 -838 0
-806 -839 0
-806 -840 0
-806 -841 0
-806 -842 0
-806 -843 0
-806 -844 0
-806 -845 0
-806 -846 0
-806 -847 0
-806 -848 0
-806 -849 0
-806 -850 0
-806 -851 0
-806 -852 0
-806 -853 0
-806 -854 0
-806 -855 0
-806 -856 0
-807 -808 0
-807 -809 0
-807 -810 0
-807 -811 0
-807 -812 0
-807 -813 0
-807 -814 0
-807 -815 0
-807 -816 0
-807 -817 0
-807 -818 0
-807 -819 0
-807 -820 0
-807 -821 0
-807 -822 0
-807 -823 0
-807 -824 0
-807 -825 0
-807 -826 0
-807 -827 0
-807 -828 0
-807 -829 0
-807 -830 0
-807 -831 0
-807 -832 0
-807 -833 0
-807 -834 0
-807 -835 0
-807 -836 0
-807 -837 0
-807 -838 0
-807 -839 0
-807 -840 0
-807 -841 0
-807 -842 0
-807 -843 0
-807 -844 0
-807 -845 0
-807 -846 0
-807 -847 0
-807 -848 0
-807 -849 0
-807 -850 0
-807 -851 0
-807 -852 0
-807 -853 0
-807 -854 0
-807 -855 0
-807 -856 0
-808 -809 0
-808 -810 0
-808 -811 0
-808 -812 0
-808 -813 0
-808 -814 0
-808 -815 0
-808 -816 0
-808 -817 0
-808 -818 0
-808 -819 0
-808 -820 0
-808 -821 0
-808 -822 0
-808 -823 0
-808 -824 0
-808 -825 0
-808 -826 0
-808 -827 0
-808 -828 0
-808 -829 0
-808 -830 0
-808 -831 0
-808 -832 0
-808 -833 0
-808 -834 0
-808 -835 0
-808 -836 0
-808 -837 0
-808 -838 0
-808 -839 0
-808 -840 0
-808 -841 0
-808 -842 0
-808 -843 0
-808 -844 0
-808 -845 0
-808 -846 0
-808 -847 0
-808 -848 0
-808 -849 0
-808 -850 0
-808 -851 0
-808 -852 0
-808 -853 0
-808 -854 0
-808 -855 0
-808 -856 0
-809 -810 0
-809 -811 0
-809 -812 0
-809 -813 0
-809 -814 0
-809 -815 0
-809 -816 0
-809 -817 0
-809 -818 0
-809 -819 0
-809 -820 0
-809 -821 0
-809 -822 0
-809 -823 0
-809 -824 0
-809 -825 0
-809 -826 0
-809 -827 0
-809 -828 0
-809 -829 0
-809 -830 0
-809 -831 0
-809 -832 0
-809 -833 0
-809 -834 0
-809 -835 0
-809 -836 0
-809 -837 0
-809 -838 0
-809 -839 0
-809 -840 0
-809 -841 0
-809 -842 0
-809 -843 0
-809 -844 0
-809 -845 0
-809 -846 0
-809 -847 0
-809 -848 0
-809 -849 0
-809 -850 0
-809 -851 0
-809 -852 0
-809 -853 0
-809 -854 0
-809 -855 0
-809 -856 0
-810 -811 0
-810 -812 0
-810 -813 0
-810 -814 0
-810 -815 0
-810 -816 0
-810 -817 0
-810 -818 0
-810 -819 0
-810 -820 0
-810 -821 0
-810 -822 0
-810 -823 0
-810 -824 0
-810 -825 0
-810 -826 0
-810 -827 0
-810 -828 0
-810 -829 0
-810 -830 0
-810 -831 0
-810 -832 0
-810 -833 0
-810 -834 0
-810 -835 0
-810 -836 0
-810 -837 0
-810 -838 0
-810 -839 0
-810 -840 0
-810 -841 0
-810 -842 0
-810 -843 0
-810 -844 0
-810 -845 0
-810 -846 0
-810 -847 0
-810 -848 0
-810 -849 0
-810 -850 0
-810 -851 0
-810 -852 0
-810 -853 0
-810 -854 0
-810 -855 0
-810 -856 0
-811 -812 0
-811 -813 0
-811 -814 0
-811 -815 0
-811 -816 0
-811 -817 0
-811 -818 0
-811 -819 0
-811 -820 0
-811 -821 0
-811 -822 0
-811 -823 0
-811 -824 0
-811 -825 0
-811 -826 0
-811 -827 0
-811 -828 0
-811 -829 0
-811 -830 0
-811 -831 0
-811 -832 0
-811 -833 0
-811 -834 0
-811 -835 0
-811 -836 0
-811 -837 0
-811 -838 0
-811 -839 0
-811 -840 0
-811 -841 0
-811 -842 0
-811 -843 0
-811 -844 0
-811 -845 0
-811 -846 0
-811 -847 0
-811 -848 0
-811 -849 0
-811 -850 0
-811 -851 0
-811 -852 0
-811 -853 0
-811 -854 0
-811 -855 0
-811 -856 0
-812 -813 0
-812 -814 0
-812 -815 0
-812 -816 0
-812 -817 0
-812 -818 0
-812 -819 0
-812 -820 0
-812 -821 0
-812 -822 0
-812 -823 0
-812 -824 0
-812 -825 0
-812 -826 0
-812 -827 0
-812 -828 0
-812 -829 0
-812 -830 0
-812 -831 0
-812 -832 0
-812 -833 0
-812 -834 0
-812 -835 0
-812 -836 0
-812 -837 0
-812 -838 0
-812 -839 0
-812 -840 0
-812 -841 0
-812 -842 0
-812 -843 0
-812 -844 0
-812 -845 0
-812 -846 0
-812 -847 0
-812 -848 0
-812 -849 0
-812 -850 0
-812 -851 0
-812 -852 0
-812 -853 0
-812 -854 0
-812 -855 0
-812 -856 0
-813 -814 0
-813 -815 0
-813 -816 0
-813 -817 0
-813 -818 0
-813 -819 0
-813 -820 0
-813 -821 0
-813 -822 0
-813 -823 0
-813 -824 0
-813 -825 0
-813 -826 0
-813 -827 0
-813 -828 0
-813 -829 0
-813 -830 0
-813 -831 0
-813 -832 0
-813 -833 0
-813 -834 0
-813 -835 0
-813 -836 0
-813 -837 0
-813 -838 0
-813 -839 0
-813 -840 0
-813 -841 0
-813 -842 0
-813 -843 0
-813 -844 0
-813 -845 0
-813 -846 0
-813 -847 0
-813 -848 0
-813 -849 0
-813 -850 0
-813 -851 0
-813 -852 0
-813 -853 0
-813 -854 0
-813 -855 0
-813 -856 0
-814 -815 0
-814 -816 0
-814 -817 0
-814 -818 0
-814 -819 0
-814 -820 0
-814 -821 0
-814 -822 0
-814 -823 0
-814 -824 0
-814 -825 0
-814 -826 0
-814 -827 0
-814 -828 0
-814 -829 0
-814 -830 0
-814 -831 0
-814 -832 0
-814 -833 0
-814 -834 0
-814 -835 0
-814 -836 0
-814 -837 0
-814 -838 0
-814 -839 0
-814 -840 0
-814 -841 0
-814 -842 0
-814 -843 0
-814 -844 0
-814 -845 0
-814 -846 0
-814 -847 0
-814 -848 0
-814 -849 0
-814 -850 0
-814 -851 0
-814 -852 0
-814 -853 0
-814 -854 0
-814 -855 0
-814 -856 0
-815 -816 0
-815 -817 0
-815 -818 0
-815 -819 0
-815 -820 0
-815 -821 0
-815 -822 0
-815 -823 0
-815 -824 0
-815 -825 0
-815 -826 0
-815 -827 0
-815 -828 0
-815 -829 0
-815 -830 0
-815 -831 0
-815 -832 0
-815 -833 0
-815 -834 0
-815 -835 0
-815 -836 0
-815 -837 0
-815 -838 0
-815 -839 0
-815 -840 0
-815 -841 0
-815 -842 0
-815 -843 0
-815 -844 0
-815 -845 0
-815 -846 0
-815 -847 0
-815 -848 0
-815 -849 0
-815 -850 0
-815 -851 0
-815 -852 0
-815 -853 0
-815 -854 0
-815 -855 0
-815 -856 0
-816 -817 0
-816 -818 0
-816 -819 0
-816 -820 0
-816 -821 0
-816 -822 0
-816 -823 0
-816 -824 0
-816 -825 0
-816 -826 0
-816 -827 0
-816 -828 0
-816 -829 0
-816 -830 0
-816 -831 0
-816 -832 0
-816 -833 0
-816 -834 0
-816 -835 0
-816 -836 0
-816 -837 0
-816 -838 0
-816 -839 0
-816 -840 0
-816 -841 0
-816 -842 0
-816 -843 0
-816 -844 0
-816 -845 0
-816 -846 0
-816 -847 0
-816 -848 0
-816 -849 0
-816 -850 0
-816 -851 0
-816 -852 0
-816 -853 0
-816 -854 0
-816 -855 0
-816 -856 0
-817 -818 0
-817 -819 0
-817 -820 0
-817 -821 0
-817 -822 0
-817 -823 0
-817 -824 0
-817 -825 0
-817 -826 0
-817 -827 0
-817 -828 0
-817 -829 0
-817 -830 0
-817 -831 0
-817 -832 0
-817 -833 0
-817 -834 0
-817 -835 0
-817 -836 0
-817 -837 0
-817 -838 0
-817 -839 0
-817 -840 0
-817 -841 0
-817 -842 0
-817 -843 0
-817 -844 0
-817 -845 0
-817 -846 0
-817 -847 0
-817 -848 0
-817 -849 0
-817 -850 0
-817 -851 0
-817 -852 0
-817 -853 0
-817 -854 0
-817 -855 0
-817 -856 0
-818 -819 0
-818 -820 0
-818 -821 0
-818 -822 0
-818 -823 0
-818 -824 0
-818 -825 0
-818 -826 0
-818 -827 0
-818 -828 0
-818 -829 0
-818 -830 0
-818 -831 0
-818 -832 0
-818 -833 0
-818 -834 0
-818 -835 0
-818 -836 0
-818 -837 0
-818 -838 0
-818 -839 0
-818 -840 0
-818 -841 0
-818 -842 0
-818 -843 0
-818 -844 0
-818 -845 0
-818 -846 0
-818 -847 0
-818 -848 0
-818 -849 0
-818 -850 0
-818 -851 0
-818 -852 0
-818 -853 0
-818 -854 0
-818 -855 0
-818 -856 0
-819 -820 0
-819 -821 0
-819 -822 0
-819 -823 0
-819 -824 0
-819 -825 0
-819 -826 0
-819 -827 0
-819 -828 0
-819 -829 0
-819 -830 0
-819 -831 0
-819 -832 0
-819 -833 0
-819 -834 0
-819 -835 0
-819 -836 0
-819 -837 0
-819 -838 0
-819 -839 0
-819 -840 0
-819 -841 0
-819 -842 0
-819 -843 0
-819 -844 0
-819 -845 0
-819 -846 0
-819 -847 0
-819 -848 0
-819 -849 0
-819 -850 0
-819 -851 0
-819 -852 0
-819 -853 0
-819 -854 0
-819 -855 0
-819 -856 0
-820 -821 0
-820 -822 0
-820 -823 0
-820 -824 0
-820 -825 0
-820 -826 0
-820 -827 0
-820 -828 0
-820 -829 0
-820 -830 0
-820 -831 0
-820 -832 0
-820 -833 0
-820 -834 0
-820 -835 0
-820 -836 0
-820 -837 0
-820 -838 0
-820 -839 0
-820 -840 0
-820 -841 0
-820 -842 0
-820 -843 0
-820 -844 0
-820 -845 0
-820 -846 0
-820 -847 0
-820 -848 0
-820 -849 0
-820 -850 0
-820 -851 0
-820 -852 0
-820 -853 0
-820 -854 0
-820 -855 0
-820 -856 0
-821 -822 0
-821 -823 0
-821 -824 0
-821 -825 0
-821 -826 0
-821 -827 0
-821 -828 0
-821 -829 0
-821 -830 0
-821 -831 0
-821 -832 0
-821 -833 0
-821 -834 0
-821 -835 0
-821 -836 0
-821 -837 0
-821 -838 0
-821 -839 0
-821 -840 0
-821 -841 0
-821 -842 0
-821 -843 0
-821 -844 0
-821 -845 0
-821 -846 0
-821 -847 0
-821 -848 0
-821 -849 0
-821 -850 0
-821 -851 0
-821 -852 0
-821 -853 0
-821 -854 0
-821 -855 0
-821 -856 0
-822 -823 0
-822 -824 0
-822 -825 0
-822 -826 0
-822 -827 0
-822 -828 0
-822 -829 0
-822 -830 0
-822 -831 0
-822 -832 0
-822 -833 0
-822 -834 0
-822 -835 0
-822 -836 0
-822 -837 0
-822 -838 0
-822 -839 0
-822 -840 0
-822 -841 0
-822 -842 0
-822 -843 0
-822 -844 0
-822 -845 0
-822 -846 0
-822 -847 0
-822 -848 0
-822 -849 0
-822 -850 0
-822 -851 0
-822 -852 0
-822 -853 0
-822 -854 0
-822 -855 0
-822 -856 0
-823 -824 0
-823 -825 0
-823 -826 0
-823 -827 0
-823 -828 0
-823 -829 0
-823 -830 0
-823 -831 0
-823 -832 0
-823 -833 0
-823 -834 0
-823 -835 0
-823 -836 0
-823 -837 0
-823 -838 0
-823 -839 0
-823 -840 0
-823 -841 0
-823 -842 0
-823 -843 0
-823 -844 0
-823 -845 0
-823 -846 0
-823 -847 0
-823 -848 0
-823 -849 0
-823 -850 0
-823 -851 0
-823 -852 0
-823 -853 0
-823 -854 0
-823 -855 0
-823 -856 0
-824 -825 0
-824 -826 0
-824 -827 0
-824 -828 0
-824 -829 0
-824 -830 0
-824 -831 0
-824 -832 0
-824 -833 0
-824 -834 0
-824 -835 0
-824 -836 0
-824 -837 0
-824 -838 0
-824 -839 0
-824 -840 0
-824 -841 0
-824 -842 0
-824 -843 0
-824 -844 0
-824 -845 0
-824 -846 0
-824 -847 0
-824 -848 0
-824 -849 0
-824 -850 0
-824 -851 0
-824 -852 0
-824 -853 0
-824 -854 0
-824 -855 0
-824 -856 0
-825 -826 0
-825 -827 0
-825 -828 0
-825 -829 0
-825 -830 0
-825 -831 0
-825 -832 0
-825 -833 0
-825 -834 0
-825 -835 0
-825 -836 0
-825 -837 0
-825 -838 0
-825 -839 0
-825 -840 0
-825 -841 0
-825 -842 0
-825 -843 0
-825 -844 0
-825 -845 0
-825 -846 0
-825 -847 0
-825 -848 0
-825 -849 0
-825 -850 0
-825 -851 0
-825 -852 0
-825 -853 0
-825 -854 0
-825 -855 0
-825 -856 0
-826 -827 0
-826 -828 0
-826 -829 0
-826 -830 0
-826 -831 0
-826 -832 0
-826 -833 0
-826 -834 0
-826 -835 0
-826 -836 0
-826 -837 0
-826 -838 0
-826 -839 0
-826 -840 0
-826 -841 0
-826 -842 0
-826 -843 0
-826 -844 0
-826 -845 0
-826 -846 0
-826 -847 0
-826 -848 0
-826 -849 0
-826 -850 0
-826 -851 0
-826 -852 0
-826 -853 0
-826 -854 0
-826 -855 0
-826 -856 0
-827 -828 0
-827 -829 0
-827 -830 0
-827 -831 0
-827 -832 0
-827 -833 0
-827 -834 0
-827 -835 0
-827 -836 0
-827 -837 0
-827 -838 0
-827 -839 0
-827 -840 0
-827 -841 0
-827 -842 0
-827 -843 0
-827 -844 0
-827 -845 0
-827 -846 0
-827 -847 0
-827 -848 0
-827 -849 0
-827 -850 0
-827 -851 0
-827 -852 0
-827 -853 0
-827 -854 0
-827 -855 0
-827 -856 0
-828 -829 0
-828 -830 0
-828 -831 0
-828 -832 0
-828 -833 0
-828 -834 0
-828 -835 0
-828 -836 0
-828 -837 0
-828 -838 0
-828 -839 0
-828 -840 0
-828 -841 0
-828 -842 0
-828 -843 0
-828 -844 0
-828 -845 0
-828 -846 0
-828 -847 0
-828 -848 0
-828 -849 0
-828 -850 0
-828 -851 0
-828 -852 0
-828 -853 0
-828 -854 0
-828 -855 0
-828 -856 0
-829 -830 0
-829 -831 0
-829 -832 0
-829 -833 0
-829 -834 0
-829 -835 0
-829 -836 0
-829 -837 0
-829 -838 0
-829 -839 0
-829 -840 0
-829 -841 0
-829 -842 0
-829 -843 0
-829 -844 0
-829 -845 0
-829 -846 0
-829 -847 0
-829 -848 0
-829 -849 0
-829 -850 0
-829 -851 0
-829 -852 0
-829 -853 0
-829 -854 0
-829 -855 0
-829 -856 0
-830 -831 0
-830 -832 0
-830 -833 0
-830 -834 0
-830 -835 0
-830 -836 0
-830 -837 0
-830 -838 0
-830 -839 0
-830 -840 0
-830 -841 0
-830 -842 0
-830 -843 0
-830 -844 0
-830 -845 0
-830 -846 0
-830 -847 0
-830 -848 0
-830 -849 0
-830 -850 0
-830 -851 0
-830 -852 0
-830 -853 0
-830 -854 0
-830 -855 0
-830 -856 0
-831 -832 0
-831 -833 0
-831 -834 0
-831 -835 0
-831 -836 0
-831 -837 0
-831 -838 0
-831 -839 0
-831 -840 0
-831 -841 0
-831 -842 0
-831 -843 0
-831 -844 0
-831 -845 0
-831 -846 0
-831 -847 0
-831 -848 0
-831 -849 0
-831 -850 0
-831 -851 0
-831 -852 0
-831 -853 0
-831 -854 0
-831 -855 0
-831 -856 0
-832 -833 0
-832 -834 0
-832 -835 0
-832 -836 0
-832 -837 0
-832 -838 0
-832 -839 0
-832 -840 0
-832 -841 0
-832 -842 0
-832 -843 0
-832 -844 0
-832 -845 0
-832 -846 0
-832 -847 0
-832 -848 0
-832 -849 0
-832 -850 0
-832 -851 0
-832 -852 0
-832 -853 0
-832 -854 0
-832 -855 0
-832 -856 0
-833 -834 0
-833 -835 0
-833 -836 0
-833 -837 0
-833 -838 0
-833 -839 0
-833 -840 0
-833 -841 0
-833 -842 0
-833 -843 0
-833 -844 0
-833 -845 0
-833 -846 0
-833 -847 0
-833 -848 0
-833 -849 0
-833 -850 0
-833 -851 0
-833 -852 0
-833 -853 0
-833 -854 0
-833 -855 0
-833 -856 0
-834 -835 0
-834 -836 0
-834 -837 0
-834 -838 0
-834 -839 0
-834 -840 0
-834 -841 0
-834 -842 0
-834 -843 0
-834 -844 0
-834 -845 0
-834 -846 0
-834 -847 0
-834 -848 0
-834 -849 0
-834 -850 0
-834 -851 0
-834 -852 0
-834 -853 0
-834 -854 0
-834 -855 0
-834 -856 0
-835 -836 0
-835 -837 0
-835 -838 0
-835 -839 0
-835 -840 0
-835 -841 0
-835 -842 0
-835 -843 0
-835 -844 0
-835 -845 0
-835 -846 0
-835 -847 0
-835 -848 0
-835 -849 0
-835 -850 0
-835 -851 0
-835 -852 0
-835 -853 0
-835 -854 0
-835 -855 0
-835 -856 0
-836 -837 0
-836 -838 0
-836 -839 0
-836 -840 0
-836 -841 0
-836 -842 0
-836 -843 0
-836 -844 0
-836 -845 0
-836 -846 0
-836 -847 0
-836 -848 0
-836 -849 0
-836 -850 0
-836 -851 0
-836 -852 0
-836 -853 0
-836 -854 0
-836 -855 0
-836 -856 0
-837 -838 0
-837 -839 0
-837 -840 0
-837 -841 0
-837 -842 0
-837 -843 0
-837 -844 0
-837 -845 0
-837 -846 0
-837 -847 0
-837 -848 0
-837 -849 0
-837 -850 0
-837 -851 0
-837 -852 0
-837 -853 0
-837 -854 0
-837 -855 0
-837 -856 0
-838 -839 0
-838 -840 0
-838 -841 0
-838 -842 0
-838 -843 0
-838 -844 0
-838 -845 0
-838 -846 0
-838 -847 0
-838 -848 0
-838 -849 0
-838 -850 0
-838 -851 0
-838 -852 0
-838 -853 0
-838 -854 0
-838 -855 0
-838 -856 0
-839 -840 0
-839 -841 0
-839 -842 0
-839 -843 0
-839 -844 0
-839 -845 0
-839 -846 0
-839 -847 0
-839 -848 0
-839 -849 0
-839 -850 0
-839 -851 0
-839 -852 0
-839 -853 0
-839 -854 0
-839 -855 0
-839 -856 0
-840 -841 0
-840 -842 0
-840 -843 0
-840 -844 0
-840 -845 0
-840 -846 0
-840 -847 0
-840 -848 0
-840 -849 0
-840 -850 0
-840 -851 0
-840 -852 0
-840 -853 0
-840 -854 0
-840 -855 0
-840 -856 0
-841 -842 0
-841 -843 0
-841 -844 0
-841 -845 0
-841 -846 0
-841 -847 0
-841 -848 0
-841 -849 0
-841 -850 0
-841 -851 0
-841 -852 0
-841 -853 0
-841 -854 0
-841 -855 0
-841 -856 0
-842 -843 0
-842 -844 0
-842 -845 0
-842 -846 0
-842 -847 0
-842 -848 0
-842 -849 0
-842 -850 0
-842 -851 0
-842 -852 0
-842 -853 0
-842 -854 0
-842 -855 0
-842 -856 0
-843 -844 0
-843 -845 0
-843 -846 0
-843 -847 0
-843 -848 0
-843 -849 0
-843 -850 0
-843 -851 0
-843 -852 0
-843 -853 0
-843 -854 0
-843 -855 0
-843 -856 0
-844 -845 0
-844 -846 0
-844 -847 0
-844 -848 0
-844 -849 0
-844 -850 0
-844 -851 0
-844 -852 0
-844 -853 0
-844 -854 0
-844 -855 0
-844 -856 0
-845 -846 0
-845 -847 0
-845 -848 0
-845 -849 0
-845 -850 0
-845 -851 0
-845 -852 0
-845 -853 0
-845 -854 0
-845 -855 0
-845 -856 0
-846 -847 0
-846 -848 0
-846 -849 0
-846 -850 0
-846 -851 0
-846 -852 0
-846 -853 0
-846 -854 0
-846 -855 0
-846 -856 0
-847 -848 0
-847 -849 0
-847 -850 0
-847 -851 0
-847 -852 0
-847 -853 0
-847 -854 0
-847 -855 0
-847 -856 0
-848 -849 0
-848 -850 0
-848 -851 0
-848 -852 0
-848 -853 0
-848 -854 0
-848 -855 0
-848 -856 0
-849 -850 0
-849 -851 0
-849 -852 0
-849 -853 0
-849 -854 0
-849 -855 0
-849 -856 0
-850 -851 0
-850 -852 0
-850 -853 0
-850 -854 0
-850 -855 0
-850 -856 0
-851 -852 0
-851 -853 0
-851 -854 0
-851 -855 0
-851 -856 0
-852 -853 0
-852 -854 0
-852 -855 0
-852 -856 0
-853 -854 0
-853 -855 0
-853 -856 0
-854 -855 0
-854 -856 0
-855 -856 0
-857 773 774 775 776 777 778 779 780 781 782 783 784 785 786 787 788 789 790 791 792 793 794 795 796 0
-773 857 0
-774 857 0
-775 857 0
-776 857 0
-777 857 0
-778 857 0
-779 857 0
-780 857 0
-781 857 0
-782 857 0
-783 857 0
-784 857 0
-785 857 0
-786 857 0
-787 857 0
-788 857 0
-789 857 0
-790 857 0
-791 857 0
-792 857 0
-793 857 0
-794 857 0
-795 857 0
-796 857 0
857 -299 448 0
857 299 -448 0
857 -300 449 0
857 300 -449 0
857 -301 450 0
857 301 -450 0
857 -302 451 0
857 302 -451 0
857 -303 452 0
857 303 -452 0
857 -304 453 0
857 304 -453 0
857 -305 454 0
857 305 -454 0
857 -306 455 0
857 306 -455 0
857 -307 456 0
857 307 -456 0
857 -308 457 0
857 308 -457 0
-858 797 798 799 800 801 802 803 804 805 806 807 808 809 810 811 812 813 814 815 816 817 818 819 820 0
-797 858 0
-798 858 0
-799 858 0
-800 858 0
-801 858 0
-802 858 0
-803 858 0
-804 858 0
-805 858 0
-806 858 0
-807 858 0
-808 858 0
-809 858 0
-810 858 0
-811 858 0
-812 858 0
-813 858 0
-814 858 0
-815 858 0
-816 858 0
-817 858 0
-818 858 0
-819 858 0
-820 858 0
858 -309 458 0
858 309 -458 0
858 -310 459 0
858 310 -459 0
858 -311 460 0
858 311 -460 0
858 -312 461 0
858 312 -461 0
858 -313 462 0
858 313 -462 0
858 -314 463 0
858 314 -463 0
858 -315 464 0
858 315 -464 0
858 -316 465 0
858 316 -465 0
858 -317 466 0
858 317 -466 0
858 -318 467 0
858 318 -467 0
-859 821 822 823 824 825 826 827 828 829 830 831 832 833 834 835 836 837 838 839 840 0
-821 859 0
-822 859 0
-823 859 0
-824 859 0
-825 859 0
-826 859 0
-827 859 0
-828 859 0
-829 859 0
-830 859 0
-831 859 0
-832 859 0
-833 859 0
-834 859 0
-835 859 0
-836 859 0
-837 859 0
-838 859 0
-839 859 0
-840 859 0
859 -319 468 0
859 319 -468 0
859 -320 469 0
859 320 -469 0
859 -321 470 0
859 321 -470 0
859 -322 471 0
859 322 -471 0
859 -323 472 0
859 323 -472 0
859 -324 473 0
859 324 -473 0
859 -325 474 0
859 325 -474 0
859 -326 475 0
859 326 -475 0
859 -327 476 0
859 327 -476 0
-860 841 842 843 844 845 846 847 848 849 850 851 852 853 854 855 856 0
-841 860 0
-842 860 0
-843 860 0
-844 860 0
-845 860 0
-846 860 0
-847 860 0
-848 860 0
-849 860 0
-850 860 0
-851 860 0
-852 860 0
-853 860 0
-854 860 0
-855 860 0
-856 860 0
860 -328 477 0
860 328 -477 0
860 -329 478 0
860 329 -478 0
860 -330 479 0
860 330 -479 0
860 -331 480 0
860 331 -480 0
860 -332 481 0
860 332 -481 0
860 -333 482 0
860 333 -482 0
860 -334 483 0
860 334 -483 0
860 -335 484 0
860 335 -484 0
-773 444 0
-773 448 0
-773 -310 0
-773 -311 0
-773 -312 0
-773 -313 0
-773 -314 0
-773 -318 0
-773 -315 455 0
-773 -315 -299 -306 0
-773 -315 -361 0
-773 -315 -362 0
-773 -315 -363 0
-773 -315 -385 0
-773 -315 -386 0
-773 -315 -387 0
-773 -315 -405 0
-773 -315 -406 0
-773 -315 -407 0
-773 -316 456 0
-773 -316 -299 -307 0
-773 -316 -362 0
-773 -316 -363 0
-773 -316 -386 0
-773 -316 -387 0
-773 -316 -406 0
-773 -316 -407 0
-773 -317 457 0
-773 -317 -299 -308 0
-773 -317 -363 0
-773 -317 -387 0
-773 -317 -407 0
-774 444 0
-774 449 0
-774 -309 0
-774 -311 0
-774 -312 0
-774 -313 0
-774 -314 0
-774 -318 0
-774 -315 455 0
-774 -315 -300 -306 0
-774 -315 -365 0
-774 -315 -366 0
-774 -315 -367 0
-774 -315 -385 0
-774 -315 -386 0
-774 -315 -387 0
-774 -315 -389 0
-774 -315 -390 0
-774 -315 -391 0
-774 -315 -405 0
-774 -315 -406 0
-774 -315 -407 0
-774 -315 -409 0
-774 -315 -410 0
-774 -315 -411 0
-774 -316 456 0
-774 -316 -300 -307 0
-774 -316 -366 0
-774 -316 -367 0
-774 -316 -386 0
-774 -316 -387 0
-774 -316 -390 0
-774 -316 -391 0
-774 -316 -406 0
-774 -316 -407 0
-774 -316 -410 0
-774 -316 -411 0
-774 -317 457 0
-774 -317 -300 -308 0
-774 -317 -367 0
-774 -317 -387 0
-774 -317 -391 0
-774 -317 -407 0
-774 -317 -411 0
-775 444 0
-775 450 0
-775 -309 0
-775 -310 0
-775 -312 0
-775 -313 0
-775 -314 0
-775 -318 0
-775 -315 455 0
-775 -315 -301 -306 0
-775 -315 -369 0
-775 -315 -370 0
-775 -315 -371 0
-775 -315 -389 0
-775 -315 -390 0
-775 -315 -391 0
-775 -315 -393 0
-775 -315 -394 0
-775 -315 -395 0
-775 -315 -405 0
-775 -315 -406 0
-775 -315 -407 0
-775 -315 -409 0
-775 -315 -410 0
-775 -315 -411 0
-775 -315 -413 0
-775 -315 -414 0
-775 -315 -415 0
-775 -316 456 0
-775 -316 -301 -307 0
-775 -316 -370 0
-775 -316 -371 0
-775 -316 -390 0
-775 -316 -391 0
-775 -316 -394 0
-775 -316 -395 0
-775 -316 -406 0
-775 -316 -407 0
-775 -316 -410 0
-775 -316 -411 0
-775 -316 -414 0
-775 -316 -415 0
-775 -317 457 0
-775 -317 -301 -308 0
-775 -317 -371 0
-775 -317 -391 0
-775 -317 -395 0
-775 -317 -407 0
-775 -317 -411 0
-775 -317 -415 0
-776 444 0
-776 451 0
-776 -309 0
-776 -310 0
-776 -311 0
-776 -313 0
-776 -314 0
-776 -318 0
-776 -315 455 0
-776 -315 -302 -306 0
-776 -315 -373 0
-776 -315 -374 0
-776 -315 -375 0
-776 -315 -393 0
-776 -315 -394 0
-776 -315 -395 0
-776 -315 -397 0
-776 -315 -398 0
-776 -315 -399 0
-776 -315 -409 0
-776 -315 -410 0
-776 -315 -411 0
-776 -315 -413 0
-776 -315 -414 0
-776 -315 -415 0
-776 -315 -417 0
-776 -315 -418 0
-776 -315 -419 0
-776 -316 456 0
-776 -316 -302 -307 0
-776 -316 -374 0
-776 -316 -375 0
-776 -316 -394 0
-776 -316 -395 0
-776 -316 -398 0
-776 -316 -399 0
-776 -316 -410 0
-776 -316 -411 0
-776 -316 -414 0
-776 -316 -415 0
-776 -316 -418 0
-776 -316 -419 0
-776 -317 457 0
-776 -317 -302 -308 0
-776 -317 -375 0
-776 -317 -395 0
-776 -317 -399 0
-776 -317 -411 0
-776 -317 -415 0
-776 -317 -419 0
-777 444 0
-777 452 0
-777 -309 0
-777 -310 0
-777 -311 0
-777 -312 0
-777 -314 0
-777 -318 0
-777 -315 455 0
-777 -315 -303 -306 0
-777 -315 -377 0
-777 -315 -378 0
-777 -315 -379 0
-777 -315 -397 0
-777 -315 -398 0
-777 -315 -399 0
-777 -315 -401 0
-777 -315 -402 0
-777 -315 -403 0
-777 -315 -413 0
-777 -315 -414 0
-777 -315 -415 0
-777 -315 -417 0
-777 -315 -418 0
-777 -315 -419 0
-777 -316 456 0
-777 -316 -303 -307 0
-777 -316 -378 0
-777 -316 -379 0
-777 -316 -398 0
-777 -316 -399 0
-777 -316 -402 0
-777 -316 -403 0
-777 -316 -414 0
-777 -316 -415 0
-777 -316 -418 0
-777 -316 -419 0
-777 -317 457 0
-777 -317 -303 -308 0
-777 -317 -379 0
-777 -317 -399 0
-777 -317 -403 0
-777 -317 -415 0
-777 -317 -419 0
-778 444 0
-778 453 0
-778 -309 0
-778 -310 0
-778 -311 0
-778 -312 0
-778 -313 0
-778 -318 0
-778 -315 455 0
-778 -315 -304 -306 0
-778 -315 -381 0
-778 -315 -382 0
-778 -315 -383 0
-778 -315 -401 0
-778 -315 -402 0
-778 -315 -403 0
-778 -315 -417 0
-778 -315 -418 0
-778 -315 -419 0
-778 -316 456 0
-778 -316 -304 -307 0
-778 -316 -382 0
-778 -316 -383 0
-778 -316 -402 0
-778 -316 -403 0
-778 -316 -418 0
-778 -316 -419 0
-778 -317 457 0
-778 -317 -304 -308 0
-778 -317 -383 0
-778 -317 -403 0
-778 -317 -419 0
-779 444 0
-779 448 0
-779 -320 0
-779 -321 0
-779 -322 0
-779 -323 0
-779 -327 0
-779 -324 455 0
-779 -324 -299 -306 0
-779 -324 -361 0
-779 -324 -362 0
-779 -324 -363 0
-779 -324 -385 0
-779 -324 -386 0
-779 -324 -387 0
-779 -324 -405 0
-779 -324 -406 0
-779 -324 -407 0
-779 -325 456 0
-779 -325 -299 -307 0
-779 -325 -362 0
-779 -325 -363 0
-779 -325 -386 0
-779 -325 -387 0
-779 -325 -406 0
-779 -325 -407 0
-779 -326 457 0
-779 -326 -299 -308 0
-779 -326 -363 0
-779 -326 -387 0
-779 -326 -407 0
-780 444 0
-780 449 0
-780 -321 0
-780 -322 0
-780 -323 0
-780 -327 0
-780 -324 455 0
-780 -324 -300 -306 0
-780 -324 -365 0
-780 -324 -366 0
-780 -324 -367 0
-780 -324 -385 0
-780 -324 -386 0
-780 -324 -387 0
-780 -324 -389 0
-780 -324 -390 0
-780 -324 -391 0
-780 -324 -405 0
-780 -324 -406 0
-780 -324 -407 0
-780 -324 -409 0
-780 -324 -410 0
-780 -324 -411 0
-780 -325 456 0
-780 -325 -300 -307 0
-780 -325 -366 0
-780 -325 -367 0
-780 -325 -386 0
-780 -325 -387 0
-780 -325 -390 0
-780 -325 -391 0
-780 -325 -406 0
-780 -325 -407 0
-780 -325 -410 0
-780 -325 -411 0
-780 -326 457 0
-780 -326 -300 -308 0
-780 -326 -367 0
-780 -326 -387 0
-780 -326 -391 0
-780 -326 -407 0
-780 -326 -411 0
-781 444 0
-781 450 0
-781 -319 0
-781 -322 0
-781 -323 0
-781 -327 0
-781 -324 455 0
-781 -324 -301 -306 0
-781 -324 -369 0
-781 -324 -370 0
-781 -324 -371 0
-781 -324 -389 0
-781 -324 -390 0
-781 -324 -391 0
-781 -324 -393 0
-781 -324 -394 0
-781 -324 -395 0
-781 -324 -405 0
-781 -324 -406 0
-781 -324 -407 0
-781 -324 -409 0
-781 -324 -410 0
-781 -324 -411 0
-781 -324 -413 0
-781 -324 -414 0
-781 -324 -415 0
-781 -325 456 0
-781 -325 -301 -307 0
-781 -325 -370 0
-781 -325 -371 0
-781 -325 -390 0
-781 -325 -391 0
-781 -325 -394 0
-781 -325 -395 0
-781 -325 -406 0
-781 -325 -407 0
-781 -325 -410 0
-781 -325 -411 0
-781 -325 -414 0
-781 -325 -415 0
-781 -326 457 0
-781 -326 -301 -308 0
-781 -326 -371 0
-781 -326 -391 0
-781 -326 -395 0
-781 -326 -407 0
-781 -326 -411 0
-781 -326 -415 0
-782 444 0
-782 451 0
-782 -319 0
-782 -320 0
-782 -323 0
-782 -327 0
-782 -324 455 0
-782 -324 -302 -306 0
-782 -324 -373 0
-782 -324 -374 0
-782 -324 -375 0
-782 -324 -393 0
-782 -324 -394 0
-782 -324 -395 0
-782 -324 -397 0
-782 -324 -398 0
-782 -324 -399 0
-782 -324 -409 0
-782 -324 -410 0
-782 -324 -411 0
-782 -324 -413 0
-782 -324 -414 0
-782 -324 -415 0
-782 -324 -417 0
-782 -324 -418 0
-782 -324 -419 0
-782 -325 456 0
-782 -325 -302 -307 0
-782 -325 -374 0
-782 -325 -375 0
-782 -325 -394 0
-782 -325 -395 0
-782 -325 -398 0
-782 -325 -399 0
-782 -325 -410 0
-782 -325 -411 0
-782 -325 -414 0
-782 -325 -415 0
-782 -325 -418 0
-782 -325 -419 0
-782 -326 457 0
-782 -326 -302 -308 0
-782 -326 -375 0
-782 -326 -395 0
-782 -326 -399 0
-782 -326 -411 0
-782 -326 -415 0
-782 -326 -419 0
-783 444 0
-783 452 0
-783 -319 0
-783 -320 0
-783 -321 0
-783 -327 0
-783 -324 455 0
-783 -324 -303 -306 0
-783 -324 -377 0
-783 -324 -378 0
-783 -324 -379 0
-783 -324 -397 0
-783 -324 -398 0
-783 -324 -399 0
-783 -324 -401 0
-783 -324 -402 0
-783 -324 -403 0
-783 -324 -413 0
-783 -324 -414 0
-783 -324 -415 0
-783 -324 -417 0
-783 -324 -418 0
-783 -324 -419 0
-783 -325 456 0
-783 -325 -303 -307 0
-783 -325 -378 0
-783 -325 -379 0
-783 -325 -398 0
-783 -325 -399 0
-783 -325 -402 0
-783 -325 -403 0
-783 -325 -414 0
-783 -325 -415 0
-783 -325 -418 0
-783 -325 -419 0
-783 -326 457 0
-783 -326 -303 -308 0
-783 -326 -379 0
-783 -326 -399 0
-783 -326 -403 0
-783 -326 -415 0
-783 -326 -419 0
-784 444 0
-784 453 0
-784 -319 0
-784 -320 0
-784 -321 0
-784 -322 0
-784 -327 0
-784 -324 455 0
-784 -324 -304 -306 0
-784 -324 -381 0
-784 -324 -382 0
-784 -324 -383 0
-784 -324 -401 0
-784 -324 -402 0
-784 -324 -403 0
-784 -324 -417 0
-784 -324 -418 0
-784 -324 -419 0
-784 -325 456 0
-784 -325 -304 -307 0
-784 -325 -382 0
-784 -325 -383 0
-784 -325 -402 0
-784 -325 -403 0
-784 -325 -418 0
-784 -325 -419 0
-784 -326 457 0
-784 -326 -304 -308 0
-784 -326 -383 0
-784 -326 -403 0
-784 -326 -419 0
-785 444 0
-785 448 0
-785 -329 0
-785 -330 0
-785 -331 0
-785 -335 0
-785 -332 455 0
-785 -332 -299 -306 0
-785 -332 -361 0
-785 -332 -362 0
-785 -332 -363 0
-785 -332 -385 0
-785 -332 -386 0
-785 -332 -387 0
-785 -332 -405 0
-785 -332 -406 0
-785 -332 -407 0
-785 -333 456 0
-785 -333 -299 -307 0
-785 -333 -362 0
-785 -333 -363 0
-785 -333 -386 0
-785 -333 -387 0
-785 -333 -406 0
-785 -333 -407 0
-785 -334 457 0
-785 -334 -299 -308 0
-785 -334 -363 0
-785 -334 -387 0
-785 -334 -407 0
-786 444 0
-786 449 0
-786 -330 0
-786 -331 0
-786 -335 0
-786 -332 455 0
-786 -332 -300 -306 0
-786 -332 -365 0
-786 -332 -366 0
-786 -332 -367 0
-786 -332 -385 0
-786 -332 -386 0
-786 -332 -387 0
-786 -332 -389 0
-786 -332 -390 0
-786 -332 -391 0
-786 -332 -405 0
-786 -332 -406 0
-786 -332 -407 0
-786 -332 -409 0
-786 -332 -410 0
-786 -332 -411 0
-786 -333 456 0
-786 -333 -300 -307 0
-786 -333 -366 0
-786 -333 -367 0
-786 -333 -386 0
-786 -333 -387 0
-786 -333 -390 0
-786 -333 -391 0
-786 -333 -406 0
-786 -333 -407 0
-786 -333 -410 0
-786 -333 -411 0
-786 -334 457 0
-786 -334 -300 -308 0
-786 -334 -367 0
-786 -334 -387 0
-786 -334 -391 0
-786 -334 -407 0
-786 -334 -411 0
-787 444 0
-787 450 0
-787 -331 0
-787 -335 0
-787 -332 455 0
-787 -332 -301 -306 0
-787 -332 -369 0
-787 -332 -370 0
-787 -332 -371 0
-787 -332 -389 0
-787 -332 -390 0
-787 -332 -391 0
-787 -332 -393 0
-787 -332 -394 0
-787 -332 -395 0
-787 -332 -405 0
-787 -332 -406 0
-787 -332 -407 0
-787 -332 -409 0
-787 -332 -410 0
-787 -332 -411 0
-787 -332 -413 0
-787 -332 -414 0
-787 -332 -415 0
-787 -333 456 0
-787 -333 -301 -307 0
-787 -333 -370 0
-787 -333 -371 0
-787 -333 -390 0
-787 -333 -391 0
-787 -333 -394 0
-787 -333 -395 0
-787 -333 -406 0
-787 -333 -407 0
-787 -333 -410 0
-787 -333 -411 0
-787 -333 -414 0
-787 -333 -415 0
-787 -334 457 0
-787 -334 -301 -308 0
-787 -334 -371 0
-787 -334 -391 0
-787 -334 -395 0
-787 -334 -407 0
-787 -334 -411 0
-787 -334 -415 0
-788 444 0
-788 451 0
-788 -328 0
-788 -335 0
-788 -332 455 0
-788 -332 -302 -306 0
-788 -332 -373 0
-788 -332 -374 0
-788 -332 -375 0
-788 -332 -393 0
-788 -332 -394 0
-788 -332 -395 0
-788 -332 -397 0
-788 -332 -398 0
-788 -332 -399 0
-788 -332 -409 0
-788 -332 -410 0
-788 -332 -411 0
-788 -332 -413 0
-788 -332 -414 0
-788 -332 -415 0
-788 -332 -417 0
-788 -332 -418 0
-788 -332 -419 0
-788 -333 456 0
-788 -333 -302 -307 0
-788 -333 -374 0
-788 -333 -375 0
-788 -333 -394 0
-788 -333 -395 0
-788 -333 -398 0
-788 -333 -399 0
-788 -333 -410 0
-788 -333 -411 0
-788 -333 -414 0
-788 -333 -415 0
-788 -333 -418 0
-788 -333 -419 0
-788 -334 457 0
-788 -334 -302 -308 0
-788 -334 -375 0
-788 -334 -395 0
-788 -334 -399 0
-788 -334 -411 0
-788 -334 -415 0
-788 -334 -419 0
-789 444 0
-789 452 0
-789 -328 0
-789 -329 0
-789 -335 0
-789 -332 455 0
-789 -332 -303 -306 0
-789 -332 -377 0
-789 -332 -378 0
-789 -332 -379 0
-789 -332 -397 0
-789 -332 -398 0
-789 -332 -399 0
-789 -332 -401 0
-789 -332 -402 0
-789 -332 -403 0
-789 -332 -413 0
-789 -332 -414 0
-789 -332 -415 0
-789 -332 -417 0
-789 -332 -418 0
-789 -332 -419 0
-789 -333 456 0
-789 -333 -303 -307 0
-789 -333 -378 0
-789 -333 -379 0
-789 -333 -398 0
-789 -333 -399 0
-789 -333 -402 0
-789 -333 -403 0
-789 -333 -414 0
-789 -333 -415 0
-789 -333 -418 0
-789 -333 -419 0
-789 -334 457 0
-789 -334 -303 -308 0
-789 -334 -379 0
-789 -334 -399 0
-789 -334 -403 0
-789 -334 -415 0
-789 -334 -419 0
-790 444 0
-790 453 0
-790 -328 0
-790 -329 0
-790 -330 0
-790 -335 0
-790 -332 455 0
-790 -332 -304 -306 0
-790 -332 -381 0
-790 -332 -382 0
-790 -332 -383 0
-790 -332 -401 0
-790 -332 -402 0
-790 -332 -403 0
-790 -332 -417 0
-790 -332 -418 0
-790 -332 -419 0
-790 -333 456 0
-790 -333 -304 -307 0
-790 -333 -382 0
-790 -333 -383 0
-790 -333 -402 0
-790 -333 -403 0
-790 -333 -418 0
-790 -333 -419 0
-790 -334 457 0
-790 -334 -304 -308 0
-790 -334 -383 0
-790 -334 -403 0
-790 -334 -419 0
-791 444 0
-791 448 0
-791 454 0
-791 -299 -305 0
-791 -360 0
-791 -361 0
-791 -362 0
-791 -363 0
-791 -384 0
-791 -385 0
-791 -386 0
-791 -387 0
-791 -404 0
-791 -405 0
-791 -406 0
-791 -407 0
-792 444 0
-792 449 0
-792 454 0
-792 -300 -305 0
-792 -364 0
-792 -365 0
-792 -366 0
-792 -367 0
-792 -384 0
-792 -385 0
-792 -386 0
-792 -387 0
-792 -388 0
-792 -389 0
-792 -390 0
-792 -391 0
-792 -404 0
-792 -405 0
-792 -406 0
-792 -407 0
-792 -408 0
-792 -409 0
-792 -410 0
-792 -411 0
-793 444 0
-793 450 0
-793 454 0
-793 -301 -305 0
-793 -368 0
-793 -369 0
-793 -370 0
-793 -371 0
-793 -388 0
-793 -389 0
-793 -390 0
-793 -391 0
-793 -392 0
-793 -393 0
-793 -394 0
-793 -395 0
-793 -404 0
-793 -405 0
-793 -406 0
-793 -407 0
-793 -408 0
-793 -409 0
-793 -410 0
-793 -411 0
-793 -412 0
-793 -413 0
-793 -414 0
-793 -415 0
-794 444 0
-794 451 0
-794 454 0
-794 -302 -305 0
-794 -372 0
-794 -373 0
-794 -374 0
-794 -375 0
-794 -392 0
-794 -393 0
-794 -394 0
-794 -395 0
-794 -396 0
-794 -397 0
-794 -398 0
-794 -399 0
-794 -408 0
-794 -409 0
-794 -410 0
-794 -411 0
-794 -412 0
-794 -413 0
-794 -414 0
-794 -415 0
-794 -416 0
-794 -417 0
-794 -418 0
-794 -419 0
-795 444 0
-795 452 0
-795 454 0
-795 -303 -305 0
-795 -376 0
-795 -377 0
-795 -378 0
-795 -379 0
-795 -396 0
-795 -397 0
-795 -398 0
-795 -399 0
-795 -400 0
-795 -401 0
-795 -402 0
-795 -403 0
-795 -412 0
-795 -413 0
-795 -414 0
-795 -415 0
-795 -416 0
-795 -417 0
-795 -418 0
-795 -419 0
-796 444 0
-796 453 0
-796 454 0
-796 -304 -305 0
-796 -380 0
-796 -381 0
-796 -382 0
-796 -383 0
-796 -400 0
-796 -401 0
-796 -402 0
-796 -403 0
-796 -416 0
-796 -417 0
-796 -418 0
-796 -419 0
-797 445 0
-797 458 0
-797 -300 0
-797 -301 0
-797 -302 0
-797 -303 0
-797 -304 0
-797 -308 0
-797 -305 465 0
-797 -305 -309 -316 0
-797 -305 -337 0
-797 -305 -338 0
-797 -305 -339 0
-797 -305 -385 0
-797 -305 -386 0
-797 -305 -387 0
-797 -305 -405 0
-797 -305 -406 0
-797 -305 -407 0
-797 -306 466 0
-797 -306 -309 -317 0
-797 -306 -338 0
-797 -306 -339 0
-797 -306 -386 0
-797 -306 -387 0
-797 -306 -406 0
-797 -306 -407 0
-797 -307 467 0
-797 -307 -309 -318 0
-797 -307 -339 0
-797 -307 -387 0
-797 -307 -407 0
-798 445 0
-798 459 0
-798 -299 0
-798 -301 0
-798 -302 0
-798 -303 0
-798 -304 0
-798 -308 0
-798 -305 465 0
-798 -305 -310 -316 0
-798 -305 -341 0
-798 -305 -342 0
-798 -305 -343 0
-798 -305 -385 0
-798 -305 -386 0
-798 -305 -387 0
-798 -305 -389 0
-798 -305 -390 0
-798 -305 -391 0
-798 -305 -405 0
-798 -305 -406 0
-798 -305 -407 0
-798 -305 -409 0
-798 -305 -410 0
-798 -305 -411 0
-798 -306 466 0
-798 -306 -310 -317 0
-798 -306 -342 0
-798 -306 -343 0
-798 -306 -386 0
-798 -306 -387 0
-798 -306 -390 0
-798 -306 -391 0
-798 -306 -406 0
-798 -306 -407 0
-798 -306 -410 0
-798 -306 -411 0
-798 -307 467 0
-798 -307 -310 -318 0
-798 -307 -343 0
-798 -307 -387 0
-798 -307 -391 0
-798 -307 -407 0
-798 -307 -411 0
-799 445 0
-799 460 0
-799 -299 0
-799 -300 0
-799 -302 0
-799 -303 0
-799 -304 0
-799 -308 0
-799 -305 465 0
-799 -305 -311 -316 0
-799 -305 -345 0
-799 -305 -346 0
-799 -305 -347 0
-799 -305 -389 0
-799 -305 -390 0
-799 -305 -391 0
-799 -305 -393 0
-799 -305 -394 0
-799 -305 -395 0
-799 -305 -405 0
-799 -305 -406 0
-799 -305 -407 0
-799 -305 -409 0
-799 -305 -410 0
-799 -305 -411 0
-799 -305 -413 0
-799 -305 -414 0
-799 -305 -415 0
-799 -306 466 0
-799 -306 -311 -317 0
-799 -306 -346 0
-799 -306 -347 0
-799 -306 -390 0
-799 -306 -391 0
-799 -306 -394 0
-799 -306 -395 0
-799 -306 -406 0
-799 -306 -407 0
-799 -306 -410 0
-799 -306 -411 0
-799 -306 -414 0
-799 -306 -415 0
-799 -307 467 0
-799 -307 -311 -318 0
-799 -307 -347 0
-799 -307 -391 0
-799 -307 -395 0
-799 -307 -407 0
-799 -307 -411 0
-799 -307 -415 0
-800 445 0
-800 461 0
-800 -299 0
-800 -300 0
-800 -301 0
-800 -303 0
-800 -304 0
-800 -308 0
-800 -305 465 0
-800 -305 -312 -316 0
-800 -305 -349 0
-800 -305 -350 0
-800 -305 -351 0
-800 -305 -393 0
-800 -305 -394 0
-800 -305 -395 0
-800 -305 -397 0
-800 -305 -398 0
-800 -305 -399 0
-800 -305 -409 0
-800 -305 -410 0
-800 -305 -411 0
-800 -305 -413 0
-800 -305 -414 0
-800 -305 -415 0
-800 -305 -417 0
-800 -305 -418 0
-800 -305 -419 0
-800 -306 466 0
-800 -306 -312 -317 0
-800 -306 -350 0
-800 -306 -351 0
-800 -306 -394 0
-800 -306 -395 0
-800 -306 -398 0
-800 -306 -399 0
-800 -306 -410 0
-800 -306 -411 0
-800 -306 -414 0
-800 -306 -415 0
-800 -306 -418 0
-800 -306 -419 0
-800 -307 467 0
-800 -307 -312 -318 0
-800 -307 -351 0
-800 -307 -395 0
-800 -307 -399 0
-800 -307 -411 0
-800 -307 -415 0
-800 -307 -419 0
-801 445 0
-801 462 0
-801 -299 0
-801 -300 0
-801 -301 0
-801 -302 0
-801 -304 0
-801 -308 0
-801 -305 465 0
-801 -305 -313 -316 0
-801 -305 -353 0
-801 -305 -354 0
-801 -305 -355 0
-801 -305 -397 0
-801 -305 -398 0
-801 -305 -399 0
-801 -305 -401 0
-801 -305 -402 0
-801 -305 -403 0
-801 -305 -413 0
-801 -305 -414 0
-801 -305 -415 0
-801 -305 -417 0
-801 -305 -418 0
-801 -305 -419 0
-801 -306 466 0
-801 -306 -313 -317 0
-801 -306 -354 0
-801 -306 -355 0
-801 -306 -398 0
-801 -306 -399 0
-801 -306 -402 0
-801 -306 -403 0
-801 -306 -414 0
-801 -306 -415 0
-801 -306 -418 0
-801 -306 -419 0
-801 -307 467 0
-801 -307 -313 -318 0
-801 -307 -355 0
-801 -307 -399 0
-801 -307 -403 0
-801 -307 -415 0
-801 -307 -419 0
-802 445 0
-802 463 0
-802 -299 0
-802 -300 0
-802 -301 0
-802 -302 0
-802 -303 0
-802 -308 0
-802 -305 465 0
-802 -305 -314 -316 0
-802 -305 -357 0
-802 -305 -358 0
-802 -305 -359 0
-802 -305 -401 0
-802 -305 -402 0
-802 -305 -403 0
-802 -305 -417 0
-802 -305 -418 0
-802 -305 -419 0
-802 -306 466 0
-802 -306 -314 -317 0
-802 -306 -358 0
-802 -306 -359 0
-802 -306 -402 0
-802 -306 -403 0
-802 -306 -418 0
-802 -306 -419 0
-802 -307 467 0
-802 -307 -314 -318 0
-802 -307 -359 0
-802 -307 -403 0
-802 -307 -419 0
-803 445 0
-803 458 0
-803 -320 0
-803 -321 0
-803 -322 0
-803 -323 0
-803 -327 0
-803 -324 465 0
-803 -324 -309 -316 0
-803 -324 -337 0
-803 -324 -338 0
-803 -324 -339 0
-803 -324 -385 0
-803 -324 -386 0
-803 -324 -387 0
-803 -324 -405 0
-803 -324 -406 0
-803 -324 -407 0
-803 -325 466 0
-803 -325 -309 -317 0
-803 -325 -338 0
-803 -325 -339 0
-803 -325 -386 0
-803 -325 -387 0
-803 -325 -406 0
-803 -325 -407 0
-803 -326 467 0
-803 -326 -309 -318 0
-803 -326 -339 0
-803 -326 -387 0
-803 -326 -407 0
-804 445 0
-804 459 0
-804 -321 0
-804 -322 0
-804 -323 0
-804 -327 0
-804 -324 465 0
-804 -324 -310 -316 0
-804 -324 -341 0
-804 -324 -342 0
-804 -324 -343 0
-804 -324 -385 0
-804 -324 -386 0
-804 -324 -387 0
-804 -324 -389 0
-804 -324 -390 0
-804 -324 -391 0
-804 -324 -405 0
-804 -324 -406 0
-804 -324 -407 0
-804 -324 -409 0
-804 -324 -410 0
-804 -324 -411 0
-804 -325 466 0
-804 -325 -310 -317 0
-804 -325 -342 0
-804 -325 -343 0
-804 -325 -386 0
-804 -325 -387 0
-804 -325 -390 0
-804 -325 -391 0
-804 -325 -406 0
-804 -325 -407 0
-804 -325 -410 0
-804 -325 -411 0
-804 -326 467 0
-804 -326 -310 -318 0
-804 -326 -343 0
-804 -326 -387 0
-804 -326 -391 0
-804 -326 -407 0
-804 -326 -411 0
-805 445 0
-805 460 0
-805 -319 0
-805 -322 0
-805 -323 0
-805 -327 0
-805 -324 465 0
-805 -324 -311 -316 0
-805 -324 -345 0
-805 -324 -346 0
-805 -324 -347 0
-805 -324 -389 0
-805 -324 -390 0
-805 -324 -391 0
-805 -324 -393 0
-805 -324 -394 0
-805 -324 -395 0
-805 -324 -405 0
-805 -324 -406 0
-805 -324 -407 0
-805 -324 -409 0
-805 -324 -410 0
-805 -324 -411 0
-805 -324 -413 0
-805 -324 -414 0
-805 -324 -415 0
-805 -325 466 0
-805 -325 -311 -317 0
-805 -325 -346 0
-805 -325 -347 0
-805 -325 -390 0
-805 -325 -391 0
-805 -325 -394 0
-805 -325 -395 0
-805 -325 -406 0
-805 -325 -407 0
-805 -325 -410 0
-805 -325 -411 0
-805 -325 -414 0
-805 -325 -415 0
-805 -326 467 0
-805 -326 -311 -318 0
-805 -326 -347 0
-805 -326 -391 0
-805 -326 -395 0
-805 -326 -407 0
-805 -326 -411 0
-805 -326 -415 0
-806 445 0
-806 461 0
-806 -319 0
-806 -320 0
-806 -323 0
-806 -327 0
-806 -324 465 0
-806 -324 -312 -316 0
-806 -324 -349 0
-806 -324 -350 0
-806 -324 -351 0
-806 -324 -393 0
-806 -324 -394 0
-806 -324 -395 0
-806 -324 -397 0
-806 -324 -398 0
-806 -324 -399 0
-806 -324 -409 0
-806 -324 -410 0
-806 -324 -411 0
-806 -324 -413 0
-806 -324 -414 0
-806 -324 -415 0
-806 -324 -417 0
-806 -324 -418 0
-806 -324 -419 0
-806 -325 466 0
-806 -325 -312 -317 0
-806 -325 -350 0
-806 -325 -351 0
-806 -325 -394 0
-806 -325 -395 0
-806 -325 -398 0
-806 -325 -399 0
-806 -325 -410 0
-806 -325 -411 0
-806 -325 -414 0
-806 -325 -415 0
-806 -325 -418 0
-806 -325 -419 0
-806 -326 467 0
-806 -326 -312 -318 0
-806 -326 -351 0
-806 -326 -395 0
-806 -326 -399 0
-806 -326 -411 0
-806 -326 -415 0
-806 -326 -419 0
-807 445 0
-807 462 0
-807 -319 0
-807 -320 0
-807 -321 0
-807 -327 0
-807 -324 465 0
-807 -324 -313 -316 0
-807 -324 -353 0
-807 -324 -354 0
-807 -324 -355 0
-807 -324 -397 0
-807 -324 -398 0
-807 -324 -399 0
-807 -324 -401 0
-807 -324 -402 0
-807 -324 -403 0
-807 -324 -413 0
-807 -324 -414 0
-807 -324 -415 0
-807 -324 -417 0
-807 -324 -418 0
-807 -324 -419 0
-807 -325 466 0
-807 -325 -313 -317 0
-807 -325 -354 0
-807 -325 -355 0
-807 -325 -398 0
-807 -325 -399 0
-807 -325 -402 0
-807 -325 -403 0
-807 -325 -414 0
-807 -325 -415 0
-807 -325 -418 0
-807 -325 -419 0
-807 -326 467 0
-807 -326 -313 -318 0
-807 -326 -355 0
-807 -326 -399 0
-807 -326 -403 0
-807 -326 -415 0
-807 -326 -419 0
-808 445 0
-808 463 0
-808 -319 0
-808 -320 0
-808 -321 0
-808 -322 0
-808 -327 0
-808 -324 465 0
-808 -324 -314 -316 0
-808 -324 -357 0
-808 -324 -358 0
-808 -324 -359 0
-808 -324 -401 0
-808 -324 -402 0
-808 -324 -403 0
-808 -324 -417 0
-808 -324 -418 0
-808 -324 -419 0
-808 -325 466 0
-808 -325 -314 -317 0
-808 -325 -358 0
-808 -325 -359 0
-808 -325 -402 0
-808 -325 -403 0
-808 -325 -418 0
-808 -325 -419 0
-808 -326 467 0
-808 -326 -314 -318 0
-808 -326 -359 0
-808 -326 -403 0
-808 -326 -419 0
-809 445 0
-809 458 0
-809 -329 0
-809 -330 0
-809 -331 0
-809 -335 0
-809 -332 465 0
-809 -332 -309 -316 0
-809 -332 -337 0
-809 -332 -338 0
-809 -332 -339 0
-809 -332 -385 0
-809 -332 -386 0
-809 -332 -387 0
-809 -332 -405 0
-809 -332 -406 0
-809 -332 -407 0
-809 -333 466 0
-809 -333 -309 -317 0
-809 -333 -338 0
-809 -333 -339 0
-809 -333 -386 0
-809 -333 -387 0
-809 -333 -406 0
-809 -333 -407 0
-809 -334 467 0
-809 -334 -309 -318 0
-809 -334 -339 0
-809 -334 -387 0
-809 -334 -407 0
-810 445 0
-810 459 0
-810 -330 0
-810 -331 0
-810 -335 0
-810 -332 465 0
-810 -332 -310 -316 0
-810 -332 -341 0
-810 -332 -342 0
-810 -332 -343 0
-810 -332 -385 0
-810 -332 -386 0
-810 -332 -387 0
-810 -332 -389 0
-810 -332 -390 0
-810 -332 -391 0
-810 -332 -405 0
-810 -332 -406 0
-810 -332 -407 0
-810 -332 -409 0
-810 -332 -410 0
-810 -332 -411 0
-810 -333 466 0
-810 -333 -310 -317 0
-810 -333 -342 0
-810 -333 -343 0
-810 -333 -386 0
-810 -333 -387 0
-810 -333 -390 0
-810 -333 -391 0
-810 -333 -406 0
-810 -333 -407 0
-810 -333 -410 0
-810 -333 -411 0
-810 -334 467 0
-810 -334 -310 -318 0
-810 -334 -343 0
-810 -334 -387 0
-810 -334 -391 0
-810 -334 -407 0
-810 -334 -411 0
-811 445 0
-811 460 0
-811 -331 0
-811 -335 0
-811 -332 465 0
-811 -332 -311 -316 0
-811 -332 -345 0
-811 -332 -346 0
-811 -332 -347 0
-811 -332 -389 0
-811 -332 -390 0
-811 -332 -391 0
-811 -332 -393 0
-811 -332 -394 0
-811 -332 -395 0
-811 -332 -405 0
-811 -332 -406 0
-811 -332 -407 0
-811 -332 -409 0
-811 -332 -410 0
-811 -332 -411 0
-811 -332 -413 0
-811 -332 -414 0
-811 -332 -415 0
-811 -333 466 0
-811 -333 -311 -317 0
-811 -333 -346 0
-811 -333 -347 0
-811 -333 -390 0
-811 -333 -391 0
-811 -333 -394 0
-811 -333 -395 0
-811 -333 -406 0
-811 -333 -407 0
-811 -333 -410 0
-811 -333 -411 0
-811 -333 -414 0
-811 -333 -415 0
-811 -334 467 0
-811 -334 -311 -318 0
-811 -334 -347 0
-811 -334 -391 0
-811 -334 -395 0
-811 -334 -407 0
-811 -334 -411 0
-811 -334 -415 0
-812 445 0
-812 461 0
-812 -328 0
-812 -335 0
-812 -332 465 0
-812 -332 -312 -316 0
-812 -332 -349 0
-812 -332 -350 0
-812 -332 -351 0
-812 -332 -393 0
-812 -332 -394 0
-812 -332 -395 0
-812 -332 -397 0
-812 -332 -398 0
-812 -332 -399 0
-812 -332 -409 0
-812 -332 -410 0
-812 -332 -411 0
-812 -332 -413 0
-812 -332 -414 0
-812 -332 -415 0
-812 -332 -417 0
-812 -332 -418 0
-812 -332 -419 0
-812 -333 466 0
-812 -333 -312 -317 0
-812 -333 -350 0
-812 -333 -351 0
-812 -333 -394 0
-812 -333 -395 0
-812 -333 -398 0
-812 -333 -399 0
-812 -333 -410 0
-812 -333 -411 0
-812 -333 -414 0
-812 -333 -415 0
-812 -333 -418 0
-812 -333 -419 0
-812 -334 467 0
-812 -334 -312 -318 0
-812 -334 -351 0
-812 -334 -395 0
-812 -334 -399 0
-812 -334 -411 0
-812 -334 -415 0
-812 -334 -419 0
-813 445 0
-813 462 0
-813 -328 0
-813 -329 0
-813 -335 0
-813 -332 465 0
-813 -332 -313 -316 0
-813 -332 -353 0
-813 -332 -354 0
-813 -332 -355 0
-813 -332 -397 0
-813 -332 -398 0
-813 -332 -399 0
-813 -332 -401 0
-813 -332 -402 0
-813 -332 -403 0
-813 -332 -413 0
-813 -332 -414 0
-813 -332 -415 0
-813 -332 -417 0
-813 -332 -418 0
-813 -332 -419 0
-813 -333 466 0
-813 -333 -313 -317 0
-813 -333 -354 0
-813 -333 -355 0
-813 -333 -398 0
-813 -333 -399 0
-813 -333 -402 0
-813 -333 -403 0
-813 -333 -414 0
-813 -333 -415 0
-813 -333 -418 0
-813 -333 -419 0
-813 -334 467 0
-813 -334 -313 -318 0
-813 -334 -355 0
-813 -334 -399 0
-813 -334 -403 0
-813 -334 -415 0
-813 -334 -419 0
-814 445 0
-814 463 0
-814 -328 0
-814 -329 0
-814 -330 0
-814 -335 0
-814 -332 465 0
-814 -332 -314 -316 0
-814 -332 -357 0
-814 -332 -358 0
-814 -332 -359 0
-814 -332 -401 0
-814 -332 -402 0
-814 -332 -403 0
-814 -332 -417 0
-814 -332 -418 0
-814 -332 -419 0
-814 -333 466 0
-814 -333 -314 -317 0
-814 -333 -358 0
-814 -333 -359 0
-814 -333 -402 0
-814 -333 -403 0
-814 -333 -418 0
-814 -333 -419 0
-814 -334 467 0
-814 -334 -314 -318 0
-814 -334 -359 0
-814 -334 -403 0
-814 -334 -419 0
-815 445 0
-815 458 0
-815 464 0
-815 -309 -315 0
-815 -336 0
-815 -337 0
-815 -338 0
-815 -339 0
-815 -384 0
-815 -385 0
-815 -386 0
-815 -387 0
-815 -404 0
-815 -405 0
-815 -406 0
-815 -407 0
-816 445 0
-816 459 0
-816 464 0
-816 -310 -315 0
-816 -340 0
-816 -341 0
-816 -342 0
-816 -343 0
-816 -384 0
-816 -385 0
-816 -386 0
-816 -387 0
-816 -388 0
-816 -389 0
-816 -390 0
-816 -391 0
-816 -404 0
-816 -405 0
-816 -406 0
-816 -407 0
-816 -408 0
-816 -409 0
-816 -410 0
-816 -411 0
-817 445 0
-817 460 0
-817 464 0
-817 -311 -315 0
-817 -344 0
-817 -345 0
-817 -346 0
-817 -347 0
-817 -388 0
-817 -389 0
-817 -390 0
-817 -391 0
-817 -392 0
-817 -393 0
-817 -394 0
-817 -395 0
-817 -404 0
-817 -405 0
-817 -406 0
-817 -407 0
-817 -408 0
-817 -409 0
-817 -410 0
-817 -411 0
-817 -412 0
-817 -413 0
-817 -414 0
-817 -415 0
-818 445 0
-818 461 0
-818 464 0
-818 -312 -315 0
-818 -348 0
-818 -349 0
-818 -350 0
-818 -351 0
-818 -392 0
-818 -393 0
-818 -394 0
-818 -395 0
-818 -396 0
-818 -397 0
-818 -398 0
-818 -399 0
-818 -408 0
-818 -409 0
-818 -410 0
-818 -411 0
-818 -412 0
-818 -413 0
-818 -414 0
-818 -415 0
-818 -416 0
-818 -417 0
-818 -418 0
-818 -419 0
-819 445 0
-819 462 0
-819 464 0
-819 -313 -315 0
-819 -352 0
-819 -353 0
-819 -354 0
-819 -355 0
-819 -396 0
-819 -397 0
-819 -398 0
-819 -399 0
-819 -400 0
-819 -401 0
-819 -402 0
-819 -403 0
-819 -412 0
-819 -413 0
-819 -414 0
-819 -415 0
-819 -416 0
-819 -417 0
-819 -418 0
-819 -419 0
-820 445 0
-820 463 0
-820 464 0
-820 -314 -315 0
-820 -356 0
-820 -357 0
-820 -358 0
-820 -359 0
-820 -400 0
-820 -401 0
-820 -402 0
-820 -403 0
-820 -416 0
-820 -417 0
-820 -418 0
-820 -419 0
-821 446 0
-821 468 0
-821 -301 0
-821 -302 0
-821 -303 0
-821 -304 0
-821 -308 0
-821 -305 474 0
-821 -305 -319 -325 0
-821 -305 -337 0
-821 -305 -338 0
-821 -305 -339 0
-821 -305 -341 0
-821 -305 -342 0
-821 -305 -343 0
-821 -305 -361 0
-821 -305 -362 0
-821 -305 -363 0
-821 -305 -365 0
-821 -305 -366 0
-821 -305 -367 0
-821 -305 -405 0
-821 -305 -406 0
-821 -305 -407 0
-821 -305 -409 0
-821 -305 -410 0
-821 -305 -411 0
-821 -306 475 0
-821 -306 -319 -326 0
-821 -306 -338 0
-821 -306 -339 0
-821 -306 -342 0
-821 -306 -343 0
-821 -306 -362 0
-821 -306 -363 0
-821 -306 -366 0
-821 -306 -367 0
-821 -306 -406 0
-821 -306 -407 0
-821 -306 -410 0
-821 -306 -411 0
-821 -307 476 0
-821 -307 -319 -327 0
-821 -307 -339 0
-821 -307 -343 0
-821 -307 -363 0
-821 -307 -367 0
-821 -307 -407 0
-821 -307 -411 0
-822 446 0
-822 469 0
-822 -299 0
-822 -302 0
-822 -303 0
-822 -304 0
-822 -308 0
-822 -305 474 0
-822 -305 -320 -325 0
-822 -305 -341 0
-822 -305 -342 0
-822 -305 -343 0
-822 -305 -345 0
-822 -305 -346 0
-822 -305 -347 0
-822 -305 -365 0
-822 -305 -366 0
-822 -305 -367 0
-822 -305 -369 0
-822 -305 -370 0
-822 -305 -371 0
-822 -305 -405 0
-822 -305 -406 0
-822 -305 -407 0
-822 -305 -409 0
-822 -305 -410 0
-822 -305 -411 0
-822 -305 -413 0
-822 -305 -414 0
-822 -305 -415 0
-822 -306 475 0
-822 -306 -320 -326 0
-822 -306 -342 0
-822 -306 -343 0
-822 -306 -346 0
-822 -306 -347 0
-822 -306 -366 0
-822 -306 -367 0
-822 -306 -370 0
-822 -306 -371 0
-822 -306 -406 0
-822 -306 -407 0
-822 -306 -410 0
-822 -306 -411 0
-822 -306 -414 0
-822 -306 -415 0
-822 -307 476 0
-822 -307 -320 -327 0
-822 -307 -343 0
-822 -307 -347 0
-822 -307 -367 0
-822 -307 -371 0
-822 -307 -407 0
-822 -307 -411 0
-822 -307 -415 0
-823 446 0
-823 470 0
-823 -299 0
-823 -300 0
-823 -303 0
-823 -304 0
-823 -308 0
-823 -305 474 0
-823 -305 -321 -325 0
-823 -305 -345 0
-823 -305 -346 0
-823 -305 -347 0
-823 -305 -349 0
-823 -305 -350 0
-823 -305 -351 0
-823 -305 -369 0
-823 -305 -370 0
-823 -305 -371 0
-823 -305 -373 0
-823 -305 -374 0
-823 -305 -375 0
-823 -305 -405 0
-823 -305 -406 0
-823 -305 -407 0
-823 -305 -409 0
-823 -305 -410 0
-823 -305 -411 0
-823 -305 -413 0
-823 -305 -414 0
-823 -305 -415 0
-823 -305 -417 0
-823 -305 -418 0
-823 -305 -419 0
-823 -306 475 0
-823 -306 -321 -326 0
-823 -306 -346 0
-823 -306 -347 0
-823 -306 -350 0
-823 -306 -351 0
-823 -306 -370 0
-823 -306 -371 0
-823 -306 -374 0
-823 -306 -375 0
-823 -306 -406 0
-823 -306 -407 0
-823 -306 -410 0
-823 -306 -411 0
-823 -306 -414 0
-823 -306 -415 0
-823 -306 -418 0
-823 -306 -419 0
-823 -307 476 0
-823 -307 -321 -327 0
-823 -307 -347 0
-823 -307 -351 0
-823 -307 -371 0
-823 -307 -375 0
-823 -307 -407 0
-823 -307 -411 0
-823 -307 -415 0
-823 -307 -419 0
-824 446 0
-824 471 0
-824 -299 0
-824 -300 0
-824 -301 0
-824 -304 0
-824 -308 0
-824 -305 474 0
-824 -305 -322 -325 0
-824 -305 -349 0
-824 -305 -350 0
-824 -305 -351 0
-824 -305 -353 0
-824 -305 -354 0
-824 -305 -355 0
-824 -305 -373 0
-824 -305 -374 0
-824 -305 -375 0
-824 -305 -377 0
-824 -305 -378 0
-824 -305 -379 0
-824 -305 -409 0
-824 -305 -410 0
-824 -305 -411 0
-824 -305 -413 0
-824 -305 -414 0
-824 -305 -415 0
-824 -305 -417 0
-824 -305 -418 0
-824 -305 -419 0
-824 -306 475 0
-824 -306 -322 -326 0
-824 -306 -350 0
-824 -306 -351 0
-824 -306 -354 0
-824 -306 -355 0
-824 -306 -374 0
-824 -306 -375 0
-824 -306 -378 0
-824 -306 -379 0
-824 -306 -410 0
-824 -306 -411 0
-824 -306 -414 0
-824 -306 -415 0
-824 -306 -418 0
-824 -306 -419 0
-824 -307 476 0
-824 -307 -322 -327 0
-824 -307 -351 0
-824 -307 -355 0
-824 -307 -375 0
-824 -307 -379 0
-824 -307 -411 0
-824 -307 -415 0
-824 -307 -419 0
-825 446 0
-825 472 0
-825 -299 0
-825 -300 0
-825 -301 0
-825 -302 0
-825 -308 0
-825 -305 474 0
-825 -305 -323 -325 0
-825 -305 -353 0
-825 -305 -354 0
-825 -305 -355 0
-825 -305 -357 0
-825 -305 -358 0
-825 -305 -359 0
-825 -305 -377 0
-825 -305 -378 0
-825 -305 -379 0
-825 -305 -381 0
-825 -305 -382 0
-825 -305 -383 0
-825 -305 -413 0
-825 -305 -414 0
-825 -305 -415 0
-825 -305 -417 0
-825 -305 -418 0
-825 -305 -419 0
-825 -306 475 0
-825 -306 -323 -326 0
-825 -306 -354 0
-825 -306 -355 0
-825 -306 -358 0
-825 -306 -359 0
-825 -306 -378 0
-825 -306 -379 0
-825 -306 -382 0
-825 -306 -383 0
-825 -306 -414 0
-825 -306 -415 0
-825 -306 -418 0
-825 -306 -419 0
-825 -307 476 0
-825 -307 -323 -327 0
-825 -307 -355 0
-825 -307 -359 0
-825 -307 -379 0
-825 -307 -383 0
-825 -307 -415 0
-825 -307 -419 0
-826 446 0
-826 468 0
-826 -311 0
-826 -312 0
-826 -313 0
-826 -314 0
-826 -318 0
-826 -315 474 0
-826 -315 -319 -325 0
-826 -315 -337 0
-826 -315 -338 0
-826 -315 -339 0
-826 -315 -341 0
-826 -315 -342 0
-826 -315 -343 0
-826 -315 -361 0
-826 -315 -362 0
-826 -315 -363 0
-826 -315 -365 0
-826 -315 -366 0
-826 -315 -367 0
-826 -315 -405 0
-826 -315 -406 0
-826 -315 -407 0
-826 -315 -409 0
-826 -315 -410 0
-826 -315 -411 0
-826 -316 475 0
-826 -316 -319 -326 0
-826 -316 -338 0
-826 -316 -339 0
-826 -316 -342 0
-826 -316 -343 0
-826 -316 -362 0
-826 -316 -363 0
-826 -316 -366 0
-826 -316 -367 0
-826 -316 -406 0
-826 -316 -407 0
-826 -316 -410 0
-826 -316 -411 0
-826 -317 476 0
-826 -317 -319 -327 0
-826 -317 -339 0
-826 -317 -343 0
-826 -317 -363 0
-826 -317 -367 0
-826 -317 -407 0
-826 -317 -411 0
-827 446 0
-827 469 0
-827 -309 0
-827 -312 0
-827 -313 0
-827 -314 0
-827 -318 0
-827 -315 474 0
-827 -315 -320 -325 0
-827 -315 -341 0
-827 -315 -342 0
-827 -315 -343 0
-827 -315 -345 0
-827 -315 -346 0
-827 -315 -347 0
-827 -315 -365 0
-827 -315 -366 0
-827 -315 -367 0
-827 -315 -369 0
-827 -315 -370 0
-827 -315 -371 0
-827 -315 -405 0
-827 -315 -406 0
-827 -315 -407 0
-827 -315 -409 0
-827 -315 -410 0
-827 -315 -411 0
-827 -315 -413 0
-827 -315 -414 0
-827 -315 -415 0
-827 -316 475 0
-827 -316 -320 -326 0
-827 -316 -342 0
-827 -316 -343 0
-827 -316 -346 0
-827 -316 -347 0
-827 -316 -366 0
-827 -316 -367 0
-827 -316 -370 0
-827 -316 -371 0
-827 -316 -406 0
-827 -316 -407 0
-827 -316 -410 0
-827 -316 -411 0
-827 -316 -414 0
-827 -316 -415 0
-827 -317 476 0
-827 -317 -320 -327 0
-827 -317 -343 0
-827 -317 -347 0
-827 -317 -367 0
-827 -317 -371 0
-827 -317 -407 0
-827 -317 -411 0
-827 -317 -415 0
-828 446 0
-828 470 0
-828 -309 0
-828 -310 0
-828 -313 0
-828 -314 0
-828 -318 0
-828 -315 474 0
-828 -315 -321 -325 0
-828 -315 -345 0
-828 -315 -346 0
-828 -315 -347 0
-828 -315 -349 0
-828 -315 -350 0
-828 -315 -351 0
-828 -315 -369 0
-828 -315 -370 0
-828 -315 -371 0
-828 -315 -373 0
-828 -315 -374 0
-828 -315 -375 0
-828 -315 -405 0
-828 -315 -406 0
-828 -315 -407 0
-828 -315 -409 0
-828 -315 -410 0
-828 -315 -411 0
-828 -315 -413 0
-828 -315 -414 0
-828 -315 -415 0
-828 -315 -417 0
-828 -315 -418 0
-828 -315 -419 0
-828 -316 475 0
-828 -316 -321 -326 0
-828 -316 -346 0
-828 -316 -347 0
-828 -316 -350 0
-828 -316 -351 0
-828 -316 -370 0
-828 -316 -371 0
-828 -316 -374 0
-828 -316 -375 0
-828 -316 -406 0
-828 -316 -407 0
-828 -316 -410 0
-828 -316 -411 0
-828 -316 -414 0
-828 -316 -415 0
-828 -316 -418 0
-828 -316 -419 0
-828 -317 476 0
-828 -317 -321 -327 0
-828 -317 -347 0
-828 -317 -351 0
-828 -317 -371 0
-828 -317 -375 0
-828 -317 -407 0
-828 -317 -411 0
-828 -317 -415 0
-828 -317 -419 0
-829 446 0
-829 471 0
-829 -309 0
-829 -310 0
-829 -311 0
-829 -314 0
-829 -318 0
-829 -315 474 0
-829 -315 -322 -325 0
-829 -315 -349 0
-829 -315 -350 0
-829 -315 -351 0
-829 -315 -353 0
-829 -315 -354 0
-829 -315 -355 0
-829 -315 -373 0
-829 -315 -374 0
-829 -315 -375 0
-829 -315 -377 0
-829 -315 -378 0
-829 -315 -379 0
-829 -315 -409 0
-829 -315 -410 0
-829 -315 -411 0
-829 -315 -413 0
-829 -315 -414 0
-829 -315 -415 0
-829 -315 -417 0
-829 -315 -418 0
-829 -315 -419 0
-829 -316 475 0
-829 -316 -322 -326 0
-829 -316 -350 0
-829 -316 -351 0
-829 -316 -354 0
-829 -316 -355 0
-829 -316 -374 0
-829 -316 -375 0
-829 -316 -378 0
-829 -316 -379 0
-829 -316 -410 0
-829 -316 -411 0
-829 -316 -414 0
-829 -316 -415 0
-829 -316 -418 0
-829 -316 -419 0
-829 -317 476 0
-829 -317 -322 -327 0
-829 -317 -351 0
-829 -317 -355 0
-829 -317 -375 0
-829 -317 -379 0
-829 -317 -411 0
-829 -317 -415 0
-829 -317 -419 0
-830 446 0
-830 472 0
-830 -309 0
-830 -310 0
-830 -311 0
-830 -312 0
-830 -318 0
-830 -315 474 0
-830 -315 -323 -325 0
-830 -315 -353 0
-830 -315 -354 0
-830 -315 -355 0
-830 -315 -357 0
-830 -315 -358 0
-830 -315 -359 0
-830 -315 -377 0
-830 -315 -378 0
-830 -315 -379 0
-830 -315 -381 0
-830 -315 -382 0
-830 -315 -383 0
-830 -315 -413 0
-830 -315 -414 0
-830 -315 -415 0
-830 -315 -417 0
-830 -315 -418 0
-830 -315 -419 0
-830 -316 475 0
-830 -316 -323 -326 0
-830 -316 -354 0
-830 -316 -355 0
-830 -316 -358 0
-830 -316 -359 0
-830 -316 -378 0
-830 -316 -379 0
-830 -316 -382 0
-830 -316 -383 0
-830 -316 -414 0
-830 -316 -415 0
-830 -316 -418 0
-830 -316 -419 0
-830 -317 476 0
-830 -317 -323 -327 0
-830 -317 -355 0
-830 -317 -359 0
-830 -317 -379 0
-830 -317 -383 0
-830 -317 -415 0
-830 -317 -419 0
-831 446 0
-831 468 0
-831 -330 0
-831 -331 0
-831 -335 0
-831 -332 474 0
-831 -332 -319 -325 0
-831 -332 -337 0
-831 -332 -338 0
-831 -332 -339 0
-831 -332 -341 0
-831 -332 -342 0
-831 -332 -343 0
-831 -332 -361 0
-831 -332 -362 0
-831 -332 -363 0
-831 -332 -365 0
-831 -332 -366 0
-831 -332 -367 0
-831 -332 -405 0
-831 -332 -406 0
-831 -332 -407 0
-831 -332 -409 0
-831 -332 -410 0
-831 -332 -411 0
-831 -333 475 0
-831 -333 -319 -326 0
-831 -333 -338 0
-831 -333 -339 0
-831 -333 -342 0
-831 -333 -343 0
-831 -333 -362 0
-831 -333 -363 0
-831 -333 -366 0
-831 -333 -367 0
-831 -333 -406 0
-831 -333 -407 0
-831 -333 -410 0
-831 -333 -411 0
-831 -334 476 0
-831 -334 -319 -327 0
-831 -334 -339 0
-831 -334 -343 0
-831 -334 -363 0
-831 -334 -367 0
-831 -334 -407 0
-831 -334 -411 0
-832 446 0
-832 469 0
-832 -331 0
-832 -335 0
-832 -332 474 0
-832 -332 -320 -325 0
-832 -332 -341 0
-832 -332 -342 0
-832 -332 -343 0
-832 -332 -345 0
-832 -332 -346 0
-832 -332 -347 0
-832 -332 -365 0
-832 -332 -366 0
-832 -332 -367 0
-832 -332 -369 0
-832 -332 -370 0
-832 -332 -371 0
-832 -332 -405 0
-832 -332 -406 0
-832 -332 -407 0
-832 -332 -409 0
-832 -332 -410 0
-832 -332 -411 0
-832 -332 -413 0
-832 -332 -414 0
-832 -332 -415 0
-832 -333 475 0
-832 -333 -320 -326 0
-832 -333 -342 0
-832 -333 -343 0
-832 -333 -346 0
-832 -333 -347 0
-832 -333 -366 0
-832 -333 -367 0
-832 -333 -370 0
-832 -333 -371 0
-832 -333 -406 0
-832 -333 -407 0
-832 -333 -410 0
-832 -333 -411 0
-832 -333 -414 0
-832 -333 -415 0
-832 -334 476 0
-832 -334 -320 -327 0
-832 -334 -343 0
-832 -334 -347 0
-832 -334 -367 0
-832 -334 -371 0
-832 -334 -407 0
-832 -334 -411 0
-832 -334 -415 0
-833 446 0
-833 470 0
-833 -335 0
-833 -332 474 0
-833 -332 -321 -325 0
-833 -332 -345 0
-833 -332 -346 0
-833 -332 -347 0
-833 -332 -349 0
-833 -332 -350 0
-833 -332 -351 0
-833 -332 -369 0
-833 -332 -370 0
-833 -332 -371 0
-833 -332 -373 0
-833 -332 -374 0
-833 -332 -375 0
-833 -332 -405 0
-833 -332 -406 0
-833 -332 -407 0
-833 -332 -409 0
-833 -332 -410 0
-833 -332 -411 0
-833 -332 -413 0
-833 -332 -414 0
-833 -332 -415 0
-833 -332 -417 0
-833 -332 -418 0
-833 -332 -419 0
-833 -333 475 0
-833 -333 -321 -326 0
-833 -333 -346 0
-833 -333 -347 0
-833 -333 -350 0
-833 -333 -351 0
-833 -333 -370 0
-833 -333 -371 0
-833 -333 -374 0
-833 -333 -375 0
-833 -333 -406 0
-833 -333 -407 0
-833 -333 -410 0
-833 -333 -411 0
-833 -333 -414 0
-833 -333 -415 0
-833 -333 -418 0
-833 -333 -419 0
-833 -334 476 0
-833 -334 -321 -327 0
-833 -334 -347 0
-833 -334 -351 0
-833 -334 -371 0
-833 -334 -375 0
-833 -334 -407 0
-833 -334 -411 0
-833 -334 -415 0
-833 -334 -419 0
-834 446 0
-834 471 0
-834 -328 0
-834 -335 0
-834 -332 474 0
-834 -332 -322 -325 0
-834 -332 -349 0
-834 -332 -350 0
-834 -332 -351 0
-834 -332 -353 0
-834 -332 -354 0
-834 -332 -355 0
-834 -332 -373 0
-834 -332 -374 0
-834 -332 -375 0
-834 -332 -377 0
-834 -332 -378 0
-834 -332 -379 0
-834 -332 -409 0
-834 -332 -410 0
-834 -332 -411 0
-834 -332 -413 0
-834 -332 -414 0
-834 -332 -415 0
-834 -332 -417 0
-834 -332 -418 0
-834 -332 -419 0
-834 -333 475 0
-834 -333 -322 -326 0
-834 -333 -350 0
-834 -333 -351 0
-834 -333 -354 0
-834 -333 -355 0
-834 -333 -374 0
-834 -333 -375 0
-834 -333 -378 0
-834 -333 -379 0
-834 -333 -410 0
-834 -333 -411 0
-834 -333 -414 0
-834 -333 -415 0
-834 -333 -418 0
-834 -333 -419 0
-834 -334 476 0
-834 -334 -322 -327 0
-834 -334 -351 0
-834 -334 -355 0
-834 -334 -375 0
-834 -334 -379 0
-834 -334 -411 0
-834 -334 -415 0
-834 -334 -419 0
-835 446 0
-835 472 0
-835 -328 0
-835 -329 0
-835 -335 0
-835 -332 474 0
-835 -332 -323 -325 0
-835 -332 -353 0
-835 -332 -354 0
-835 -332 -355 0
-835 -332 -357 0
-835 -332 -358 0
-835 -332 -359 0
-835 -332 -377 0
-835 -332 -378 0
-835 -332 -379 0
-835 -332 -381 0
-835 -332 -382 0
-835 -332 -383 0
-835 -332 -413 0
-835 -332 -414 0
-835 -332 -415 0
-835 -332 -417 0
-835 -332 -418 0
-835 -332 -419 0
-835 -333 475 0
-835 -333 -323 -326 0
-835 -333 -354 0
-835 -333 -355 0
-835 -333 -358 0
-835 -333 -359 0
-835 -333 -378 0
-835 -333 -379 0
-835 -333 -382 0
-835 -333 -383 0
-835 -333 -414 0
-835 -333 -415 0
-835 -333 -418 0
-835 -333 -419 0
-835 -334 476 0
-835 -334 -323 -327 0
-835 -334 -355 0
-835 -334 -359 0
-835 -334 -379 0
-835 -334 -383 0
-835 -334 -415 0
-835 -334 -419 0
-836 446 0
-836 468 0
-836 473 0
-836 -319 -324 0
-836 -336 0
-836 -337 0
-836 -338 0
-836 -339 0
-836 -340 0
-836 -341 0
-836 -342 0
-836 -343 0
-836 -360 0
-836 -361 0
-836 -362 0
-836 -363 0
-836 -364 0
-836 -365 0
-836 -366 0
-836 -367 0
-836 -404 0
-836 -405 0
-836 -406 0
-836 -407 0
-836 -408 0
-836 -409 0
-836 -410 0
-836 -411 0
-837 446 0
-837 469 0
-837 473 0
-837 -320 -324 0
-837 -340 0
-837 -341 0
-837 -342 0
-837 -343 0
-837 -344 0
-837 -345 0
-837 -346 0
-837 -347 0
-837 -364 0
-837 -365 0
-837 -366 0
-837 -367 0
-837 -368 0
-837 -369 0
-837 -370 0
-837 -371 0
-837 -404 0
-837 -405 0
-837 -406 0
-837 -407 0
-837 -408 0
-837 -409 0
-837 -410 0
-837 -411 0
-837 -412 0
-837 -413 0
-837 -414 0
-837 -415 0
-838 446 0
-838 470 0
-838 473 0
-838 -321 -324 0
-838 -344 0
-838 -345 0
-838 -346 0
-838 -347 0
-838 -348 0
-838 -349 0
-838 -350 0
-838 -351 0
-838 -368 0
-838 -369 0
-838 -370 0
-838 -371 0
-838 -372 0
-838 -373 0
-838 -374 0
-838 -375 0
-838 -404 0
-838 -405 0
-838 -406 0
-838 -407 0
-838 -408 0
-838 -409 0
-838 -410 0
-838 -411 0
-838 -412 0
-838 -413 0
-838 -414 0
-838 -415 0
-838 -416 0
-838 -417 0
-838 -418 0
-838 -419 0
-839 446 0
-839 471 0
-839 473 0
-839 -322 -324 0
-839 -348 0
-839 -349 0
-839 -350 0
-839 -351 0
-839 -352 0
-839 -353 0
-839 -354 0
-839 -355 0
-839 -372 0
-839 -373 0
-839 -374 0
-839 -375 0
-839 -376 0
-839 -377 0
-839 -378 0
-839 -379 0
-839 -408 0
-839 -409 0
-839 -410 0
-839 -411 0
-839 -412 0
-839 -413 0
-839 -414 0
-839 -415 0
-839 -416 0
-839 -417 0
-839 -418 0
-839 -419 0
-840 446 0
-840 472 0
-840 473 0
-840 -323 -324 0
-840 -352 0
-840 -353 0
-840 -354 0
-840 -355 0
-840 -356 0
-840 -357 0
-840 -358 0
-840 -359 0
-840 -376 0
-840 -377 0
-840 -378 0
-840 -379 0
-840 -380 0
-840 -381 0
-840 -382 0
-840 -383 0
-840 -412 0
-840 -413 0
-840 -414 0
-840 -415 0
-840 -416 0
-840 -417 0
-840 -418 0
-840 -419 0
-841 447 0
-841 477 0
-841 -302 0
-841 -303 0
-841 -304 0
-841 -308 0
-841 -305 482 0
-841 -305 -328 -333 0
-841 -305 -337 0
-841 -305 -338 0
-841 -305 -339 0
-841 -305 -341 0
-841 -305 -342 0
-841 -305 -343 0
-841 -305 -345 0
-841 -305 -346 0
-841 -305 -347 0
-841 -305 -361 0
-841 -305 -362 0
-841 -305 -363 0
-841 -305 -365 0
-841 -305 -366 0
-841 -305 -367 0
-841 -305 -369 0
-841 -305 -370 0
-841 -305 -371 0
-841 -305 -385 0
-841 -305 -386 0
-841 -305 -387 0
-841 -305 -389 0
-841 -305 -390 0
-841 -305 -391 0
-841 -305 -393 0
-841 -305 -394 0
-841 -305 -395 0
-841 -306 483 0
-841 -306 -328 -334 0
-841 -306 -338 0
-841 -306 -339 0
-841 -306 -342 0
-841 -306 -343 0
-841 -306 -346 0
-841 -306 -347 0
-841 -306 -362 0
-841 -306 -363 0
-841 -306 -366 0
-841 -306 -367 0
-841 -306 -370 0
-841 -306 -371 0
-841 -306 -386 0
-841 -306 -387 0
-841 -306 -390 0
-841 -306 -391 0
-841 -306 -394 0
-841 -306 -395 0
-841 -307 484 0
-841 -307 -328 -335 0
-841 -307 -339 0
-841 -307 -343 0
-841 -307 -347 0
-841 -307 -363 0
-841 -307 -367 0
-841 -307 -371 0
-841 -307 -387 0
-841 -307 -391 0
-841 -307 -395 0
-842 447 0
-842 478 0
-842 -299 0
-842 -303 0
-842 -304 0
-842 -308 0
-842 -305 482 0
-842 -305 -329 -333 0
-842 -305 -341 0
-842 -305 -342 0
-842 -305 -343 0
-842 -305 -345 0
-842 -305 -346 0
-842 -305 -347 0
-842 -305 -349 0
-842 -305 -350 0
-842 -305 -351 0
-842 -305 -365 0
-842 -305 -366 0
-842 -305 -367 0
-842 -305 -369 0
-842 -305 -370 0
-842 -305 -371 0
-842 -305 -373 0
-842 -305 -374 0
-842 -305 -375 0
-842 -305 -385 0
-842 -305 -386 0
-842 -305 -387 0
-842 -305 -389 0
-842 -305 -390 0
-842 -305 -391 0
-842 -305 -393 0
-842 -305 -394 0
-842 -305 -395 0
-842 -305 -397 0
-842 -305 -398 0
-842 -305 -399 0
-842 -306 483 0
-842 -306 -329 -334 0
-842 -306 -342 0
-842 -306 -343 0
-842 -306 -346 0
-842 -306 -347 0
-842 -306 -350 0
-842 -306 -351 0
-842 -306 -366 0
-842 -306 -367 0
-842 -306 -370 0
-842 -306 -371 0
-842 -306 -374 0
-842 -306 -375 0
-842 -306 -386 0
-842 -306 -387 0
-842 -306 -390 0
-842 -306 -391 0
-842 -306 -394 0
-842 -306 -395 0
-842 -306 -398 0
-842 -306 -399 0
-842 -307 484 0
-842 -307 -329 -335 0
-842 -307 -343 0
-842 -307 -347 0
-842 -307 -351 0
-842 -307 -367 0
-842 -307 -371 0
-842 -307 -375 0
-842 -307 -387 0
-842 -307 -391 0
-842 -307 -395 0
-842 -307 -399 0
-843 447 0
-843 479 0
-843 -299 0
-843 -300 0
-843 -304 0
-843 -308 0
-843 -305 482 0
-843 -305 -330 -333 0
-843 -305 -345 0
-843 -305 -346 0
-843 -305 -347 0
-843 -305 -349 0
-843 -305 -350 0
-843 -305 -351 0
-843 -305 -353 0
-843 -305 -354 0
-843 -305 -355 0
-843 -305 -369 0
-843 -305 -370 0
-843 -305 -371 0
-843 -305 -373 0
-843 -305 -374 0
-843 -305 -375 0
-843 -305 -377 0
-843 -305 -378 0
-843 -305 -379 0
-843 -305 -389 0
-843 -305 -390 0
-843 -305 -391 0
-843 -305 -393 0
-843 -305 -394 0
-843 -305 -395 0
-843 -305 -397 0
-843 -305 -398 0
-843 -305 -399 0
-843 -305 -401 0
-843 -305 -402 0
-843 -305 -403 0
-843 -306 483 0
-843 -306 -330 -334 0
-843 -306 -346 0
-843 -306 -347 0
-843 -306 -350 0
-843 -306 -351 0
-843 -306 -354 0
-843 -306 -355 0
-843 -306 -370 0
-843 -306 -371 0
-843 -306 -374 0
-843 -306 -375 0
-843 -306 -378 0
-843 -306 -379 0
-843 -306 -390 0
-843 -306 -391 0
-843 -306 -394 0
-843 -306 -395 0
-843 -306 -398 0
-843 -306 -399 0
-843 -306 -402 0
-843 -306 -403 0
-843 -307 484 0
-843 -307 -330 -335 0
-843 -307 -347 0
-843 -307 -351 0
-843 -307 -355 0
-843 -307 -371 0
-843 -307 -375 0
-843 -307 -379 0
-843 -307 -391 0
-843 -307 -395 0
-843 -307 -399 0
-843 -307 -403 0
-844 447 0
-844 480 0
-844 -299 0
-844 -300 0
-844 -301 0
-844 -308 0
-844 -305 482 0
-844 -305 -331 -333 0
-844 -305 -349 0
-844 -305 -350 0
-844 -305 -351 0
-844 -305 -353 0
-844 -305 -354 0
-844 -305 -355 0
-844 -305 -357 0
-844 -305 -358 0
-844 -305 -359 0
-844 -305 -373 0
-844 -305 -374 0
-844 -305 -375 0
-844 -305 -377 0
-844 -305 -378 0
-844 -305 -379 0
-844 -305 -381 0
-844 -305 -382 0
-844 -305 -383 0
-844 -305 -393 0
-844 -305 -394 0
-844 -305 -395 0
-844 -305 -397 0
-844 -305 -398 0
-844 -305 -399 0
-844 -305 -401 0
-844 -305 -402 0
-844 -305 -403 0
-844 -306 483 0
-844 -306 -331 -334 0
-844 -306 -350 0
-844 -306 -351 0
-844 -306 -354 0
-844 -306 -355 0
-844 -306 -358 0
-844 -306 -359 0
-844 -306 -374 0
-844 -306 -375 0
-844 -306 -378 0
-844 -306 -379 0
-844 -306 -382 0
-844 -306 -383 0
-844 -306 -394 0
-844 -306 -395 0
-844 -306 -398 0
-844 -306 -399 0
-844 -306 -402 0
-844 -306 -403 0
-844 -307 484 0
-844 -307 -331 -335 0
-844 -307 -351 0
-844 -307 -355 0
-844 -307 -359 0
-844 -307 -375 0
-844 -307 -379 0
-844 -307 -383 0
-844 -307 -395 0
-844 -307 -399 0
-844 -307 -403 0
-845 447 0
-845 477 0
-845 -312 0
-845 -313 0
-845 -314 0
-845 -318 0
-845 -315 482 0
-845 -315 -328 -333 0
-845 -315 -337 0
-845 -315 -338 0
-845 -315 -339 0
-845 -315 -341 0
-845 -315 -342 0
-845 -315 -343 0
-845 -315 -345 0
-845 -315 -346 0
-845 -315 -347 0
-845 -315 -361 0
-845 -315 -362 0
-845 -315 -363 0
-845 -315 -365 0
-845 -315 -366 0
-845 -315 -367 0
-845 -315 -369 0
-845 -315 -370 0
-845 -315 -371 0
-845 -315 -385 0
-845 -315 -386 0
-845 -315 -387 0
-845 -315 -389 0
-845 -315 -390 0
-845 -315 -391 0
-845 -315 -393 0
-845 -315 -394 0
-845 -315 -395 0
-845 -316 483 0
-845 -316 -328 -334 0
-845 -316 -338 0
-845 -316 -339 0
-845 -316 -342 0
-845 -316 -343 0
-845 -316 -346 0
-845 -316 -347 0
-845 -316 -362 0
-845 -316 -363 0
-845 -316 -366 0
-845 -316 -367 0
-845 -316 -370 0
-845 -316 -371 0
-845 -316 -386 0
-845 -316 -387 0
-845 -316 -390 0
-845 -316 -391 0
-845 -316 -394 0
-845 -316 -395 0
-845 -317 484 0
-845 -317 -328 -335 0
-845 -317 -339 0
-845 -317 -343 0
-845 -317 -347 0
-845 -317 -363 0
-845 -317 -367 0
-845 -317 -371 0
-845 -317 -387 0
-845 -317 -391 0
-845 -317 -395 0
-846 447 0
-846 478 0
-846 -309 0
-846 -313 0
-846 -314 0
-846 -318 0
-846 -315 482 0
-846 -315 -329 -333 0
-846 -315 -341 0
-846 -315 -342 0
-846 -315 -343 0
-846 -315 -345 0
-846 -315 -346 0
-846 -315 -347 0
-846 -315 -349 0
-846 -315 -350 0
-846 -315 -351 0
-846 -315 -365 0
-846 -315 -366 0
-846 -315 -367 0
-846 -315 -369 0
-846 -315 -370 0
-846 -315 -371 0
-846 -315 -373 0
-846 -315 -374 0
-846 -315 -375 0
-846 -315 -385 0
-846 -315 -386 0
-846 -315 -387 0
-846 -315 -389 0
-846 -315 -390 0
-846 -315 -391 0
-846 -315 -393 0
-846 -315 -394 0
-846 -315 -395 0
-846 -315 -397 0
-846 -315 -398 0
-846 -315 -399 0
-846 -316 483 0
-846 -316 -329 -334 0
-846 -316 -342 0
-846 -316 -343 0
-846 -316 -346 0
-846 -316 -347 0
-846 -316 -350 0
-846 -316 -351 0
-846 -316 -366 0
-846 -316 -367 0
-846 -316 -370 0
-846 -316 -371 0
-846 -316 -374 0
-846 -316 -375 0
-846 -316 -386 0
-846 -316 -387 0
-846 -316 -390 0
-846 -316 -391 0
-846 -316 -394 0
-846 -316 -395 0
-846 -316 -398 0
-846 -316 -399 0
-846 -317 484 0
-846 -317 -329 -335 0
-846 -317 -343 0
-846 -317 -347 0
-846 -317 -351 0
-846 -317 -367 0
-846 -317 -371 0
-846 -317 -375 0
-846 -317 -387 0
-846 -317 -391 0
-846 -317 -395 0
-846 -317 -399 0
-847 447 0
-847 479 0
-847 -309 0
-847 -310 0
-847 -314 0
-847 -318 0
-847 -315 482 0
-847 -315 -330 -333 0
-847 -315 -345 0
-847 -315 -346 0
-847 -315 -347 0
-847 -315 -349 0
-847 -315 -350 0
-847 -315 -351 0
-847 -315 -353 0
-847 -315 -354 0
-847 -315 -355 0
-847 -315 -369 0
-847 -315 -370 0
-847 -315 -371 0
-847 -315 -373 0
-847 -315 -374 0
-847 -315 -375 0
-847 -315 -377 0
-847 -315 -378 0
-847 -315 -379 0
-847 -315 -389 0
-847 -315 -390 0
-847 -315 -391 0
-847 -315 -393 0
-847 -315 -394 0
-847 -315 -395 0
-847 -315 -397 0
-847 -315 -398 0
-847 -315 -399 0
-847 -315 -401 0
-847 -315 -402 0
-847 -315 -403 0
-847 -316 483 0
-847 -316 -330 -334 0
-847 -316 -346 0
-847 -316 -347 0
-847 -316 -350 0
-847 -316 -351 0
-847 -316 -354 0
-847 -316 -355 0
-847 -316 -370 0
-847 -316 -371 0
-847 -316 -374 0
-847 -316 -375 0
-847 -316 -378 0
-847 -316 -379 0
-847 -316 -390 0
-847 -316 -391 0
-847 -316 -394 0
-847 -316 -395 0
-847 -316 -398 0
-847 -316 -399 0
-847 -316 -402 0
-847 -316 -403 0
-847 -317 484 0
-847 -317 -330 -335 0
-847 -317 -347 0
-847 -317 -351 0
-847 -317 -355 0
-847 -317 -371 0
-847 -317 -375 0
-847 -317 -379 0
-847 -317 -391 0
-847 -317 -395 0
-847 -317 -399 0
-847 -317 -403 0
-848 447 0
-848 480 0
-848 -309 0
-848 -310 0
-848 -311 0
-848 -318 0
-848 -315 482 0
-848 -315 -331 -333 0
-848 -315 -349 0
-848 -315 -350 0
-848 -315 -351 0
-848 -315 -353 0
-848 -315 -354 0
-848 -315 -355 0
-848 -315 -357 0
-848 -315 -358 0
-848 -315 -359 0
-848 -315 -373 0
-848 -315 -374 0
-848 -315 -375 0
-848 -315 -377 0
-848 -315 -378 0
-848 -315 -379 0
-848 -315 -381 0
-848 -315 -382 0
-848 -315 -383 0
-848 -315 -393 0
-848 -315 -394 0
-848 -315 -395 0
-848 -315 -397 0
-848 -315 -398 0
-848 -315 -399 0
-848 -315 -401 0
-848 -315 -402 0
-848 -315 -403 0
-848 -316 483 0
-848 -316 -331 -334 0
-848 -316 -350 0
-848 -316 -351 0
-848 -316 -354 0
-848 -316 -355 0
-848 -316 -358 0
-848 -316 -359 0
-848 -316 -374 0
-848 -316 -375 0
-848 -316 -378 0
-848 -316 -379 0
-848 -316 -382 0
-848 -316 -383 0
-848 -316 -394 0
-848 -316 -395 0
-848 -316 -398 0
-848 -316 -399 0
-848 -316 -402 0
-848 -316 -403 0
-848 -317 484 0
-848 -317 -331 -335 0
-848 -317 -351 0
-848 -317 -355 0
-848 -317 -359 0
-848 -317 -375 0
-848 -317 -379 0
-848 -317 -383 0
-848 -317 -395 0
-848 -317 -399 0
-848 -317 -403 0
-849 447 0
-849 477 0
-849 -322 0
-849 -323 0
-849 -327 0
-849 -324 482 0
-849 -324 -328 -333 0
-849 -324 -337 0
-849 -324 -338 0
-849 -324 -339 0
-849 -324 -341 0
-849 -324 -342 0
-849 -324 -343 0
-849 -324 -345 0
-849 -324 -346 0
-849 -324 -347 0
-849 -324 -361 0
-849 -324 -362 0
-849 -324 -363 0
-849 -324 -365 0
-849 -324 -366 0
-849 -324 -367 0
-849 -324 -369 0
-849 -324 -370 0
-849 -324 -371 0
-849 -324 -385 0
-849 -324 -386 0
-849 -324 -387 0
-849 -324 -389 0
-849 -324 -390 0
-849 -324 -391 0
-849 -324 -393 0
-849 -324 -394 0
-849 -324 -395 0
-849 -325 483 0
-849 -325 -328 -334 0
-849 -325 -338 0
-849 -325 -339 0
-849 -325 -342 0
-849 -325 -343 0
-849 -325 -346 0
-849 -325 -347 0
-849 -325 -362 0
-849 -325 -363 0
-849 -325 -366 0
-849 -325 -367 0
-849 -325 -370 0
-849 -325 -371 0
-849 -325 -386 0
-849 -325 -387 0
-849 -325 -390 0
-849 -325 -391 0
-849 -325 -394 0
-849 -325 -395 0
-849 -326 484 0
-849 -326 -328 -335 0
-849 -326 -339 0
-849 -326 -343 0
-849 -326 -347 0
-849 -326 -363 0
-849 -326 -367 0
-849 -326 -371 0
-849 -326 -387 0
-849 -326 -391 0
-849 -326 -395 0
-850 447 0
-850 478 0
-850 -323 0
-850 -327 0
-850 -324 482 0
-850 -324 -329 -333 0
-850 -324 -341 0
-850 -324 -342 0
-850 -324 -343 0
-850 -324 -345 0
-850 -324 -346 0
-850 -324 -347 0
-850 -324 -349 0
-850 -324 -350 0
-850 -324 -351 0
-850 -324 -365 0
-850 -324 -366 0
-850 -324 -367 0
-850 -324 -369 0
-850 -324 -370 0
-850 -324 -371 0
-850 -324 -373 0
-850 -324 -374 0
-850 -324 -375 0
-850 -324 -385 0
-850 -324 -386 0
-850 -324 -387 0
-850 -324 -389 0
-850 -324 -390 0
-850 -324 -391 0
-850 -324 -393 0
-850 -324 -394 0
-850 -324 -395 0
-850 -324 -397 0
-850 -324 -398 0
-850 -324 -399 0
-850 -325 483 0
-850 -325 -329 -334 0
-850 -325 -342 0
-850 -325 -343 0
-850 -325 -346 0
-850 -325 -347 0
-850 -325 -350 0
-850 -325 -351 0
-850 -325 -366 0
-850 -325 -367 0
-850 -325 -370 0
-850 -325 -371 0
-850 -325 -374 0
-850 -325 -375 0
-850 -325 -386 0
-850 -325 -387 0
-850 -325 -390 0
-850 -325 -391 0
-850 -325 -394 0
-850 -325 -395 0
-850 -325 -398 0
-850 -325 -399 0
-850 -326 484 0
-850 -326 -329 -335 0
-850 -326 -343 0
-850 -326 -347 0
-850 -326 -351 0
-850 -326 -367 0
-850 -326 -371 0
-850 -326 -375 0
-850 -326 -387 0
-850 -326 -391 0
-850 -326 -395 0
-850 -326 -399 0
-851 447 0
-851 479 0
-851 -319 0
-851 -327 0
-851 -324 482 0
-851 -324 -330 -333 0
-851 -324 -345 0
-851 -324 -346 0
-851 -324 -347 0
-851 -324 -349 0
-851 -324 -350 0
-851 -324 -351 0
-851 -324 -353 0
-851 -324 -354 0
-851 -324 -355 0
-851 -324 -369 0
-851 -324 -370 0
-851 -324 -371 0
-851 -324 -373 0
-851 -324 -374 0
-851 -324 -375 0
-851 -324 -377 0
-851 -324 -378 0
-851 -324 -379 0
-851 -324 -389 0
-851 -324 -390 0
-851 -324 -391 0
-851 -324 -393 0
-851 -324 -394 0
-851 -324 -395 0
-851 -324 -397 0
-851 -324 -398 0
-851 -324 -399 0
-851 -324 -401 0
-851 -324 -402 0
-851 -324 -403 0
-851 -325 483 0
-851 -325 -330 -334 0
-851 -325 -346 0
-851 -325 -347 0
-851 -325 -350 0
-851 -325 -351 0
-851 -325 -354 0
-851 -325 -355 0
-851 -325 -370 0
-851 -325 -371 0
-851 -325 -374 0
-851 -325 -375 0
-851 -325 -378 0
-851 -325 -379 0
-851 -325 -390 0
-851 -325 -391 0
-851 -325 -394 0
-851 -325 -395 0
-851 -325 -398 0
-851 -325 -399 0
-851 -325 -402 0
-851 -325 -403 0
-851 -326 484 0
-851 -326 -330 -335 0
-851 -326 -347 0
-851 -326 -351 0
-851 -326 -355 0
-851 -326 -371 0
-851 -326 -375 0
-851 -326 -379 0
-851 -326 -391 0
-851 -326 -395 0
-851 -326 -399 0
-851 -326 -403 0
-852 447 0
-852 480 0
-852 -319 0
-852 -320 0
-852 -327 0
-852 -324 482 0
-852 -324 -331 -333 0
-852 -324 -349 0
-852 -324 -350 0
-852 -324 -351 0
-852 -324 -353 0
-852 -324 -354 0
-852 -324 -355 0
-852 -324 -357 0
-852 -324 -358 0
-852 -324 -359 0
-852 -324 -373 0
-852 -324 -374 0
-852 -324 -375 0
-852 -324 -377 0
-852 -324 -378 0
-852 -324 -379 0
-852 -324 -381 0
-852 -324 -382 0
-852 -324 -383 0
-852 -324 -393 0
-852 -324 -394 0
-852 -324 -395 0
-852 -324 -397 0
-852 -324 -398 0
-852 -324 -399 0
-852 -324 -401 0
-852 -324 -402 0
-852 -324 -403 0
-852 -325 483 0
-852 -325 -331 -334 0
-852 -325 -350 0
-852 -325 -351 0
-852 -325 -354 0
-852 -325 -355 0
-852 -325 -358 0
-852 -325 -359 0
-852 -325 -374 0
-852 -325 -375 0
-852 -325 -378 0
-852 -325 -379 0
-852 -325 -382 0
-852 -325 -383 0
-852 -325 -394 0
-852 -325 -395 0
-852 -325 -398 0
-852 -325 -399 0
-852 -325 -402 0
-852 -325 -403 0
-852 -326 484 0
-852 -326 -331 -335 0
-852 -326 -351 0
-852 -326 -355 0
-852 -326 -359 0
-852 -326 -375 0
-852 -326 -379 0
-852 -326 -383 0
-852 -326 -395 0
-852 -326 -399 0
-852 -326 -403 0
-853 447 0
-853 477 0
-853 481 0
-853 -328 -332 0
-853 -336 0
-853 -337 0
-853 -338 0
-853 -339 0
-853 -340 0
-853 -341 0
-853 -342 0
-853 -343 0
-853 -344 0
-853 -345 0
-853 -346 0
-853 -347 0
-853 -360 0
-853 -361 0
-853 -362 0
-853 -363 0
-853 -364 0
-853 -365 0
-853 -366 0
-853 -367 0
-853 -368 0
-853 -369 0
-853 -370 0
-853 -371 0
-853 -384 0
-853 -385 0
-853 -386 0
-853 -387 0
-853 -388 0
-853 -389 0
-853 -390 0
-853 -391 0
-853 -392 0
-853 -393 0
-853 -394 0
-853 -395 0
-854 447 0
-854 478 0
-854 481 0
-854 -329 -332 0
-854 -340 0
-854 -341 0
-854 -342 0
-854 -343 0
-854 -344 0
-854 -345 0
-854 -346 0
-854 -347 0
-854 -348 0
-854 -349 0
-854 -350 0
-854 -351 0
-854 -364 0
-854 -365 0
-854 -366 0
-854 -367 0
-854 -368 0
-854 -369 0
-854 -370 0
-854 -371 0
-854 -372 0
-854 -373 0
-854 -374 0
-854 -375 0
-854 -384 0
-854 -385 0
-854 -386 0
-854 -387 0
-854 -388 0
-854 -389 0
-854 -390 0
-854 -391 0
-854 -392 0
-854 -393 0
-854 -394 0
-854 -395 0
-854 -396 0
-854 -397 0
-854 -398 0
-854 -399 0
-855 447 0
-855 479 0
-855 481 0
-855 -330 -332 0
-855 -344 0
-855 -345 0
-855 -346 0
-855 -347 0
-855 -348 0
-855 -349 0
-855 -350 0
-855 -351 0
-855 -352 0
-855 -353 0
-855 -354 0
-855 -355 0
-855 -368 0
-855 -369 0
-855 -370 0
-855 -371 0
-855 -372 0
-855 -373 0
-855 -374 0
-855 -375 0
-855 -376 0
-855 -377 0
-855 -378 0
-855 -379 0
-855 -388 0
-855 -389 0
-855 -390 0
-855 -391 0
-855 -392 0
-855 -393 0
-855 -394 0
-855 -395 0
-855 -396 0
-855 -397 0
-855 -398 0
-855 -399 0
-855 -400 0
-855 -401 0
-855 -402 0
-855 -403 0
-856 447 0
-856 480 0
-856 481 0
-856 -331 -332 0
-856 -348 0
-856 -349 0
-856 -350 0
-856 -351 0
-856 -352 0
-856 -353 0
-856 -354 0
-856 -355 0
-856 -356 0
-856 -357 0
-856 -358 0
-856 -359 0
-856 -372 0
-856 -373 0
-856 -374 0
-856 -375 0
-856 -376 0
-856 -377 0
-856 -378 0
-856 -379 0
-856 -380 0
-856 -381 0
-856 -382 0
-856 -383 0
-856 -392 0
-856 -393 0
-856 -394 0
-856 -395 0
-856 -396 0
-856 -397 0
-856 -398 0
-856 -399 0
-856 -400 0
-856 -401 0
-856 -402 0
-856 -403 0
