p cnf 1097 37705
1 2 3 4 5 6 0
-1 -2 0
-1 -3 0
-1 -4 0
-1 -5 0
-1 -6 0
-2 -3 0
-2 -4 0
-2 -5 0
-2 -6 0
-3 -4 0
-3 -5 0
-3 -6 0
-4 -5 0
-4 -6 0
-5 -6 0
7 8 9 10 0
-7 -8 0
-7 -9 0
-7 -10 0
-8 -9 0
-8 -10 0
-9 -10 0
11 12 13 14 15 16 0
-11 -12 0
-11 -13 0
-11 -14 0
-11 -15 0
-11 -16 0
-12 -13 0
-12 -14 0
-12 -15 0
-12 -16 0
-13 -14 0
-13 -15 0
-13 -16 0
-14 -15 0
-14 -16 0
-15 -16 0
17 18 19 20 0
-17 -18 0
-17 -19 0
-17 -20 0
-18 -19 0
-18 -20 0
-19 -20 0
21 22 23 24 25 0
-21 -22 0
-21 -23 0
-21 -24 0
-21 -25 0
-22 -23 0
-22 -24 0
-22 -25 0
-23 -24 0
-23 -25 0
-24 -25 0
26 27 28 29 0
-26 -27 0
-26 -28 0
-26 -29 0
-27 -28 0
-27 -29 0
-28 -29 0
30 31 32 33 0
-30 -31 0
-30 -32 0
-30 -33 0
-31 -32 0
-31 -33 0
-32 -33 0
34 35 36 37 0
-34 -35 0
-34 -36 0
-34 -37 0
-35 -36 0
-35 -37 0
-36 -37 0
-38 1 0
-38 7 0
-1 -7 38 0
-39 1 0
-39 8 0
-1 -8 39 0
-40 1 0
-40 9 0
-1 -9 40 0
-41 1 0
-41 10 0
-1 -10 41 0
-42 2 0
-42 7 0
-2 -7 42 0
-43 2 0
-43 8 0
-2 -8 43 0
-44 2 0
-44 9 0
-2 -9 44 0
-45 2 0
-45 10 0
-2 -10 45 0
-46 3 0
-46 7 0
-3 -7 46 0
-47 3 0
-47 8 0
-3 -8 47 0
-48 3 0
-48 9 0
-3 -9 48 0
-49 3 0
-49 10 0
-3 -10 49 0
-50 4 0
-50 7 0
-4 -7 50 0
-51 4 0
-51 8 0
-4 -8 51 0
-52 4 0
-52 9 0
-4 -9 52 0
-53 4 0
-53 10 0
-4 -10 53 0
-54 5 0
-54 7 0
-5 -7 54 0
-55 5 0
-55 8 0
-5 -8 55 0
-56 5 0
-56 9 0
-5 -9 56 0
-57 5 0
-57 10 0
-5 -10 57 0
-58 6 0
-58 7 0
-6 -7 58 0
-59 6 0
-59 8 0
-6 -8 59 0
-60 6 0
-60 9 0
-6 -9 60 0
-61 6 0
-61 10 0
-6 -10 61 0
-62 11 0
-62 17 0
-11 -17 62 0
-63 11 0
-63 18 0
-11 -18 63 0
-64 11 0
-64 19 0
-11 -19 64 0
-65 11 0
-65 20 0
-11 -20 65 0
-66 12 0
-66 17 0
-12 -17 66 0
-67 12 0
-67 18 0
-12 -18 67 0
-68 12 0
-68 19 0
-12 -19 68 0
-69 12 0
-69 20 0
-12 -20 69 0
-70 13 0
-70 17 0
-13 -17 70 0
-71 13 0
-71 18 0
-13 -18 71 0
-72 13 0
-72 19 0
-13 -19 72 0
-73 13 0
-73 20 0
-13 -20 73 0
-74 14 0
-74 17 0
-14 -17 74 0
-75 14 0
-75 18 0
-14 -18 75 0
-76 14 0
-76 19 0
-14 -19 76 0
-77 14 0
-77 20 0
-14 -20 77 0
-78 15 0
-78 17 0
-15 -17 78 0
-79 15 0
-79 18 0
-15 -18 79 0
-80 15 0
-80 19 0
-15 -19 80 0
-81 15 0
-81 20 0
-15 -20 81 0
-82 16 0
-82 17 0
-16 -17 82 0
-83 16 0
-83 18 0
-16 -18 83 0
-84 16 0
-84 19 0
-16 -19 84 0
-85 16 0
-85 20 0
-16 -20 85 0
-86 21 0
-86 26 0
-21 -26 86 0
-87 21 0
-87 27 0
-21 -27 87 0
-88 21 0
-88 28 0
-21 -28 88 0
-89 21 0
-89 29 0
-21 -29 89 0
-90 22 0
-90 26 0
-22 -26 90 0
-91 22 0
-91 27 0
-22 -27 91 0
-92 22 0
-92 28 0
-22 -28 92 0
-93 22 0
-93 29 0
-22 -29 93 0
-94 23 0
-94 26 0
-23 -26 94 0
-95 23 0
-95 27 0
-23 -27 95 0
-96 23 0
-96 28 0
-23 -28 96 0
-97 23 0
-97 29 0
-23 -29 97 0
-98 24 0
-98 26 0
-24 -26 98 0
-99 24 0
-99 27 0
-24 -27 99 0
-100 24 0
-100 28 0
-24 -28 100 0
-101 24 0
-101 29 0
-24 -29 101 0
-102 25 0
-102 26 0
-25 -26 102 0
-103 25 0
-103 27 0
-25 -27 103 0
-104 25 0
-104 28 0
-25 -28 104 0
-105 25 0
-105 29 0
-25 -29 105 0
-106 30 0
-106 34 0
-30 -34 106 0
-107 30 0
-107 35 0
-30 -35 107 0
-108 30 0
-108 36 0
-30 -36 108 0
-109 30 0
-109 37 0
-30 -37 109 0
-110 31 0
-110 34 0
-31 -34 110 0
-111 31 0
-111 35 0
-31 -35 111 0
-112 31 0
-112 36 0
-31 -36 112 0
-113 31 0
-113 37 0
-31 -37 113 0
-114 32 0
-114 34 0
-32 -34 114 0
-115 32 0
-115 35 0
-32 -35 115 0
-116 32 0
-116 36 0
-32 -36 116 0
-117 32 0
-117 37 0
-32 -37 117 0
-118 33 0
-118 34 0
-33 -34 118 0
-119 33 0
-119 35 0
-33 -35 119 0
-120 33 0
-120 36 0
-33 -36 120 0
-121 33 0
-121 37 0
-33 -37 121 0
-122 38 62 86 106 0
-38 122 0
-62 122 0
-86 122 0
-106 122 0
-123 39 63 87 107 0
-39 123 0
-63 123 0
-87 123 0
-107 123 0
-124 40 64 88 108 0
-40 124 0
-64 124 0
-88 124 0
-108 124 0
-125 41 65 89 109 0
-41 125 0
-65 125 0
-89 125 0
-109 125 0
-126 42 66 86 90 106 110 0
-42 126 0
-66 126 0
-86 126 0
-90 126 0
-106 126 0
-110 126 0
-127 43 67 87 91 107 111 0
-43 127 0
-67 127 0
-87 127 0
-91 127 0
-107 127 0
-111 127 0
-128 44 68 88 92 108 112 0
-44 128 0
-68 128 0
-88 128 0
-92 128 0
-108 128 0
-112 128 0
-129 45 69 89 93 109 113 0
-45 129 0
-69 129 0
-89 129 0
-93 129 0
-109 129 0
-113 129 0
-130 46 70 90 94 106 110 114 0
-46 130 0
-70 130 0
-90 130 0
-94 130 0
-106 130 0
-110 130 0
-114 130 0
-131 47 71 91 95 107 111 115 0
-47 131 0
-71 131 0
-91 131 0
-95 131 0
-107 131 0
-111 131 0
-115 131 0
-132 48 72 92 96 108 112 116 0
-48 132 0
-72 132 0
-92 132 0
-96 132 0
-108 132 0
-112 132 0
-116 132 0
-133 49 73 93 97 109 113 117 0
-49 133 0
-73 133 0
-93 133 0
-97 133 0
-109 133 0
-113 133 0
-117 133 0
-134 50 74 94 98 110 114 118 0
-50 134 0
-74 134 0
-94 134 0
-98 134 0
-110 134 0
-114 134 0
-118 134 0
-135 51 75 95 99 111 115 119 0
-51 135 0
-75 135 0
-95 135 0
-99 135 0
-111 135 0
-115 135 0
-119 135 0
-136 52 76 96 100 112 116 120 0
-52 136 0
-76 136 0
-96 136 0
-100 136 0
-112 136 0
-116 136 0
-120 136 0
-137 53 77 97 101 113 117 121 0
-53 137 0
-77 137 0
-97 137 0
-101 137 0
-113 137 0
-117 137 0
-121 137 0
-138 54 78 98 102 114 118 0
-54 138 0
-78 138 0
-98 138 0
-102 138 0
-114 138 0
-118 138 0
-139 55 79 99 103 115 119 0
-55 139 0
-79 139 0
-99 139 0
-103 139 0
-115 139 0
-119 139 0
-140 56 80 100 104 116 120 0
-56 140 0
-80 140 0
-100 140 0
-104 140 0
-116 140 0
-120 140 0
-141 57 81 101 105 117 121 0
-57 141 0
-81 141 0
-101 141 0
-105 141 0
-117 141 0
-121 141 0
-142 58 82 102 118 0
-58 142 0
-82 142 0
-102 142 0
-118 142 0
-143 59 83 103 119 0
-59 143 0
-83 143 0
-103 143 0
-119 143 0
-144 60 84 104 120 0
-60 144 0
-84 144 0
-104 144 0
-120 144 0
-145 61 85 105 121 0
-61 145 0
-85 145 0
-105 145 0
-121 145 0
-38 -62 0
-38 -86 0
-38 -106 0
-39 -63 0
-39 -87 0
-39 -107 0
-40 -64 0
-40 -88 0
-40 -108 0
-41 -65 0
-41 -89 0
-41 -109 0
-42 -66 0
-42 -86 0
-42 -90 0
-42 -106 0
-42 -110 0
-43 -67 0
-43 -87 0
-43 -91 0
-43 -107 0
-43 -111 0
-44 -68 0
-44 -88 0
-44 -92 0
-44 -108 0
-44 -112 0
-45 -69 0
-45 -89 0
-45 -93 0
-45 -109 0
-45 -113 0
-46 -70 0
-46 -90 0
-46 -94 0
-46 -106 0
-46 -110 0
-46 -114 0
-47 -71 0
-47 -91 0
-47 -95 0
-47 -107 0
-47 -111 0
-47 -115 0
-48 -72 0
-48 -92 0
-48 -96 0
-48 -108 0
-48 -112 0
-48 -116 0
-49 -73 0
-49 -93 0
-49 -97 0
-49 -109 0
-49 -113 0
-49 -117 0
-50 -74 0
-50 -94 0
-50 -98 0
-50 -110 0
-50 -114 0
-50 -118 0
-51 -75 0
-51 -95 0
-51 -99 0
-51 -111 0
-51 -115 0
-51 -119 0
-52 -76 0
-52 -96 0
-52 -100 0
-52 -112 0
-52 -116 0
-52 -120 0
-53 -77 0
-53 -97 0
-53 -101 0
-53 -113 0
-53 -117 0
-53 -121 0
-54 -78 0
-54 -98 0
-54 -102 0
-54 -114 0
-54 -118 0
-55 -79 0
-55 -99 0
-55 -103 0
-55 -115 0
-55 -119 0
-56 -80 0
-56 -100 0
-56 -104 0
-56 -116 0
-56 -120 0
-57 -81 0
-57 -101 0
-57 -105 0
-57 -117 0
-57 -121 0
-58 -82 0
-58 -102 0
-58 -118 0
-59 -83 0
-59 -103 0
-59 -119 0
-60 -84 0
-60 -104 0
-60 -120 0
-61 -85 0
-61 -105 0
-61 -121 0
-62 -86 0
-62 -106 0
-63 -87 0
-63 -107 0
-64 -88 0
-64 -108 0
-65 -89 0
-65 -109 0
-66 -86 0
-66 -90 0
-66 -106 0
-66 -110 0
-67 -87 0
-67 -91 0
-67 -107 0
-67 -111 0
-68 -88 0
-68 -92 0
-68 -108 0
-68 -112 0
-69 -89 0
-69 -93 0
-69 -109 0
-69 -113 0
-70 -90 0
-70 -94 0
-70 -106 0
-70 -110 0
-70 -114 0
-71 -91 0
-71 -95 0
-71 -107 0
-71 -111 0
-71 -115 0
-72 -92 0
-72 -96 0
-72 -108 0
-72 -112 0
-72 -116 0
-73 -93 0
-73 -97 0
-73 -109 0
-73 -113 0
-73 -117 0
-74 -94 0
-74 -98 0
-74 -110 0
-74 -114 0
-74 -118 0
-75 -95 0
-75 -99 0
-75 -111 0
-75 -115 0
-75 -119 0
-76 -96 0
-76 -100 0
-76 -112 0
-76 -116 0
-76 -120 0
-77 -97 0
-77 -101 0
-77 -113 0
-77 -117 0
-77 -121 0
-78 -98 0
-78 -102 0
-78 -114 0
-78 -118 0
-79 -99 0
-79 -103 0
-79 -115 0
-79 -119 0
-80 -100 0
-80 -104 0
-80 -116 0
-80 -120 0
-81 -101 0
-81 -105 0
-81 -117 0
-81 -121 0
-82 -102 0
-82 -118 0
-83 -103 0
-83 -119 0
-84 -104 0
-84 -120 0
-85 -105 0
-85 -121 0
-86 -106 0
-86 -110 0
-87 -107 0
-87 -111 0
-88 -108 0
-88 -112 0
-89 -109 0
-89 -113 0
-90 -106 0
-90 -110 0
-90 -114 0
-91 -107 0
-91 -111 0
-91 -115 0
-92 -108 0
-92 -112 0
-92 -116 0
-93 -109 0
-93 -113 0
-93 -117 0
-94 -106 0
-94 -110 0
-94 -114 0
-94 -118 0
-95 -107 0
-95 -111 0
-95 -115 0
-95 -119 0
-96 -108 0
-96 -112 0
-96 -116 0
-96 -120 0
-97 -109 0
-97 -113 0
-97 -117 0
-97 -121 0
-98 -110 0
-98 -114 0
-98 -118 0
-99 -111 0
-99 -115 0
-99 -119 0
-100 -112 0
-100 -116 0
-100 -120 0
-101 -113 0
-101 -117 0
-101 -121 0
-102 -114 0
-102 -118 0
-103 -115 0
-103 -119 0
-104 -116 0
-104 -120 0
-105 -117 0
-105 -121 0
-38 146 63 64 65 87 88 89 107 108 109 0
-38 -146 -63 0
-38 -146 -64 0
-38 -146 -65 0
-38 -146 -87 0
-38 -146 -88 0
-38 -146 -89 0
-38 -146 -107 0
-38 -146 -108 0
-38 -146 -109 0
-39 122 0
-39 146 64 65 88 89 108 109 0
-39 -146 -64 0
-39 -146 -65 0
-39 -146 -88 0
-39 -146 -89 0
-39 -146 -108 0
-39 -146 -109 0
-40 123 0
-40 146 65 89 109 0
-40 -146 -65 0
-40 -146 -89 0
-40 -146 -109 0
-41 124 0
-41 146 0
-42 146 67 68 69 87 88 89 91 92 93 107 108 109 111 112 113 0
-42 -146 -67 0
-42 -146 -68 0
-42 -146 -69 0
-42 -146 -87 0
-42 -146 -88 0
-42 -146 -89 0
-42 -146 -91 0
-42 -146 -92 0
-42 -146 -93 0
-42 -146 -107 0
-42 -146 -108 0
-42 -146 -109 0
-42 -146 -111 0
-42 -146 -112 0
-42 -146 -113 0
-43 126 0
-43 146 68 69 88 89 92 93 108 109 112 113 0
-43 -146 -68 0
-43 -146 -69 0
-43 -146 -88 0
-43 -146 -89 0
-43 -146 -92 0
-43 -146 -93 0
-43 -146 -108 0
-43 -146 -109 0
-43 -146 -112 0
-43 -146 -113 0
-44 127 0
-44 146 69 89 93 109 113 0
-44 -146 -69 0
-44 -146 -89 0
-44 -146 -93 0
-44 -146 -109 0
-44 -146 -113 0
-45 128 0
-45 146 0
-46 146 71 72 73 91 92 93 95 96 97 107 108 109 111 112 113 115 116 117 0
-46 -146 -71 0
-46 -146 -72 0
-46 -146 -73 0
-46 -146 -91 0
-46 -146 -92 0
-46 -146 -93 0
-46 -146 -95 0
-46 -146 -96 0
-46 -146 -97 0
-46 -146 -107 0
-46 -146 -108 0
-46 -146 -109 0
-46 -146 -111 0
-46 -146 -112 0
-46 -146 -113 0
-46 -146 -115 0
-46 -146 -116 0
-46 -146 -117 0
-47 130 0
-47 146 72 73 92 93 96 97 108 109 112 113 116 117 0
-47 -146 -72 0
-47 -146 -73 0
-47 -146 -92 0
-47 -146 -93 0
-47 -146 -96 0
-47 -146 -97 0
-47 -146 -108 0
-47 -146 -109 0
-47 -146 -112 0
-47 -146 -113 0
-47 -146 -116 0
-47 -146 -117 0
-48 131 0
-48 146 73 93 97 109 113 117 0
-48 -146 -73 0
-48 -146 -93 0
-48 -146 -97 0
-48 -146 -109 0
-48 -146 -113 0
-48 -146 -117 0
-49 132 0
-49 146 0
-50 146 75 76 77 95 96 97 99 100 101 111 112 113 115 116 117 119 120 121 0
-50 -146 -75 0
-50 -146 -76 0
-50 -146 -77 0
-50 -146 -95 0
-50 -146 -96 0
-50 -146 -97 0
-50 -146 -99 0
-50 -146 -100 0
-50 -146 -101 0
-50 -146 -111 0
-50 -146 -112 0
-50 -146 -113 0
-50 -146 -115 0
-50 -146 -116 0
-50 -146 -117 0
-50 -146 -119 0
-50 -146 -120 0
-50 -146 -121 0
-51 134 0
-51 146 76 77 96 97 100 101 112 113 116 117 120 121 0
-51 -146 -76 0
-51 -146 -77 0
-51 -146 -96 0
-51 -146 -97 0
-51 -146 -100 0
-51 -146 -101 0
-51 -146 -112 0
-51 -146 -113 0
-51 -146 -116 0
-51 -146 -117 0
-51 -146 -120 0
-51 -146 -121 0
-52 135 0
-52 146 77 97 101 113 117 121 0
-52 -146 -77 0
-52 -146 -97 0
-52 -146 -101 0
-52 -146 -113 0
-52 -146 -117 0
-52 -146 -121 0
-53 136 0
-53 146 0
-54 146 79 80 81 99 100 101 103 104 105 115 116 117 119 120 121 0
-54 -146 -79 0
-54 -146 -80 0
-54 -146 -81 0
-54 -146 -99 0
-54 -146 -100 0
-54 -146 -101 0
-54 -146 -103 0
-54 -146 -104 0
-54 -146 -105 0
-54 -146 -115 0
-54 -146 -116 0
-54 -146 -117 0
-54 -146 -119 0
-54 -146 -120 0
-54 -146 -121 0
-55 138 0
-55 146 80 81 100 101 104 105 116 117 120 121 0
-55 -146 -80 0
-55 -146 -81 0
-55 -146 -100 0
-55 -146 -101 0
-55 -146 -104 0
-55 -146 -105 0
-55 -146 -116 0
-55 -146 -117 0
-55 -146 -120 0
-55 -146 -121 0
-56 139 0
-56 146 81 101 105 117 121 0
-56 -146 -81 0
-56 -146 -101 0
-56 -146 -105 0
-56 -146 -117 0
-56 -146 -121 0
-57 140 0
-57 146 0
-58 146 83 84 85 103 104 105 119 120 121 0
-58 -146 -83 0
-58 -146 -84 0
-58 -146 -85 0
-58 -146 -103 0
-58 -146 -104 0
-58 -146 -105 0
-58 -146 -119 0
-58 -146 -120 0
-58 -146 -121 0
-59 142 0
-59 146 84 85 104 105 120 121 0
-59 -146 -84 0
-59 -146 -85 0
-59 -146 -104 0
-59 -146 -105 0
-59 -146 -120 0
-59 -146 -121 0
-60 143 0
-60 146 85 105 121 0
-60 -146 -85 0
-60 -146 -105 0
-60 -146 -121 0
-61 144 0
-61 146 0
-62 147 39 40 41 87 88 89 107 108 109 0
-62 -147 -39 0
-62 -147 -40 0
-62 -147 -41 0
-62 -147 -87 0
-62 -147 -88 0
-62 -147 -89 0
-62 -147 -107 0
-62 -147 -108 0
-62 -147 -109 0
-63 122 0
-63 147 40 41 88 89 108 109 0
-63 -147 -40 0
-63 -147 -41 0
-63 -147 -88 0
-63 -147 -89 0
-63 -147 -108 0
-63 -147 -109 0
-64 123 0
-64 147 41 89 109 0
-64 -147 -41 0
-64 -147 -89 0
-64 -147 -109 0
-65 124 0
-65 147 0
-66 147 43 44 45 87 88 89 91 92 93 107 108 109 111 112 113 0
-66 -147 -43 0
-66 -147 -44 0
-66 -147 -45 0
-66 -147 -87 0
-66 -147 -88 0
-66 -147 -89 0
-66 -147 -91 0
-66 -147 -92 0
-66 -147 -93 0
-66 -147 -107 0
-66 -147 -108 0
-66 -147 -109 0
-66 -147 -111 0
-66 -147 -112 0
-66 -147 -113 0
-67 126 0
-67 147 44 45 88 89 92 93 108 109 112 113 0
-67 -147 -44 0
-67 -147 -45 0
-67 -147 -88 0
-67 -147 -89 0
-67 -147 -92 0
-67 -147 -93 0
-67 -147 -108 0
-67 -147 -109 0
-67 -147 -112 0
-67 -147 -113 0
-68 127 0
-68 147 45 89 93 109 113 0
-68 -147 -45 0
-68 -147 -89 0
-68 -147 -93 0
-68 -147 -109 0
-68 -147 -113 0
-69 128 0
-69 147 0
-70 147 47 48 49 91 92 93 95 96 97 107 108 109 111 112 113 115 116 117 0
-70 -147 -47 0
-70 -147 -48 0
-70 -147 -49 0
-70 -147 -91 0
-70 -147 -92 0
-70 -147 -93 0
-70 -147 -95 0
-70 -147 -96 0
-70 -147 -97 0
-70 -147 -107 0
-70 -147 -108 0
-70 -147 -109 0
-70 -147 -111 0
-70 -147 -112 0
-70 -147 -113 0
-70 -147 -115 0
-70 -147 -116 0
-70 -147 -117 0
-71 130 0
-71 147 48 49 92 93 96 97 108 109 112 113 116 117 0
-71 -147 -48 0
-71 -147 -49 0
-71 -147 -92 0
-71 -147 -93 0
-71 -147 -96 0
-71 -147 -97 0
-71 -147 -108 0
-71 -147 -109 0
-71 -147 -112 0
-71 -147 -113 0
-71 -147 -116 0
-71 -147 -117 0
-72 131 0
-72 147 49 93 97 109 113 117 0
-72 -147 -49 0
-72 -147 -93 0
-72 -147 -97 0
-72 -147 -109 0
-72 -147 -113 0
-72 -147 -117 0
-73 132 0
-73 147 0
-74 147 51 52 53 95 96 97 99 100 101 111 112 113 115 116 117 119 120 121 0
-74 -147 -51 0
-74 -147 -52 0
-74 -147 -53 0
-74 -147 -95 0
-74 -147 -96 0
-74 -147 -97 0
-74 -147 -99 0
-74 -147 -100 0
-74 -147 -101 0
-74 -147 -111 0
-74 -147 -112 0
-74 -147 -113 0
-74 -147 -115 0
-74 -147 -116 0
-74 -147 -117 0
-74 -147 -119 0
-74 -147 -120 0
-74 -147 -121 0
-75 134 0
-75 147 52 53 96 97 100 101 112 113 116 117 120 121 0
-75 -147 -52 0
-75 -147 -53 0
-75 -147 -96 0
-75 -147 -97 0
-75 -147 -100 0
-75 -147 -101 0
-75 -147 -112 0
-75 -147 -113 0
-75 -147 -116 0
-75 -147 -117 0
-75 -147 -120 0
-75 -147 -121 0
-76 135 0
-76 147 53 97 101 113 117 121 0
-76 -147 -53 0
-76 -147 -97 0
-76 -147 -101 0
-76 -147 -113 0
-76 -147 -117 0
-76 -147 -121 0
-77 136 0
-77 147 0
-78 147 55 56 57 99 100 101 103 104 105 115 116 117 119 120 121 0
-78 -147 -55 0
-78 -147 -56 0
-78 -147 -57 0
-78 -147 -99 0
-78 -147 -100 0
-78 -147 -101 0
-78 -147 -103 0
-78 -147 -104 0
-78 -147 -105 0
-78 -147 -115 0
-78 -147 -116 0
-78 -147 -117 0
-78 -147 -119 0
-78 -147 -120 0
-78 -147 -121 0
-79 138 0
-79 147 56 57 100 101 104 105 116 117 120 121 0
-79 -147 -56 0
-79 -147 -57 0
-79 -147 -100 0
-79 -147 -101 0
-79 -147 -104 0
-79 -147 -105 0
-79 -147 -116 0
-79 -147 -117 0
-79 -147 -120 0
-79 -147 -121 0
-80 139 0
-80 147 57 101 105 117 121 0
-80 -147 -57 0
-80 -147 -101 0
-80 -147 -105 0
-80 -147 -117 0
-80 -147 -121 0
-81 140 0
-81 147 0
-82 147 59 60 61 103 104 105 119 120 121 0
-82 -147 -59 0
-82 -147 -60 0
-82 -147 -61 0
-82 -147 -103 0
-82 -147 -104 0
-82 -147 -105 0
-82 -147 -119 0
-82 -147 -120 0
-82 -147 -121 0
-83 142 0
-83 147 60 61 104 105 120 121 0
-83 -147 -60 0
-83 -147 -61 0
-83 -147 -104 0
-83 -147 -105 0
-83 -147 -120 0
-83 -147 -121 0
-84 143 0
-84 147 61 105 121 0
-84 -147 -61 0
-84 -147 -105 0
-84 -147 -121 0
-85 144 0
-85 147 0
-86 148 39 40 41 43 44 45 63 64 65 67 68 69 107 108 109 111 112 113 0
-86 -148 -39 0
-86 -148 -40 0
-86 -148 -41 0
-86 -148 -43 0
-86 -148 -44 0
-86 -148 -45 0
-86 -148 -63 0
-86 -148 -64 0
-86 -148 -65 0
-86 -148 -67 0
-86 -148 -68 0
-86 -148 -69 0
-86 -148 -107 0
-86 -148 -108 0
-86 -148 -109 0
-86 -148 -111 0
-86 -148 -112 0
-86 -148 -113 0
-87 122 126 0
-87 148 40 41 44 45 64 65 68 69 108 109 112 113 0
-87 -148 -40 0
-87 -148 -41 0
-87 -148 -44 0
-87 -148 -45 0
-87 -148 -64 0
-87 -148 -65 0
-87 -148 -68 0
-87 -148 -69 0
-87 -148 -108 0
-87 -148 -109 0
-87 -148 -112 0
-87 -148 -113 0
-88 123 127 0
-88 148 41 45 65 69 109 113 0
-88 -148 -41 0
-88 -148 -45 0
-88 -148 -65 0
-88 -148 -69 0
-88 -148 -109 0
-88 -148 -113 0
-89 124 128 0
-89 148 0
-90 148 43 44 45 47 48 49 67 68 69 71 72 73 107 108 109 111 112 113 115 116 117 0
-90 -148 -43 0
-90 -148 -44 0
-90 -148 -45 0
-90 -148 -47 0
-90 -148 -48 0
-90 -148 -49 0
-90 -148 -67 0
-90 -148 -68 0
-90 -148 -69 0
-90 -148 -71 0
-90 -148 -72 0
-90 -148 -73 0
-90 -148 -107 0
-90 -148 -108 0
-90 -148 -109 0
-90 -148 -111 0
-90 -148 -112 0
-90 -148 -113 0
-90 -148 -115 0
-90 -148 -116 0
-90 -148 -117 0
-91 126 130 0
-91 148 44 45 48 49 68 69 72 73 108 109 112 113 116 117 0
-91 -148 -44 0
-91 -148 -45 0
-91 -148 -48 0
-91 -148 -49 0
-91 -148 -68 0
-91 -148 -69 0
-91 -148 -72 0
-91 -148 -73 0
-91 -148 -108 0
-91 -148 -109 0
-91 -148 -112 0
-91 -148 -113 0
-91 -148 -116 0
-91 -148 -117 0
-92 127 131 0
-92 148 45 49 69 73 109 113 117 0
-92 -148 -45 0
-92 -148 -49 0
-92 -148 -69 0
-92 -148 -73 0
-92 -148 -109 0
-92 -148 -113 0
-92 -148 -117 0
-93 128 132 0
-93 148 0
-94 148 47 48 49 51 52 53 71 72 73 75 76 77 107 108 109 111 112 113 115 116 117 119 120 121 0
-94 -148 -47 0
-94 -148 -48 0
-94 -148 -49 0
-94 -148 -51 0
-94 -148 -52 0
-94 -148 -53 0
-94 -148 -71 0
-94 -148 -72 0
-94 -148 -73 0
-94 -148 -75 0
-94 -148 -76 0
-94 -148 -77 0
-94 -148 -107 0
-94 -148 -108 0
-94 -148 -109 0
-94 -148 -111 0
-94 -148 -112 0
-94 -148 -113 0
-94 -148 -115 0
-94 -148 -116 0
-94 -148 -117 0
-94 -148 -119 0
-94 -148 -120 0
-94 -148 -121 0
-95 130 134 0
-95 148 48 49 52 53 72 73 76 77 108 109 112 113 116 117 120 121 0
-95 -148 -48 0
-95 -148 -49 0
-95 -148 -52 0
-95 -148 -53 0
-95 -148 -72 0
-95 -148 -73 0
-95 -148 -76 0
-95 -148 -77 0
-95 -148 -108 0
-95 -148 -109 0
-95 -148 -112 0
-95 -148 -113 0
-95 -148 -116 0
-95 -148 -117 0
-95 -148 -120 0
-95 -148 -121 0
-96 131 135 0
-96 148 49 53 73 77 109 113 117 121 0
-96 -148 -49 0
-96 -148 -53 0
-96 -148 -73 0
-96 -148 -77 0
-96 -148 -109 0
-96 -148 -113 0
-96 -148 -117 0
-96 -148 -121 0
-97 132 136 0
-97 148 0
-98 148 51 52 53 55 56 57 75 76 77 79 80 81 111 112 113 115 116 117 119 120 121 0
-98 -148 -51 0
-98 -148 -52 0
-98 -148 -53 0
-98 -148 -55 0
-98 -148 -56 0
-98 -148 -57 0
-98 -148 -75 0
-98 -148 -76 0
-98 -148 -77 0
-98 -148 -79 0
-98 -148 -80 0
-98 -148 -81 0
-98 -148 -111 0
-98 -148 -112 0
-98 -148 -113 0
-98 -148 -115 0
-98 -148 -116 0
-98 -148 -117 0
-98 -148 -119 0
-98 -148 -120 0
-98 -148 -121 0
-99 134 138 0
-99 148 52 53 56 57 76 77 80 81 112 113 116 117 120 121 0
-99 -148 -52 0
-99 -148 -53 0
-99 -148 -56 0
-99 -148 -57 0
-99 -148 -76 0
-99 -148 -77 0
-99 -148 -80 0
-99 -148 -81 0
-99 -148 -112 0
-99 -148 -113 0
-99 -148 -116 0
-99 -148 -117 0
-99 -148 -120 0
-99 -148 -121 0
-100 135 139 0
-100 148 53 57 77 81 113 117 121 0
-100 -148 -53 0
-100 -148 -57 0
-100 -148 -77 0
-100 -148 -81 0
-100 -148 -113 0
-100 -148 -117 0
-100 -148 -121 0
-101 136 140 0
-101 148 0
-102 148 55 56 57 59 60 61 79 80 81 83 84 85 115 116 117 119 120 121 0
-102 -148 -55 0
-102 -148 -56 0
-102 -148 -57 0
-102 -148 -59 0
-102 -148 -60 0
-102 -148 -61 0
-102 -148 -79 0
-102 -148 -80 0
-102 -148 -81 0
-102 -148 -83 0
-102 -148 -84 0
-102 -148 -85 0
-102 -148 -115 0
-102 -148 -116 0
-102 -148 -117 0
-102 -148 -119 0
-102 -148 -120 0
-102 -148 -121 0
-103 138 142 0
-103 148 56 57 60 61 80 81 84 85 116 117 120 121 0
-103 -148 -56 0
-103 -148 -57 0
-103 -148 -60 0
-103 -148 -61 0
-103 -148 -80 0
-103 -148 -81 0
-103 -148 -84 0
-103 -148 -85 0
-103 -148 -116 0
-103 -148 -117 0
-103 -148 -120 0
-103 -148 -121 0
-104 139 143 0
-104 148 57 61 81 85 117 121 0
-104 -148 -57 0
-104 -148 -61 0
-104 -148 -81 0
-104 -148 -85 0
-104 -148 -117 0
-104 -148 -121 0
-105 140 144 0
-105 148 0
-106 149 39 40 41 43 44 45 47 48 49 63 64 65 67 68 69 71 72 73 87 88 89 91 92 93 95 96 97 0
-106 -149 -39 0
-106 -149 -40 0
-106 -149 -41 0
-106 -149 -43 0
-106 -149 -44 0
-106 -149 -45 0
-106 -149 -47 0
-106 -149 -48 0
-106 -149 -49 0
-106 -149 -63 0
-106 -149 -64 0
-106 -149 -65 0
-106 -149 -67 0
-106 -149 -68 0
-106 -149 -69 0
-106 -149 -71 0
-106 -149 -72 0
-106 -149 -73 0
-106 -149 -87 0
-106 -149 -88 0
-106 -149 -89 0
-106 -149 -91 0
-106 -149 -92 0
-106 -149 -93 0
-106 -149 -95 0
-106 -149 -96 0
-106 -149 -97 0
-107 122 126 0
-107 122 130 0
-107 126 130 0
-107 149 40 41 44 45 48 49 64 65 68 69 72 73 88 89 92 93 96 97 0
-107 -149 -40 0
-107 -149 -41 0
-107 -149 -44 0
-107 -149 -45 0
-107 -149 -48 0
-107 -149 -49 0
-107 -149 -64 0
-107 -149 -65 0
-107 -149 -68 0
-107 -149 -69 0
-107 -149 -72 0
-107 -149 -73 0
-107 -149 -88 0
-107 -149 -89 0
-107 -149 -92 0
-107 -149 -93 0
-107 -149 -96 0
-107 -149 -97 0
-108 123 127 0
-108 123 131 0
-108 127 131 0
-108 149 41 45 49 65 69 73 89 93 97 0
-108 -149 -41 0
-108 -149 -45 0
-108 -149 -49 0
-108 -149 -65 0
-108 -149 -69 0
-108 -149 -73 0
-108 -149 -89 0
-108 -149 -93 0
-108 -149 -97 0
-109 124 128 0
-109 124 132 0
-109 128 132 0
-109 149 0
-110 149 43 44 45 47 48 49 51 52 53 67 68 69 71 72 73 75 76 77 87 88 89 91 92 93 95 96 97 99 100 101 0
-110 -149 -43 0
-110 -149 -44 0
-110 -149 -45 0
-110 -149 -47 0
-110 -149 -48 0
-110 -149 -49 0
-110 -149 -51 0
-110 -149 -52 0
-110 -149 -53 0
-110 -149 -67 0
-110 -149 -68 0
-110 -149 -69 0
-110 -149 -71 0
-110 -149 -72 0
-110 -149 -73 0
-110 -149 -75 0
-110 -149 -76 0
-110 -149 -77 0
-110 -149 -87 0
-110 -149 -88 0
-110 -149 -89 0
-110 -149 -91 0
-110 -149 -92 0
-110 -149 -93 0
-110 -149 -95 0
-110 -149 -96 0
-110 -149 -97 0
-110 -149 -99 0
-110 -149 -100 0
-110 -149 -101 0
-111 126 130 0
-111 126 134 0
-111 130 134 0
-111 149 44 45 48 49 52 53 68 69 72 73 76 77 88 89 92 93 96 97 100 101 0
-111 -149 -44 0
-111 -149 -45 0
-111 -149 -48 0
-111 -149 -49 0
-111 -149 -52 0
-111 -149 -53 0
-111 -149 -68 0
-111 -149 -69 0
-111 -149 -72 0
-111 -149 -73 0
-111 -149 -76 0
-111 -149 -77 0
-111 -149 -88 0
-111 -149 -89 0
-111 -149 -92 0
-111 -149 -93 0
-111 -149 -96 0
-111 -149 -97 0
-111 -149 -100 0
-111 -149 -101 0
-112 127 131 0
-112 127 135 0
-112 131 135 0
-112 149 45 49 53 69 73 77 89 93 97 101 0
-112 -149 -45 0
-112 -149 -49 0
-112 -149 -53 0
-112 -149 -69 0
-112 -149 -73 0
-112 -149 -77 0
-112 -149 -89 0
-112 -149 -93 0
-112 -149 -97 0
-112 -149 -101 0
-113 128 132 0
-113 128 136 0
-113 132 136 0
-113 149 0
-114 149 47 48 49 51 52 53 55 56 57 71 72 73 75 76 77 79 80 81 91 92 93 95 96 97 99 100 101 103 104 105 0
-114 -149 -47 0
-114 -149 -48 0
-114 -149 -49 0
-114 -149 -51 0
-114 -149 -52 0
-114 -149 -53 0
-114 -149 -55 0
-114 -149 -56 0
-114 -149 -57 0
-114 -149 -71 0
-114 -149 -72 0
-114 -149 -73 0
-114 -149 -75 0
-114 -149 -76 0
-114 -149 -77 0
-114 -149 -79 0
-114 -149 -80 0
-114 -149 -81 0
-114 -149 -91 0
-114 -149 -92 0
-114 -149 -93 0
-114 -149 -95 0
-114 -149 -96 0
-114 -149 -97 0
-114 -149 -99 0
-114 -149 -100 0
-114 -149 -101 0
-114 -149 -103 0
-114 -149 -104 0
-114 -149 -105 0
-115 130 134 0
-115 130 138 0
-115 134 138 0
-115 149 48 49 52 53 56 57 72 73 76 77 80 81 92 93 96 97 100 101 104 105 0
-115 -149 -48 0
-115 -149 -49 0
-115 -149 -52 0
-115 -149 -53 0
-115 -149 -56 0
-115 -149 -57 0
-115 -149 -72 0
-115 -149 -73 0
-115 -149 -76 0
-115 -149 -77 0
-115 -149 -80 0
-115 -149 -81 0
-115 -149 -92 0
-115 -149 -93 0
-115 -149 -96 0
-115 -149 -97 0
-115 -149 -100 0
-115 -149 -101 0
-115 -149 -104 0
-115 -149 -105 0
-116 131 135 0
-116 131 139 0
-116 135 139 0
-116 149 49 53 57 73 77 81 93 97 101 105 0
-116 -149 -49 0
-116 -149 -53 0
-116 -149 -57 0
-116 -149 -73 0
-116 -149 -77 0
-116 -149 -81 0
-116 -149 -93 0
-116 -149 -97 0
-116 -149 -101 0
-116 -149 -105 0
-117 132 136 0
-117 132 140 0
-117 136 140 0
-117 149 0
-118 149 51 52 53 55 56 57 59 60 61 75 76 77 79 80 81 83 84 85 95 96 97 99 100 101 103 104 105 0
-118 -149 -51 0
-118 -149 -52 0
-118 -149 -53 0
-118 -149 -55 0
-118 -149 -56 0
-118 -149 -57 0
-118 -149 -59 0
-118 -149 -60 0
-118 -149 -61 0
-118 -149 -75 0
-118 -149 -76 0
-118 -149 -77 0
-118 -149 -79 0
-118 -149 -80 0
-118 -149 -81 0
-118 -149 -83 0
-118 -149 -84 0
-118 -149 -85 0
-118 -149 -95 0
-118 -149 -96 0
-118 -149 -97 0
-118 -149 -99 0
-118 -149 -100 0
-118 -149 -101 0
-118 -149 -103 0
-118 -149 -104 0
-118 -149 -105 0
-119 134 138 0
-119 134 142 0
-119 138 142 0
-119 149 52 53 56 57 60 61 76 77 80 81 84 85 96 97 100 101 104 105 0
-119 -149 -52 0
-119 -149 -53 0
-119 -149 -56 0
-119 -149 -57 0
-119 -149 -60 0
-119 -149 -61 0
-119 -149 -76 0
-119 -149 -77 0
-119 -149 -80 0
-119 -149 -81 0
-119 -149 -84 0
-119 -149 -85 0
-119 -149 -96 0
-119 -149 -97 0
-119 -149 -100 0
-119 -149 -101 0
-119 -149 -104 0
-119 -149 -105 0
-120 135 139 0
-120 135 143 0
-120 139 143 0
-120 149 53 57 61 77 81 85 97 101 105 0
-120 -149 -53 0
-120 -149 -57 0
-120 -149 -61 0
-120 -149 -77 0
-120 -149 -81 0
-120 -149 -85 0
-120 -149 -97 0
-120 -149 -101 0
-120 -149 -105 0
-121 136 140 0
-121 136 144 0
-121 140 144 0
-121 149 0
150 151 152 153 154 155 0
-150 -151 0
-150 -152 0
-150 -153 0
-150 -154 0
-150 -155 0
-151 -152 0
-151 -153 0
-151 -154 0
-151 -155 0
-152 -153 0
-152 -154 0
-152 -155 0
-153 -154 0
-153 -155 0
-154 -155 0
156 157 158 159 0
-156 -157 0
-156 -158 0
-156 -159 0
-157 -158 0
-157 -159 0
-158 -159 0
160 161 162 163 164 165 0
-160 -161 0
-160 -162 0
-160 -163 0
-160 -164 0
-160 -165 0
-161 -162 0
-161 -163 0
-161 -164 0
-161 -165 0
-162 -163 0
-162 -164 0
-162 -165 0
-163 -164 0
-163 -165 0
-164 -165 0
166 167 168 169 0
-166 -167 0
-166 -168 0
-166 -169 0
-167 -168 0
-167 -169 0
-168 -169 0
170 171 172 173 174 0
-170 -171 0
-170 -172 0
-170 -173 0
-170 -174 0
-171 -172 0
-171 -173 0
-171 -174 0
-172 -173 0
-172 -174 0
-173 -174 0
175 176 177 178 0
-175 -176 0
-175 -177 0
-175 -178 0
-176 -177 0
-176 -178 0
-177 -178 0
179 180 181 182 0
-179 -180 0
-179 -181 0
-179 -182 0
-180 -181 0
-180 -182 0
-181 -182 0
183 184 185 186 0
-183 -184 0
-183 -185 0
-183 -186 0
-184 -185 0
-184 -186 0
-185 -186 0
-187 150 0
-187 156 0
-150 -156 187 0
-188 150 0
-188 157 0
-150 -157 188 0
-189 150 0
-189 158 0
-150 -158 189 0
-190 150 0
-190 159 0
-150 -159 190 0
-191 151 0
-191 156 0
-151 -156 191 0
-192 151 0
-192 157 0
-151 -157 192 0
-193 151 0
-193 158 0
-151 -158 193 0
-194 151 0
-194 159 0
-151 -159 194 0
-195 152 0
-195 156 0
-152 -156 195 0
-196 152 0
-196 157 0
-152 -157 196 0
-197 152 0
-197 158 0
-152 -158 197 0
-198 152 0
-198 159 0
-152 -159 198 0
-199 153 0
-199 156 0
-153 -156 199 0
-200 153 0
-200 157 0
-153 -157 200 0
-201 153 0
-201 158 0
-153 -158 201 0
-202 153 0
-202 159 0
-153 -159 202 0
-203 154 0
-203 156 0
-154 -156 203 0
-204 154 0
-204 157 0
-154 -157 204 0
-205 154 0
-205 158 0
-154 -158 205 0
-206 154 0
-206 159 0
-154 -159 206 0
-207 155 0
-207 156 0
-155 -156 207 0
-208 155 0
-208 157 0
-155 -157 208 0
-209 155 0
-209 158 0
-155 -158 209 0
-210 155 0
-210 159 0
-155 -159 210 0
-211 160 0
-211 166 0
-160 -166 211 0
-212 160 0
-212 167 0
-160 -167 212 0
-213 160 0
-213 168 0
-160 -168 213 0
-214 160 0
-214 169 0
-160 -169 214 0
-215 161 0
-215 166 0
-161 -166 215 0
-216 161 0
-216 167 0
-161 -167 216 0
-217 161 0
-217 168 0
-161 -168 217 0
-218 161 0
-218 169 0
-161 -169 218 0
-219 162 0
-219 166 0
-162 -166 219 0
-220 162 0
-220 167 0
-162 -167 220 0
-221 162 0
-221 168 0
-162 -168 221 0
-222 162 0
-222 169 0
-162 -169 222 0
-223 163 0
-223 166 0
-163 -166 223 0
-224 163 0
-224 167 0
-163 -167 224 0
-225 163 0
-225 168 0
-163 -168 225 0
-226 163 0
-226 169 0
-163 -169 226 0
-227 164 0
-227 166 0
-164 -166 227 0
-228 164 0
-228 167 0
-164 -167 228 0
-229 164 0
-229 168 0
-164 -168 229 0
-230 164 0
-230 169 0
-164 -169 230 0
-231 165 0
-231 166 0
-165 -166 231 0
-232 165 0
-232 167 0
-165 -167 232 0
-233 165 0
-233 168 0
-165 -168 233 0
-234 165 0
-234 169 0
-165 -169 234 0
-235 170 0
-235 175 0
-170 -175 235 0
-236 170 0
-236 176 0
-170 -176 236 0
-237 170 0
-237 177 0
-170 -177 237 0
-238 170 0
-238 178 0
-170 -178 238 0
-239 171 0
-239 175 0
-171 -175 239 0
-240 171 0
-240 176 0
-171 -176 240 0
-241 171 0
-241 177 0
-171 -177 241 0
-242 171 0
-242 178 0
-171 -178 242 0
-243 172 0
-243 175 0
-172 -175 243 0
-244 172 0
-244 176 0
-172 -176 244 0
-245 172 0
-245 177 0
-172 -177 245 0
-246 172 0
-246 178 0
-172 -178 246 0
-247 173 0
-247 175 0
-173 -175 247 0
-248 173 0
-248 176 0
-173 -176 248 0
-249 173 0
-249 177 0
-173 -177 249 0
-250 173 0
-250 178 0
-173 -178 250 0
-251 174 0
-251 175 0
-174 -175 251 0
-252 174 0
-252 176 0
-174 -176 252 0
-253 174 0
-253 177 0
-174 -177 253 0
-254 174 0
-254 178 0
-174 -178 254 0
-255 179 0
-255 183 0
-179 -183 255 0
-256 179 0
-256 184 0
-179 -184 256 0
-257 179 0
-257 185 0
-179 -185 257 0
-258 179 0
-258 186 0
-179 -186 258 0
-259 180 0
-259 183 0
-180 -183 259 0
-260 180 0
-260 184 0
-180 -184 260 0
-261 180 0
-261 185 0
-180 -185 261 0
-262 180 0
-262 186 0
-180 -186 262 0
-263 181 0
-263 183 0
-181 -183 263 0
-264 181 0
-264 184 0
-181 -184 264 0
-265 181 0
-265 185 0
-181 -185 265 0
-266 181 0
-266 186 0
-181 -186 266 0
-267 182 0
-267 183 0
-182 -183 267 0
-268 182 0
-268 184 0
-182 -184 268 0
-269 182 0
-269 185 0
-182 -185 269 0
-270 182 0
-270 186 0
-182 -186 270 0
-271 187 211 235 255 0
-187 271 0
-211 271 0
-235 271 0
-255 271 0
-272 188 212 236 256 0
-188 272 0
-212 272 0
-236 272 0
-256 272 0
-273 189 213 237 257 0
-189 273 0
-213 273 0
-237 273 0
-257 273 0
-274 190 214 238 258 0
-190 274 0
-214 274 0
-238 274 0
-258 274 0
-275 191 215 235 239 255 259 0
-191 275 0
-215 275 0
-235 275 0
-239 275 0
-255 275 0
-259 275 0
-276 192 216 236 240 256 260 0
-192 276 0
-216 276 0
-236 276 0
-240 276 0
-256 276 0
-260 276 0
-277 193 217 237 241 257 261 0
-193 277 0
-217 277 0
-237 277 0
-241 277 0
-257 277 0
-261 277 0
-278 194 218 238 242 258 262 0
-194 278 0
-218 278 0
-238 278 0
-242 278 0
-258 278 0
-262 278 0
-279 195 219 239 243 255 259 263 0
-195 279 0
-219 279 0
-239 279 0
-243 279 0
-255 279 0
-259 279 0
-263 279 0
-280 196 220 240 244 256 260 264 0
-196 280 0
-220 280 0
-240 280 0
-244 280 0
-256 280 0
-260 280 0
-264 280 0
-281 197 221 241 245 257 261 265 0
-197 281 0
-221 281 0
-241 281 0
-245 281 0
-257 281 0
-261 281 0
-265 281 0
-282 198 222 242 246 258 262 266 0
-198 282 0
-222 282 0
-242 282 0
-246 282 0
-258 282 0
-262 282 0
-266 282 0
-283 199 223 243 247 259 263 267 0
-199 283 0
-223 283 0
-243 283 0
-247 283 0
-259 283 0
-263 283 0
-267 283 0
-284 200 224 244 248 260 264 268 0
-200 284 0
-224 284 0
-244 284 0
-248 284 0
-260 284 0
-264 284 0
-268 284 0
-285 201 225 245 249 261 265 269 0
-201 285 0
-225 285 0
-245 285 0
-249 285 0
-261 285 0
-265 285 0
-269 285 0
-286 202 226 246 250 262 266 270 0
-202 286 0
-226 286 0
-246 286 0
-250 286 0
-262 286 0
-266 286 0
-270 286 0
-287 203 227 247 251 263 267 0
-203 287 0
-227 287 0
-247 287 0
-251 287 0
-263 287 0
-267 287 0
-288 204 228 248 252 264 268 0
-204 288 0
-228 288 0
-248 288 0
-252 288 0
-264 288 0
-268 288 0
-289 205 229 249 253 265 269 0
-205 289 0
-229 289 0
-249 289 0
-253 289 0
-265 289 0
-269 289 0
-290 206 230 250 254 266 270 0
-206 290 0
-230 290 0
-250 290 0
-254 290 0
-266 290 0
-270 290 0
-291 207 231 251 267 0
-207 291 0
-231 291 0
-251 291 0
-267 291 0
-292 208 232 252 268 0
-208 292 0
-232 292 0
-252 292 0
-268 292 0
-293 209 233 253 269 0
-209 293 0
-233 293 0
-253 293 0
-269 293 0
-294 210 234 254 270 0
-210 294 0
-234 294 0
-254 294 0
-270 294 0
-187 -211 0
-187 -235 0
-187 -255 0
-188 -212 0
-188 -236 0
-188 -256 0
-189 -213 0
-189 -237 0
-189 -257 0
-190 -214 0
-190 -238 0
-190 -258 0
-191 -215 0
-191 -235 0
-191 -239 0
-191 -255 0
-191 -259 0
-192 -216 0
-192 -236 0
-192 -240 0
-192 -256 0
-192 -260 0
-193 -217 0
-193 -237 0
-193 -241 0
-193 -257 0
-193 -261 0
-194 -218 0
-194 -238 0
-194 -242 0
-194 -258 0
-194 -262 0
-195 -219 0
-195 -239 0
-195 -243 0
-195 -255 0
-195 -259 0
-195 -263 0
-196 -220 0
-196 -240 0
-196 -244 0
-196 -256 0
-196 -260 0
-196 -264 0
-197 -221 0
-197 -241 0
-197 -245 0
-197 -257 0
-197 -261 0
-197 -265 0
-198 -222 0
-198 -242 0
-198 -246 0
-198 -258 0
-198 -262 0
-198 -266 0
-199 -223 0
-199 -243 0
-199 -247 0
-199 -259 0
-199 -263 0
-199 -267 0
-200 -224 0
-200 -244 0
-200 -248 0
-200 -260 0
-200 -264 0
-200 -268 0
-201 -225 0
-201 -245 0
-201 -249 0
-201 -261 0
-201 -265 0
-201 -269 0
-202 -226 0
-202 -246 0
-202 -250 0
-202 -262 0
-202 -266 0
-202 -270 0
-203 -227 0
-203 -247 0
-203 -251 0
-203 -263 0
-203 -267 0
-204 -228 0
-204 -248 0
-204 -252 0
-204 -264 0
-204 -268 0
-205 -229 0
-205 -249 0
-205 -253 0
-205 -265 0
-205 -269 0
-206 -230 0
-206 -250 0
-206 -254 0
-206 -266 0
-206 -270 0
-207 -231 0
-207 -251 0
-207 -267 0
-208 -232 0
-208 -252 0
-208 -268 0
-209 -233 0
-209 -253 0
-209 -269 0
-210 -234 0
-210 -254 0
-210 -270 0
-211 -235 0
-211 -255 0
-212 -236 0
-212 -256 0
-213 -237 0
-213 -257 0
-214 -238 0
-214 -258 0
-215 -235 0
-215 -239 0
-215 -255 0
-215 -259 0
-216 -236 0
-216 -240 0
-216 -256 0
-216 -260 0
-217 -237 0
-217 -241 0
-217 -257 0
-217 -261 0
-218 -238 0
-218 -242 0
-218 -258 0
-218 -262 0
-219 -239 0
-219 -243 0
-219 -255 0
-219 -259 0
-219 -263 0
-220 -240 0
-220 -244 0
-220 -256 0
-220 -260 0
-220 -264 0
-221 -241 0
-221 -245 0
-221 -257 0
-221 -261 0
-221 -265 0
-222 -242 0
-222 -246 0
-222 -258 0
-222 -262 0
-222 -266 0
-223 -243 0
-223 -247 0
-223 -259 0
-223 -263 0
-223 -267 0
-224 -244 0
-224 -248 0
-224 -260 0
-224 -264 0
-224 -268 0
-225 -245 0
-225 -249 0
-225 -261 0
-225 -265 0
-225 -269 0
-226 -246 0
-226 -250 0
-226 -262 0
-226 -266 0
-226 -270 0
-227 -247 0
-227 -251 0
-227 -263 0
-227 -267 0
-228 -248 0
-228 -252 0
-228 -264 0
-228 -268 0
-229 -249 0
-229 -253 0
-229 -265 0
-229 -269 0
-230 -250 0
-230 -254 0
-230 -266 0
-230 -270 0
-231 -251 0
-231 -267 0
-232 -252 0
-232 -268 0
-233 -253 0
-233 -269 0
-234 -254 0
-234 -270 0
-235 -255 0
-235 -259 0
-236 -256 0
-236 -260 0
-237 -257 0
-237 -261 0
-238 -258 0
-238 -262 0
-239 -255 0
-239 -259 0
-239 -263 0
-240 -256 0
-240 -260 0
-240 -264 0
-241 -257 0
-241 -261 0
-241 -265 0
-242 -258 0
-242 -262 0
-242 -266 0
-243 -255 0
-243 -259 0
-243 -263 0
-243 -267 0
-244 -256 0
-244 -260 0
-244 -264 0
-244 -268 0
-245 -257 0
-245 -261 0
-245 -265 0
-245 -269 0
-246 -258 0
-246 -262 0
-246 -266 0
-246 -270 0
-247 -259 0
-247 -263 0
-247 -267 0
-248 -260 0
-248 -264 0
-248 -268 0
-249 -261 0
-249 -265 0
-249 -269 0
-250 -262 0
-250 -266 0
-250 -270 0
-251 -263 0
-251 -267 0
-252 -264 0
-252 -268 0
-253 -265 0
-253 -269 0
-254 -266 0
-254 -270 0
-187 295 212 213 214 236 237 238 256 257 258 0
-187 -295 -212 0
-187 -295 -213 0
-187 -295 -214 0
-187 -295 -236 0
-187 -295 -237 0
-187 -295 -238 0
-187 -295 -256 0
-187 -295 -257 0
-187 -295 -258 0
-188 271 0
-188 295 213 214 237 238 257 258 0
-188 -295 -213 0
-188 -295 -214 0
-188 -295 -237 0
-188 -295 -238 0
-188 -295 -257 0
-188 -295 -258 0
-189 272 0
-189 295 214 238 258 0
-189 -295 -214 0
-189 -295 -238 0
-189 -295 -258 0
-190 273 0
-190 295 0
-191 295 216 217 218 236 237 238 240 241 242 256 257 258 260 261 262 0
-191 -295 -216 0
-191 -295 -217 0
-191 -295 -218 0
-191 -295 -236 0
-191 -295 -237 0
-191 -295 -238 0
-191 -295 -240 0
-191 -295 -241 0
-191 -295 -242 0
-191 -295 -256 0
-191 -295 -257 0
-191 -295 -258 0
-191 -295 -260 0
-191 -295 -261 0
-191 -295 -262 0
-192 275 0
-192 295 217 218 237 238 241 242 257 258 261 262 0
-192 -295 -217 0
-192 -295 -218 0
-192 -295 -237 0
-192 -295 -238 0
-192 -295 -241 0
-192 -295 -242 0
-192 -295 -257 0
-192 -295 -258 0
-192 -295 -261 0
-192 -295 -262 0
-193 276 0
-193 295 218 238 242 258 262 0
-193 -295 -218 0
-193 -295 -238 0
-193 -295 -242 0
-193 -295 -258 0
-193 -295 -262 0
-194 277 0
-194 295 0
-195 295 220 221 222 240 241 242 244 245 246 256 257 258 260 261 262 264 265 266 0
-195 -295 -220 0
-195 -295 -221 0
-195 -295 -222 0
-195 -295 -240 0
-195 -295 -241 0
-195 -295 -242 0
-195 -295 -244 0
-195 -295 -245 0
-195 -295 -246 0
-195 -295 -256 0
-195 -295 -257 0
-195 -295 -258 0
-195 -295 -260 0
-195 -295 -261 0
-195 -295 -262 0
-195 -295 -264 0
-195 -295 -265 0
-195 -295 -266 0
-196 279 0
-196 295 221 222 241 242 245 246 257 258 261 262 265 266 0
-196 -295 -221 0
-196 -295 -222 0
-196 -295 -241 0
-196 -295 -242 0
-196 -295 -245 0
-196 -295 -246 0
-196 -295 -257 0
-196 -295 -258 0
-196 -295 -261 0
-196 -295 -262 0
-196 -295 -265 0
-196 -295 -266 0
-197 280 0
-197 295 222 242 246 258 262 266 0
-197 -295 -222 0
-197 -295 -242 0
-197 -295 -246 0
-197 -295 -258 0
-197 -295 -262 0
-197 -295 -266 0
-198 281 0
-198 295 0
-199 295 224 225 226 244 245 246 248 249 250 260 261 262 264 265 266 268 269 270 0
-199 -295 -224 0
-199 -295 -225 0
-199 -295 -226 0
-199 -295 -244 0
-199 -295 -245 0
-199 -295 -246 0
-199 -295 -248 0
-199 -295 -249 0
-199 -295 -250 0
-199 -295 -260 0
-199 -295 -261 0
-199 -295 -262 0
-199 -295 -264 0
-199 -295 -265 0
-199 -295 -266 0
-199 -295 -268 0
-199 -295 -269 0
-199 -295 -270 0
-200 283 0
-200 295 225 226 245 246 249 250 261 262 265 266 269 270 0
-200 -295 -225 0
-200 -295 -226 0
-200 -295 -245 0
-200 -295 -246 0
-200 -295 -249 0
-200 -295 -250 0
-200 -295 -261 0
-200 -295 -262 0
-200 -295 -265 0
-200 -295 -266 0
-200 -295 -269 0
-200 -295 -270 0
-201 284 0
-201 295 226 246 250 262 266 270 0
-201 -295 -226 0
-201 -295 -246 0
-201 -295 -250 0
-201 -295 -262 0
-201 -295 -266 0
-201 -295 -270 0
-202 285 0
-202 295 0
-203 295 228 229 230 248 249 250 252 253 254 264 265 266 268 269 270 0
-203 -295 -228 0
-203 -295 -229 0
-203 -295 -230 0
-203 -295 -248 0
-203 -295 -249 0
-203 -295 -250 0
-203 -295 -252 0
-203 -295 -253 0
-203 -295 -254 0
-203 -295 -264 0
-203 -295 -265 0
-203 -295 -266 0
-203 -295 -268 0
-203 -295 -269 0
-203 -295 -270 0
-204 287 0
-204 295 229 230 249 250 253 254 265 266 269 270 0
-204 -295 -229 0
-204 -295 -230 0
-204 -295 -249 0
-204 -295 -250 0
-204 -295 -253 0
-204 -295 -254 0
-204 -295 -265 0
-204 -295 -266 0
-204 -295 -269 0
-204 -295 -270 0
-205 288 0
-205 295 230 250 254 266 270 0
-205 -295 -230 0
-205 -295 -250 0
-205 -295 -254 0
-205 -295 -266 0
-205 -295 -270 0
-206 289 0
-206 295 0
-207 295 232 233 234 252 253 254 268 269 270 0
-207 -295 -232 0
-207 -295 -233 0
-207 -295 -234 0
-207 -295 -252 0
-207 -295 -253 0
-207 -295 -254 0
-207 -295 -268 0
-207 -295 -269 0
-207 -295 -270 0
-208 291 0
-208 295 233 234 253 254 269 270 0
-208 -295 -233 0
-208 -295 -234 0
-208 -295 -253 0
-208 -295 -254 0
-208 -295 -269 0
-208 -295 -270 0
-209 292 0
-209 295 234 254 270 0
-209 -295 -234 0
-209 -295 -254 0
-209 -295 -270 0
-210 293 0
-210 295 0
-211 296 188 189 190 236 237 238 256 257 258 0
-211 -296 -188 0
-211 -296 -189 0
-211 -296 -190 0
-211 -296 -236 0
-211 -296 -237 0
-211 -296 -238 0
-211 -296 -256 0
-211 -296 -257 0
-211 -296 -258 0
-212 271 0
-212 296 189 190 237 238 257 258 0
-212 -296 -189 0
-212 -296 -190 0
-212 -296 -237 0
-212 -296 -238 0
-212 -296 -257 0
-212 -296 -258 0
-213 272 0
-213 296 190 238 258 0
-213 -296 -190 0
-213 -296 -238 0
-213 -296 -258 0
-214 273 0
-214 296 0
-215 296 192 193 194 236 237 238 240 241 242 256 257 258 260 261 262 0
-215 -296 -192 0
-215 -296 -193 0
-215 -296 -194 0
-215 -296 -236 0
-215 -296 -237 0
-215 -296 -238 0
-215 -296 -240 0
-215 -296 -241 0
-215 -296 -242 0
-215 -296 -256 0
-215 -296 -257 0
-215 -296 -258 0
-215 -296 -260 0
-215 -296 -261 0
-215 -296 -262 0
-216 275 0
-216 296 193 194 237 238 241 242 257 258 261 262 0
-216 -296 -193 0
-216 -296 -194 0
-216 -296 -237 0
-216 -296 -238 0
-216 -296 -241 0
-216 -296 -242 0
-216 -296 -257 0
-216 -296 -258 0
-216 -296 -261 0
-216 -296 -262 0
-217 276 0
-217 296 194 238 242 258 262 0
-217 -296 -194 0
-217 -296 -238 0
-217 -296 -242 0
-217 -296 -258 0
-217 -296 -262 0
-218 277 0
-218 296 0
-219 296 196 197 198 240 241 242 244 245 246 256 257 258 260 261 262 264 265 266 0
-219 -296 -196 0
-219 -296 -197 0
-219 -296 -198 0
-219 -296 -240 0
-219 -296 -241 0
-219 -296 -242 0
-219 -296 -244 0
-219 -296 -245 0
-219 -296 -246 0
-219 -296 -256 0
-219 -296 -257 0
-219 -296 -258 0
-219 -296 -260 0
-219 -296 -261 0
-219 -296 -262 0
-219 -296 -264 0
-219 -296 -265 0
-219 -296 -266 0
-220 279 0
-220 296 197 198 241 242 245 246 257 258 261 262 265 266 0
-220 -296 -197 0
-220 -296 -198 0
-220 -296 -241 0
-220 -296 -242 0
-220 -296 -245 0
-220 -296 -246 0
-220 -296 -257 0
-220 -296 -258 0
-220 -296 -261 0
-220 -296 -262 0
-220 -296 -265 0
-220 -296 -266 0
-221 280 0
-221 296 198 242 246 258 262 266 0
-221 -296 -198 0
-221 -296 -242 0
-221 -296 -246 0
-221 -296 -258 0
-221 -296 -262 0
-221 -296 -266 0
-222 281 0
-222 296 0
-223 296 200 201 202 244 245 246 248 249 250 260 261 262 264 265 266 268 269 270 0
-223 -296 -200 0
-223 -296 -201 0
-223 -296 -202 0
-223 -296 -244 0
-223 -296 -245 0
-223 -296 -246 0
-223 -296 -248 0
-223 -296 -249 0
-223 -296 -250 0
-223 -296 -260 0
-223 -296 -261 0
-223 -296 -262 0
-223 -296 -264 0
-223 -296 -265 0
-223 -296 -266 0
-223 -296 -268 0
-223 -296 -269 0
-223 -296 -270 0
-224 283 0
-224 296 201 202 245 246 249 250 261 262 265 266 269 270 0
-224 -296 -201 0
-224 -296 -202 0
-224 -296 -245 0
-224 -296 -246 0
-224 -296 -249 0
-224 -296 -250 0
-224 -296 -261 0
-224 -296 -262 0
-224 -296 -265 0
-224 -296 -266 0
-224 -296 -269 0
-224 -296 -270 0
-225 284 0
-225 296 202 246 250 262 266 270 0
-225 -296 -202 0
-225 -296 -246 0
-225 -296 -250 0
-225 -296 -262 0
-225 -296 -266 0
-225 -296 -270 0
-226 285 0
-226 296 0
-227 296 204 205 206 248 249 250 252 253 254 264 265 266 268 269 270 0
-227 -296 -204 0
-227 -296 -205 0
-227 -296 -206 0
-227 -296 -248 0
-227 -296 -249 0
-227 -296 -250 0
-227 -296 -252 0
-227 -296 -253 0
-227 -296 -254 0
-227 -296 -264 0
-227 -296 -265 0
-227 -296 -266 0
-227 -296 -268 0
-227 -296 -269 0
-227 -296 -270 0
-228 287 0
-228 296 205 206 249 250 253 254 265 266 269 270 0
-228 -296 -205 0
-228 -296 -206 0
-228 -296 -249 0
-228 -296 -250 0
-228 -296 -253 0
-228 -296 -254 0
-228 -296 -265 0
-228 -296 -266 0
-228 -296 -269 0
-228 -296 -270 0
-229 288 0
-229 296 206 250 254 266 270 0
-229 -296 -206 0
-229 -296 -250 0
-229 -296 -254 0
-229 -296 -266 0
-229 -296 -270 0
-230 289 0
-230 296 0
-231 296 208 209 210 252 253 254 268 269 270 0
-231 -296 -208 0
-231 -296 -209 0
-231 -296 -210 0
-231 -296 -252 0
-231 -296 -253 0
-231 -296 -254 0
-231 -296 -268 0
-231 -296 -269 0
-231 -296 -270 0
-232 291 0
-232 296 209 210 253 254 269 270 0
-232 -296 -209 0
-232 -296 -210 0
-232 -296 -253 0
-232 -296 -254 0
-232 -296 -269 0
-232 -296 -270 0
-233 292 0
-233 296 210 254 270 0
-233 -296 -210 0
-233 -296 -254 0
-233 -296 -270 0
-234 293 0
-234 296 0
-235 297 188 189 190 192 193 194 212 213 214 216 217 218 256 257 258 260 261 262 0
-235 -297 -188 0
-235 -297 -189 0
-235 -297 -190 0
-235 -297 -192 0
-235 -297 -193 0
-235 -297 -194 0
-235 -297 -212 0
-235 -297 -213 0
-235 -297 -214 0
-235 -297 -216 0
-235 -297 -217 0
-235 -297 -218 0
-235 -297 -256 0
-235 -297 -257 0
-235 -297 -258 0
-235 -297 -260 0
-235 -297 -261 0
-235 -297 -262 0
-236 271 275 0
-236 297 189 190 193 194 213 214 217 218 257 258 261 262 0
-236 -297 -189 0
-236 -297 -190 0
-236 -297 -193 0
-236 -297 -194 0
-236 -297 -213 0
-236 -297 -214 0
-236 -297 -217 0
-236 -297 -218 0
-236 -297 -257 0
-236 -297 -258 0
-236 -297 -261 0
-236 -297 -262 0
-237 272 276 0
-237 297 190 194 214 218 258 262 0
-237 -297 -190 0
-237 -297 -194 0
-237 -297 -214 0
-237 -297 -218 0
-237 -297 -258 0
-237 -297 -262 0
-238 273 277 0
-238 297 0
-239 297 192 193 194 196 197 198 216 217 218 220 221 222 256 257 258 260 261 262 264 265 266 0
-239 -297 -192 0
-239 -297 -193 0
-239 -297 -194 0
-239 -297 -196 0
-239 -297 -197 0
-239 -297 -198 0
-239 -297 -216 0
-239 -297 -217 0
-239 -297 -218 0
-239 -297 -220 0
-239 -297 -221 0
-239 -297 -222 0
-239 -297 -256 0
-239 -297 -257 0
-239 -297 -258 0
-239 -297 -260 0
-239 -297 -261 0
-239 -297 -262 0
-239 -297 -264 0
-239 -297 -265 0
-239 -297 -266 0
-240 275 279 0
-240 297 193 194 197 198 217 218 221 222 257 258 261 262 265 266 0
-240 -297 -193 0
-240 -297 -194 0
-240 -297 -197 0
-240 -297 -198 0
-240 -297 -217 0
-240 -297 -218 0
-240 -297 -221 0
-240 -297 -222 0
-240 -297 -257 0
-240 -297 -258 0
-240 -297 -261 0
-240 -297 -262 0
-240 -297 -265 0
-240 -297 -266 0
-241 276 280 0
-241 297 194 198 218 222 258 262 266 0
-241 -297 -194 0
-241 -297 -198 0
-241 -297 -218 0
-241 -297 -222 0
-241 -297 -258 0
-241 -297 -262 0
-241 -297 -266 0
-242 277 281 0
-242 297 0
-243 297 196 197 198 200 201 202 220 221 222 224 225 226 256 257 258 260 261 262 264 265 266 268 269 270 0
-243 -297 -196 0
-243 -297 -197 0
-243 -297 -198 0
-243 -297 -200 0
-243 -297 -201 0
-243 -297 -202 0
-243 -297 -220 0
-243 -297 -221 0
-243 -297 -222 0
-243 -297 -224 0
-243 -297 -225 0
-243 -297 -226 0
-243 -297 -256 0
-243 -297 -257 0
-243 -297 -258 0
-243 -297 -260 0
-243 -297 -261 0
-243 -297 -262 0
-243 -297 -264 0
-243 -297 -265 0
-243 -297 -266 0
-243 -297 -268 0
-243 -297 -269 0
-243 -297 -270 0
-244 279 283 0
-244 297 197 198 201 202 221 222 225 226 257 258 261 262 265 266 269 270 0
-244 -297 -197 0
-244 -297 -198 0
-244 -297 -201 0
-244 -297 -202 0
-244 -297 -221 0
-244 -297 -222 0
-244 -297 -225 0
-244 -297 -226 0
-244 -297 -257 0
-244 -297 -258 0
-244 -297 -261 0
-244 -297 -262 0
-244 -297 -265 0
-244 -297 -266 0
-244 -297 -269 0
-244 -297 -270 0
-245 280 284 0
-245 297 198 202 222 226 258 262 266 270 0
-245 -297 -198 0
-245 -297 -202 0
-245 -297 -222 0
-245 -297 -226 0
-245 -297 -258 0
-245 -297 -262 0
-245 -297 -266 0
-245 -297 -270 0
-246 281 285 0
-246 297 0
-247 297 200 201 202 204 205 206 224 225 226 228 229 230 260 261 262 264 265 266 268 269 270 0
-247 -297 -200 0
-247 -297 -201 0
-247 -297 -202 0
-247 -297 -204 0
-247 -297 -205 0
-247 -297 -206 0
-247 -297 -224 0
-247 -297 -225 0
-247 -297 -226 0
-247 -297 -228 0
-247 -297 -229 0
-247 -297 -230 0
-247 -297 -260 0
-247 -297 -261 0
-247 -297 -262 0
-247 -297 -264 0
-247 -297 -265 0
-247 -297 -266 0
-247 -297 -268 0
-247 -297 -269 0
-247 -297 -270 0
-248 283 287 0
-248 297 201 202 205 206 225 226 229 230 261 262 265 266 269 270 0
-248 -297 -201 0
-248 -297 -202 0
-248 -297 -205 0
-248 -297 -206 0
-248 -297 -225 0
-248 -297 -226 0
-248 -297 -229 0
-248 -297 -230 0
-248 -297 -261 0
-248 -297 -262 0
-248 -297 -265 0
-248 -297 -266 0
-248 -297 -269 0
-248 -297 -270 0
-249 284 288 0
-249 297 202 206 226 230 262 266 270 0
-249 -297 -202 0
-249 -297 -206 0
-249 -297 -226 0
-249 -297 -230 0
-249 -297 -262 0
-249 -297 -266 0
-249 -297 -270 0
-250 285 289 0
-250 297 0
-251 297 204 205 206 208 209 210 228 229 230 232 233 234 264 265 266 268 269 270 0
-251 -297 -204 0
-251 -297 -205 0
-251 -297 -206 0
-251 -297 -208 0
-251 -297 -209 0
-251 -297 -210 0
-251 -297 -228 0
-251 -297 -229 0
-251 -297 -230 0
-251 -297 -232 0
-251 -297 -233 0
-251 -297 -234 0
-251 -297 -264 0
-251 -297 -265 0
-251 -297 -266 0
-251 -297 -268 0
-251 -297 -269 0
-251 -297 -270 0
-252 287 291 0
-252 297 205 206 209 210 229 230 233 234 265 266 269 270 0
-252 -297 -205 0
-252 -297 -206 0
-252 -297 -209 0
-252 -297 -210 0
-252 -297 -229 0
-252 -297 -230 0
-252 -297 -233 0
-252 -297 -234 0
-252 -297 -265 0
-252 -297 -266 0
-252 -297 -269 0
-252 -297 -270 0
-253 288 292 0
-253 297 206 210 230 234 266 270 0
-253 -297 -206 0
-253 -297 -210 0
-253 -297 -230 0
-253 -297 -234 0
-253 -297 -266 0
-253 -297 -270 0
-254 289 293 0
-254 297 0
-255 298 188 189 190 192 193 194 196 197 198 212 213 214 216 217 218 220 221 222 236 237 238 240 241 242 244 245 246 0
-255 -298 -188 0
-255 -298 -189 0
-255 -298 -190 0
-255 -298 -192 0
-255 -298 -193 0
-255 -298 -194 0
-255 -298 -196 0
-255 -298 -197 0
-255 -298 -198 0
-255 -298 -212 0
-255 -298 -213 0
-255 -298 -214 0
-255 -298 -216 0
-255 -298 -217 0
-255 -298 -218 0
-255 -298 -220 0
-255 -298 -221 0
-255 -298 -222 0
-255 -298 -236 0
-255 -298 -237 0
-255 -298 -238 0
-255 -298 -240 0
-255 -298 -241 0
-255 -298 -242 0
-255 -298 -244 0
-255 -298 -245 0
-255 -298 -246 0
-256 271 275 0
-256 271 279 0
-256 275 279 0
-256 298 189 190 193 194 197 198 213 214 217 218 221 222 237 238 241 242 245 246 0
-256 -298 -189 0
-256 -298 -190 0
-256 -298 -193 0
-256 -298 -194 0
-256 -298 -197 0
-256 -298 -198 0
-256 -298 -213 0
-256 -298 -214 0
-256 -298 -217 0
-256 -298 -218 0
-256 -298 -221 0
-256 -298 -222 0
-256 -298 -237 0
-256 -298 -238 0
-256 -298 -241 0
-256 -298 -242 0
-256 -298 -245 0
-256 -298 -246 0
-257 272 276 0
-257 272 280 0
-257 276 280 0
-257 298 190 194 198 214 218 222 238 242 246 0
-257 -298 -190 0
-257 -298 -194 0
-257 -298 -198 0
-257 -298 -214 0
-257 -298 -218 0
-257 -298 -222 0
-257 -298 -238 0
-257 -298 -242 0
-257 -298 -246 0
-258 273 277 0
-258 273 281 0
-258 277 281 0
-258 298 0
-259 298 192 193 194 196 197 198 200 201 202 216 217 218 220 221 222 224 225 226 236 237 238 240 241 242 244 245 246 248 249 250 0
-259 -298 -192 0
-259 -298 -193 0
-259 -298 -194 0
-259 -298 -196 0
-259 -298 -197 0
-259 -298 -198 0
-259 -298 -200 0
-259 -298 -201 0
-259 -298 -202 0
-259 -298 -216 0
-259 -298 -217 0
-259 -298 -218 0
-259 -298 -220 0
-259 -298 -221 0
-259 -298 -222 0
-259 -298 -224 0
-259 -298 -225 0
-259 -298 -226 0
-259 -298 -236 0
-259 -298 -237 0
-259 -298 -238 0
-259 -298 -240 0
-259 -298 -241 0
-259 -298 -242 0
-259 -298 -244 0
-259 -298 -245 0
-259 -298 -246 0
-259 -298 -248 0
-259 -298 -249 0
-259 -298 -250 0
-260 275 279 0
-260 275 283 0
-260 279 283 0
-260 298 193 194 197 198 201 202 217 218 221 222 225 226 237 238 241 242 245 246 249 250 0
-260 -298 -193 0
-260 -298 -194 0
-260 -298 -197 0
-260 -298 -198 0
-260 -298 -201 0
-260 -298 -202 0
-260 -298 -217 0
-260 -298 -218 0
-260 -298 -221 0
-260 -298 -222 0
-260 -298 -225 0
-260 -298 -226 0
-260 -298 -237 0
-260 -298 -238 0
-260 -298 -241 0
-260 -298 -242 0
-260 -298 -245 0
-260 -298 -246 0
-260 -298 -249 0
-260 -298 -250 0
-261 276 280 0
-261 276 284 0
-261 280 284 0
-261 298 194 198 202 218 222 226 238 242 246 250 0
-261 -298 -194 0
-261 -298 -198 0
-261 -298 -202 0
-261 -298 -218 0
-261 -298 -222 0
-261 -298 -226 0
-261 -298 -238 0
-261 -298 -242 0
-261 -298 -246 0
-261 -298 -250 0
-262 277 281 0
-262 277 285 0
-262 281 285 0
-262 298 0
-263 298 196 197 198 200 201 202 204 205 206 220 221 222 224 225 226 228 229 230 240 241 242 244 245 246 248 249 250 252 253 254 0
-263 -298 -196 0
-263 -298 -197 0
-263 -298 -198 0
-263 -298 -200 0
-263 -298 -201 0
-263 -298 -202 0
-263 -298 -204 0
-263 -298 -205 0
-263 -298 -206 0
-263 -298 -220 0
-263 -298 -221 0
-263 -298 -222 0
-263 -298 -224 0
-263 -298 -225 0
-263 -298 -226 0
-263 -298 -228 0
-263 -298 -229 0
-263 -298 -230 0
-263 -298 -240 0
-263 -298 -241 0
-263 -298 -242 0
-263 -298 -244 0
-263 -298 -245 0
-263 -298 -246 0
-263 -298 -248 0
-263 -298 -249 0
-263 -298 -250 0
-263 -298 -252 0
-263 -298 -253 0
-263 -298 -254 0
-264 279 283 0
-264 279 287 0
-264 283 287 0
-264 298 197 198 201 202 205 206 221 222 225 226 229 230 241 242 245 246 249 250 253 254 0
-264 -298 -197 0
-264 -298 -198 0
-264 -298 -201 0
-264 -298 -202 0
-264 -298 -205 0
-264 -298 -206 0
-264 -298 -221 0
-264 -298 -222 0
-264 -298 -225 0
-264 -298 -226 0
-264 -298 -229 0
-264 -298 -230 0
-264 -298 -241 0
-264 -298 -242 0
-264 -298 -245 0
-264 -298 -246 0
-264 -298 -249 0
-264 -298 -250 0
-264 -298 -253 0
-264 -298 -254 0
-265 280 284 0
-265 280 288 0
-265 284 288 0
-265 298 198 202 206 222 226 230 242 246 250 254 0
-265 -298 -198 0
-265 -298 -202 0
-265 -298 -206 0
-265 -298 -222 0
-265 -298 -226 0
-265 -298 -230 0
-265 -298 -242 0
-265 -298 -246 0
-265 -298 -250 0
-265 -298 -254 0
-266 281 285 0
-266 281 289 0
-266 285 289 0
-266 298 0
-267 298 200 201 202 204 205 206 208 209 210 224 225 226 228 229 230 232 233 234 244 245 246 248 249 250 252 253 254 0
-267 -298 -200 0
-267 -298 -201 0
-267 -298 -202 0
-267 -298 -204 0
-267 -298 -205 0
-267 -298 -206 0
-267 -298 -208 0
-267 -298 -209 0
-267 -298 -210 0
-267 -298 -224 0
-267 -298 -225 0
-267 -298 -226 0
-267 -298 -228 0
-267 -298 -229 0
-267 -298 -230 0
-267 -298 -232 0
-267 -298 -233 0
-267 -298 -234 0
-267 -298 -244 0
-267 -298 -245 0
-267 -298 -246 0
-267 -298 -248 0
-267 -298 -249 0
-267 -298 -250 0
-267 -298 -252 0
-267 -298 -253 0
-267 -298 -254 0
-268 283 287 0
-268 283 291 0
-268 287 291 0
-268 298 201 202 205 206 209 210 225 226 229 230 233 234 245 246 249 250 253 254 0
-268 -298 -201 0
-268 -298 -202 0
-268 -298 -205 0
-268 -298 -206 0
-268 -298 -209 0
-268 -298 -210 0
-268 -298 -225 0
-268 -298 -226 0
-268 -298 -229 0
-268 -298 -230 0
-268 -298 -233 0
-268 -298 -234 0
-268 -298 -245 0
-268 -298 -246 0
-268 -298 -249 0
-268 -298 -250 0
-268 -298 -253 0
-268 -298 -254 0
-269 284 288 0
-269 284 292 0
-269 288 292 0
-269 298 202 206 210 226 230 234 246 250 254 0
-269 -298 -202 0
-269 -298 -206 0
-269 -298 -210 0
-269 -298 -226 0
-269 -298 -230 0
-269 -298 -234 0
-269 -298 -246 0
-269 -298 -250 0
-269 -298 -254 0
-270 285 289 0
-270 285 293 0
-270 289 293 0
-270 298 0
299 300 301 302 303 304 0
-299 -300 0
-299 -301 0
-299 -302 0
-299 -303 0
-299 -304 0
-300 -301 0
-300 -302 0
-300 -303 0
-300 -304 0
-301 -302 0
-301 -303 0
-301 -304 0
-302 -303 0
-302 -304 0
-303 -304 0
305 306 307 308 0
-305 -306 0
-305 -307 0
-305 -308 0
-306 -307 0
-306 -308 0
-307 -308 0
309 310 311 312 313 314 0
-309 -310 0
-309 -311 0
-309 -312 0
-309 -313 0
-309 -314 0
-310 -311 0
-310 -312 0
-310 -313 0
-310 -314 0
-311 -312 0
-311 -313 0
-311 -314 0
-312 -313 0
-312 -314 0
-313 -314 0
315 316 317 318 0
-315 -316 0
-315 -317 0
-315 -318 0
-316 -317 0
-316 -318 0
-317 -318 0
319 320 321 322 323 0
-319 -320 0
-319 -321 0
-319 -322 0
-319 -323 0
-320 -321 0
-320 -322 0
-320 -323 0
-321 -322 0
-321 -323 0
-322 -323 0
324 325 326 327 0
-324 -325 0
-324 -326 0
-324 -327 0
-325 -326 0
-325 -327 0
-326 -327 0
328 329 330 331 0
-328 -329 0
-328 -330 0
-328 -331 0
-329 -330 0
-329 -331 0
-330 -331 0
332 333 334 335 0
-332 -333 0
-332 -334 0
-332 -335 0
-333 -334 0
-333 -335 0
-334 -335 0
-336 299 0
-336 305 0
-299 -305 336 0
-337 299 0
-337 306 0
-299 -306 337 0
-338 299 0
-338 307 0
-299 -307 338 0
-339 299 0
-339 308 0
-299 -308 339 0
-340 300 0
-340 305 0
-300 -305 340 0
-341 300 0
-341 306 0
-300 -306 341 0
-342 300 0
-342 307 0
-300 -307 342 0
-343 300 0
-343 308 0
-300 -308 343 0
-344 301 0
-344 305 0
-301 -305 344 0
-345 301 0
-345 306 0
-301 -306 345 0
-346 301 0
-346 307 0
-301 -307 346 0
-347 301 0
-347 308 0
-301 -308 347 0
-348 302 0
-348 305 0
-302 -305 348 0
-349 302 0
-349 306 0
-302 -306 349 0
-350 302 0
-350 307 0
-302 -307 350 0
-351 302 0
-351 308 0
-302 -308 351 0
-352 303 0
-352 305 0
-303 -305 352 0
-353 303 0
-353 306 0
-303 -306 353 0
-354 303 0
-354 307 0
-303 -307 354 0
-355 303 0
-355 308 0
-303 -308 355 0
-356 304 0
-356 305 0
-304 -305 356 0
-357 304 0
-357 306 0
-304 -306 357 0
-358 304 0
-358 307 0
-304 -307 358 0
-359 304 0
-359 308 0
-304 -308 359 0
-360 309 0
-360 315 0
-309 -315 360 0
-361 309 0
-361 316 0
-309 -316 361 0
-362 309 0
-362 317 0
-309 -317 362 0
-363 309 0
-363 318 0
-309 -318 363 0
-364 310 0
-364 315 0
-310 -315 364 0
-365 310 0
-365 316 0
-310 -316 365 0
-366 310 0
-366 317 0
-310 -317 366 0
-367 310 0
-367 318 0
-310 -318 367 0
-368 311 0
-368 315 0
-311 -315 368 0
-369 311 0
-369 316 0
-311 -316 369 0
-370 311 0
-370 317 0
-311 -317 370 0
-371 311 0
-371 318 0
-311 -318 371 0
-372 312 0
-372 315 0
-312 -315 372 0
-373 312 0
-373 316 0
-312 -316 373 0
-374 312 0
-374 317 0
-312 -317 374 0
-375 312 0
-375 318 0
-312 -318 375 0
-376 313 0
-376 315 0
-313 -315 376 0
-377 313 0
-377 316 0
-313 -316 377 0
-378 313 0
-378 317 0
-313 -317 378 0
-379 313 0
-379 318 0
-313 -318 379 0
-380 314 0
-380 315 0
-314 -315 380 0
-381 314 0
-381 316 0
-314 -316 381 0
-382 314 0
-382 317 0
-314 -317 382 0
-383 314 0
-383 318 0
-314 -318 383 0
-384 319 0
-384 324 0
-319 -324 384 0
-385 319 0
-385 325 0
-319 -325 385 0
-386 319 0
-386 326 0
-319 -326 386 0
-387 319 0
-387 327 0
-319 -327 387 0
-388 320 0
-388 324 0
-320 -324 388 0
-389 320 0
-389 325 0
-320 -325 389 0
-390 320 0
-390 326 0
-320 -326 390 0
-391 320 0
-391 327 0
-320 -327 391 0
-392 321 0
-392 324 0
-321 -324 392 0
-393 321 0
-393 325 0
-321 -325 393 0
-394 321 0
-394 326 0
-321 -326 394 0
-395 321 0
-395 327 0
-321 -327 395 0
-396 322 0
-396 324 0
-322 -324 396 0
-397 322 0
-397 325 0
-322 -325 397 0
-398 322 0
-398 326 0
-322 -326 398 0
-399 322 0
-399 327 0
-322 -327 399 0
-400 323 0
-400 324 0
-323 -324 400 0
-401 323 0
-401 325 0
-323 -325 401 0
-402 323 0
-402 326 0
-323 -326 402 0
-403 323 0
-403 327 0
-323 -327 403 0
-404 328 0
-404 332 0
-328 -332 404 0
-405 328 0
-405 333 0
-328 -333 405 0
-406 328 0
-406 334 0
-328 -334 406 0
-407 328 0
-407 335 0
-328 -335 407 0
-408 329 0
-408 332 0
-329 -332 408 0
-409 329 0
-409 333 0
-329 -333 409 0
-410 329 0
-410 334 0
-329 -334 410 0
-411 329 0
-411 335 0
-329 -335 411 0
-412 330 0
-412 332 0
-330 -332 412 0
-413 330 0
-413 333 0
-330 -333 413 0
-414 330 0
-414 334 0
-330 -334 414 0
-415 330 0
-415 335 0
-330 -335 415 0
-416 331 0
-416 332 0
-331 -332 416 0
-417 331 0
-417 333 0
-331 -333 417 0
-418 331 0
-418 334 0
-331 -334 418 0
-419 331 0
-419 335 0
-331 -335 419 0
-420 336 360 384 404 0
-336 420 0
-360 420 0
-384 420 0
-404 420 0
-421 337 361 385 405 0
-337 421 0
-361 421 0
-385 421 0
-405 421 0
-422 338 362 386 406 0
-338 422 0
-362 422 0
-386 422 0
-406 422 0
-423 339 363 387 407 0
-339 423 0
-363 423 0
-387 423 0
-407 423 0
-424 340 364 384 388 404 408 0
-340 424 0
-364 424 0
-384 424 0
-388 424 0
-404 424 0
-408 424 0
-425 341 365 385 389 405 409 0
-341 425 0
-365 425 0
-385 425 0
-389 425 0
-405 425 0
-409 425 0
-426 342 366 386 390 406 410 0
-342 426 0
-366 426 0
-386 426 0
-390 426 0
-406 426 0
-410 426 0
-427 343 367 387 391 407 411 0
-343 427 0
-367 427 0
-387 427 0
-391 427 0
-407 427 0
-411 427 0
-428 344 368 388 392 404 408 412 0
-344 428 0
-368 428 0
-388 428 0
-392 428 0
-404 428 0
-408 428 0
-412 428 0
-429 345 369 389 393 405 409 413 0
-345 429 0
-369 429 0
-389 429 0
-393 429 0
-405 429 0
-409 429 0
-413 429 0
-430 346 370 390 394 406 410 414 0
-346 430 0
-370 430 0
-390 430 0
-394 430 0
-406 430 0
-410 430 0
-414 430 0
-431 347 371 391 395 407 411 415 0
-347 431 0
-371 431 0
-391 431 0
-395 431 0
-407 431 0
-411 431 0
-415 431 0
-432 348 372 392 396 408 412 416 0
-348 432 0
-372 432 0
-392 432 0
-396 432 0
-408 432 0
-412 432 0
-416 432 0
-433 349 373 393 397 409 413 417 0
-349 433 0
-373 433 0
-393 433 0
-397 433 0
-409 433 0
-413 433 0
-417 433 0
-434 350 374 394 398 410 414 418 0
-350 434 0
-374 434 0
-394 434 0
-398 434 0
-410 434 0
-414 434 0
-418 434 0
-435 351 375 395 399 411 415 419 0
-351 435 0
-375 435 0
-395 435 0
-399 435 0
-411 435 0
-415 435 0
-419 435 0
-436 352 376 396 400 412 416 0
-352 436 0
-376 436 0
-396 436 0
-400 436 0
-412 436 0
-416 436 0
-437 353 377 397 401 413 417 0
-353 437 0
-377 437 0
-397 437 0
-401 437 0
-413 437 0
-417 437 0
-438 354 378 398 402 414 418 0
-354 438 0
-378 438 0
-398 438 0
-402 438 0
-414 438 0
-418 438 0
-439 355 379 399 403 415 419 0
-355 439 0
-379 439 0
-399 439 0
-403 439 0
-415 439 0
-419 439 0
-440 356 380 400 416 0
-356 440 0
-380 440 0
-400 440 0
-416 440 0
-441 357 381 401 417 0
-357 441 0
-381 441 0
-401 441 0
-417 441 0
-442 358 382 402 418 0
-358 442 0
-382 442 0
-402 442 0
-418 442 0
-443 359 383 403 419 0
-359 443 0
-383 443 0
-403 443 0
-419 443 0
-336 -360 0
-336 -384 0
-336 -404 0
-337 -361 0
-337 -385 0
-337 -405 0
-338 -362 0
-338 -386 0
-338 -406 0
-339 -363 0
-339 -387 0
-339 -407 0
-340 -364 0
-340 -384 0
-340 -388 0
-340 -404 0
-340 -408 0
-341 -365 0
-341 -385 0
-341 -389 0
-341 -405 0
-341 -409 0
-342 -366 0
-342 -386 0
-342 -390 0
-342 -406 0
-342 -410 0
-343 -367 0
-343 -387 0
-343 -391 0
-343 -407 0
-343 -411 0
-344 -368 0
-344 -388 0
-344 -392 0
-344 -404 0
-344 -408 0
-344 -412 0
-345 -369 0
-345 -389 0
-345 -393 0
-345 -405 0
-345 -409 0
-345 -413 0
-346 -370 0
-346 -390 0
-346 -394 0
-346 -406 0
-346 -410 0
-346 -414 0
-347 -371 0
-347 -391 0
-347 -395 0
-347 -407 0
-347 -411 0
-347 -415 0
-348 -372 0
-348 -392 0
-348 -396 0
-348 -408 0
-348 -412 0
-348 -416 0
-349 -373 0
-349 -393 0
-349 -397 0
-349 -409 0
-349 -413 0
-349 -417 0
-350 -374 0
-350 -394 0
-350 -398 0
-350 -410 0
-350 -414 0
-350 -418 0
-351 -375 0
-351 -395 0
-351 -399 0
-351 -411 0
-351 -415 0
-351 -419 0
-352 -376 0
-352 -396 0
-352 -400 0
-352 -412 0
-352 -416 0
-353 -377 0
-353 -397 0
-353 -401 0
-353 -413 0
-353 -417 0
-354 -378 0
-354 -398 0
-354 -402 0
-354 -414 0
-354 -418 0
-355 -379 0
-355 -399 0
-355 -403 0
-355 -415 0
-355 -419 0
-356 -380 0
-356 -400 0
-356 -416 0
-357 -381 0
-357 -401 0
-357 -417 0
-358 -382 0
-358 -402 0
-358 -418 0
-359 -383 0
-359 -403 0
-359 -419 0
-360 -384 0
-360 -404 0
-361 -385 0
-361 -405 0
-362 -386 0
-362 -406 0
-363 -387 0
-363 -407 0
-364 -384 0
-364 -388 0
-364 -404 0
-364 -408 0
-365 -385 0
-365 -389 0
-365 -405 0
-365 -409 0
-366 -386 0
-366 -390 0
-366 -406 0
-366 -410 0
-367 -387 0
-367 -391 0
-367 -407 0
-367 -411 0
-368 -388 0
-368 -392 0
-368 -404 0
-368 -408 0
-368 -412 0
-369 -389 0
-369 -393 0
-369 -405 0
-369 -409 0
-369 -413 0
-370 -390 0
-370 -394 0
-370 -406 0
-370 -410 0
-370 -414 0
-371 -391 0
-371 -395 0
-371 -407 0
-371 -411 0
-371 -415 0
-372 -392 0
-372 -396 0
-372 -408 0
-372 -412 0
-372 -416 0
-373 -393 0
-373 -397 0
-373 -409 0
-373 -413 0
-373 -417 0
-374 -394 0
-374 -398 0
-374 -410 0
-374 -414 0
-374 -418 0
-375 -395 0
-375 -399 0
-375 -411 0
-375 -415 0
-375 -419 0
-376 -396 0
-376 -400 0
-376 -412 0
-376 -416 0
-377 -397 0
-377 -401 0
-377 -413 0
-377 -417 0
-378 -398 0
-378 -402 0
-378 -414 0
-378 -418 0
-379 -399 0
-379 -403 0
-379 -415 0
-379 -419 0
-380 -400 0
-380 -416 0
-381 -401 0
-381 -417 0
-382 -402 0
-382 -418 0
-383 -403 0
-383 -419 0
-384 -404 0
-384 -408 0
-385 -405 0
-385 -409 0
-386 -406 0
-386 -410 0
-387 -407 0
-387 -411 0
-388 -404 0
-388 -408 0
-388 -412 0
-389 -405 0
-389 -409 0
-389 -413 0
-390 -406 0
-390 -410 0
-390 -414 0
-391 -407 0
-391 -411 0
-391 -415 0
-392 -404 0
-392 -408 0
-392 -412 0
-392 -416 0
-393 -405 0
-393 -409 0
-393 -413 0
-393 -417 0
-394 -406 0
-394 -410 0
-394 -414 0
-394 -418 0
-395 -407 0
-395 -411 0
-395 -415 0
-395 -419 0
-396 -408 0
-396 -412 0
-396 -416 0
-397 -409 0
-397 -413 0
-397 -417 0
-398 -410 0
-398 -414 0
-398 -418 0
-399 -411 0
-399 -415 0
-399 -419 0
-400 -412 0
-400 -416 0
-401 -413 0
-401 -417 0
-402 -414 0
-402 -418 0
-403 -415 0
-403 -419 0
-336 444 361 362 363 385 386 387 405 406 407 0
-336 -444 -361 0
-336 -444 -362 0
-336 -444 -363 0
-336 -444 -385 0
-336 -444 -386 0
-336 -444 -387 0
-336 -444 -405 0
-336 -444 -406 0
-336 -444 -407 0
-337 420 0
-337 444 362 363 386 387 406 407 0
-337 -444 -362 0
-337 -444 -363 0
-337 -444 -386 0
-337 -444 -387 0
-337 -444 -406 0
-337 -444 -407 0
-338 421 0
-338 444 363 387 407 0
-338 -444 -363 0
-338 -444 -387 0
-338 -444 -407 0
-339 422 0
-339 444 0
-340 444 365 366 367 385 386 387 389 390 391 405 406 407 409 410 411 0
-340 -444 -365 0
-340 -444 -366 0
-340 -444 -367 0
-340 -444 -385 0
-340 -444 -386 0
-340 -444 -387 0
-340 -444 -389 0
-340 -444 -390 0
-340 -444 -391 0
-340 -444 -405 0
-340 -444 -406 0
-340 -444 -407 0
-340 -444 -409 0
-340 -444 -410 0
-340 -444 -411 0
-341 424 0
-341 444 366 367 386 387 390 391 406 407 410 411 0
-341 -444 -366 0
-341 -444 -367 0
-341 -444 -386 0
-341 -444 -387 0
-341 -444 -390 0
-341 -444 -391 0
-341 -444 -406 0
-341 -444 -407 0
-341 -444 -410 0
-341 -444 -411 0
-342 425 0
-342 444 367 387 391 407 411 0
-342 -444 -367 0
-342 -444 -387 0
-342 -444 -391 0
-342 -444 -407 0
-342 -444 -411 0
-343 426 0
-343 444 0
-344 444 369 370 371 389 390 391 393 394 395 405 406 407 409 410 411 413 414 415 0
-344 -444 -369 0
-344 -444 -370 0
-344 -444 -371 0
-344 -444 -389 0
-344 -444 -390 0
-344 -444 -391 0
-344 -444 -393 0
-344 -444 -394 0
-344 -444 -395 0
-344 -444 -405 0
-344 -444 -406 0
-344 -444 -407 0
-344 -444 -409 0
-344 -444 -410 0
-344 -444 -411 0
-344 -444 -413 0
-344 -444 -414 0
-344 -444 -415 0
-345 428 0
-345 444 370 371 390 391 394 395 406 407 410 411 414 415 0
-345 -444 -370 0
-345 -444 -371 0
-345 -444 -390 0
-345 -444 -391 0
-345 -444 -394 0
-345 -444 -395 0
-345 -444 -406 0
-345 -444 -407 0
-345 -444 -410 0
-345 -444 -411 0
-345 -444 -414 0
-345 -444 -415 0
-346 429 0
-346 444 371 391 395 407 411 415 0
-346 -444 -371 0
-346 -444 -391 0
-346 -444 -395 0
-346 -444 -407 0
-346 -444 -411 0
-346 -444 -415 0
-347 430 0
-347 444 0
-348 444 373 374 375 393 394 395 397 398 399 409 410 411 413 414 415 417 418 419 0
-348 -444 -373 0
-348 -444 -374 0
-348 -444 -375 0
-348 -444 -393 0
-348 -444 -394 0
-348 -444 -395 0
-348 -444 -397 0
-348 -444 -398 0
-348 -444 -399 0
-348 -444 -409 0
-348 -444 -410 0
-348 -444 -411 0
-348 -444 -413 0
-348 -444 -414 0
-348 -444 -415 0
-348 -444 -417 0
-348 -444 -418 0
-348 -444 -419 0
-349 432 0
-349 444 374 375 394 395 398 399 410 411 414 415 418 419 0
-349 -444 -374 0
-349 -444 -375 0
-349 -444 -394 0
-349 -444 -395 0
-349 -444 -398 0
-349 -444 -399 0
-349 -444 -410 0
-349 -444 -411 0
-349 -444 -414 0
-349 -444 -415 0
-349 -444 -418 0
-349 -444 -419 0
-350 433 0
-350 444 375 395 399 411 415 419 0
-350 -444 -375 0
-350 -444 -395 0
-350 -444 -399 0
-350 -444 -411 0
-350 -444 -415 0
-350 -444 -419 0
-351 434 0
-351 444 0
-352 444 377 378 379 397 398 399 401 402 403 413 414 415 417 418 419 0
-352 -444 -377 0
-352 -444 -378 0
-352 -444 -379 0
-352 -444 -397 0
-352 -444 -398 0
-352 -444 -399 0
-352 -444 -401 0
-352 -444 -402 0
-352 -444 -403 0
-352 -444 -413 0
-352 -444 -414 0
-352 -444 -415 0
-352 -444 -417 0
-352 -444 -418 0
-352 -444 -419 0
-353 436 0
-353 444 378 379 398 399 402 403 414 415 418 419 0
-353 -444 -378 0
-353 -444 -379 0
-353 -444 -398 0
-353 -444 -399 0
-353 -444 -402 0
-353 -444 -403 0
-353 -444 -414 0
-353 -444 -415 0
-353 -444 -418 0
-353 -444 -419 0
-354 437 0
-354 444 379 399 403 415 419 0
-354 -444 -379 0
-354 -444 -399 0
-354 -444 -403 0
-354 -444 -415 0
-354 -444 -419 0
-355 438 0
-355 444 0
-356 444 381 382 383 401 402 403 417 418 419 0
-356 -444 -381 0
-356 -444 -382 0
-356 -444 -383 0
-356 -444 -401 0
-356 -444 -402 0
-356 -444 -403 0
-356 -444 -417 0
-356 -444 -418 0
-356 -444 -419 0
-357 440 0
-357 444 382 383 402 403 418 419 0
-357 -444 -382 0
-357 -444 -383 0
-357 -444 -402 0
-357 -444 -403 0
-357 -444 -418 0
-357 -444 -419 0
-358 441 0
-358 444 383 403 419 0
-358 -444 -383 0
-358 -444 -403 0
-358 -444 -419 0
-359 442 0
-359 444 0
-360 445 337 338 339 385 386 387 405 406 407 0
-360 -445 -337 0
-360 -445 -338 0
-360 -445 -339 0
-360 -445 -385 0
-360 -445 -386 0
-360 -445 -387 0
-360 -445 -405 0
-360 -445 -406 0
-360 -445 -407 0
-361 420 0
-361 445 338 339 386 387 406 407 0
-361 -445 -338 0
-361 -445 -339 0
-361 -445 -386 0
-361 -445 -387 0
-361 -445 -406 0
-361 -445 -407 0
-362 421 0
-362 445 339 387 407 0
-362 -445 -339 0
-362 -445 -387 0
-362 -445 -407 0
-363 422 0
-363 445 0
-364 445 341 342 343 385 386 387 389 390 391 405 406 407 409 410 411 0
-364 -445 -341 0
-364 -445 -342 0
-364 -445 -343 0
-364 -445 -385 0
-364 -445 -386 0
-364 -445 -387 0
-364 -445 -389 0
-364 -445 -390 0
-364 -445 -391 0
-364 -445 -405 0
-364 -445 -406 0
-364 -445 -407 0
-364 -445 -409 0
-364 -445 -410 0
-364 -445 -411 0
-365 424 0
-365 445 342 343 386 387 390 391 406 407 410 411 0
-365 -445 -342 0
-365 -445 -343 0
-365 -445 -386 0
-365 -445 -387 0
-365 -445 -390 0
-365 -445 -391 0
-365 -445 -406 0
-365 -445 -407 0
-365 -445 -410 0
-365 -445 -411 0
-366 425 0
-366 445 343 387 391 407 411 0
-366 -445 -343 0
-366 -445 -387 0
-366 -445 -391 0
-366 -445 -407 0
-366 -445 -411 0
-367 426 0
-367 445 0
-368 445 345 346 347 389 390 391 393 394 395 405 406 407 409 410 411 413 414 415 0
-368 -445 -345 0
-368 -445 -346 0
-368 -445 -347 0
-368 -445 -389 0
-368 -445 -390 0
-368 -445 -391 0
-368 -445 -393 0
-368 -445 -394 0
-368 -445 -395 0
-368 -445 -405 0
-368 -445 -406 0
-368 -445 -407 0
-368 -445 -409 0
-368 -445 -410 0
-368 -445 -411 0
-368 -445 -413 0
-368 -445 -414 0
-368 -445 -415 0
-369 428 0
-369 445 346 347 390 391 394 395 406 407 410 411 414 415 0
-369 -445 -346 0
-369 -445 -347 0
-369 -445 -390 0
-369 -445 -391 0
-369 -445 -394 0
-369 -445 -395 0
-369 -445 -406 0
-369 -445 -407 0
-369 -445 -410 0
-369 -445 -411 0
-369 -445 -414 0
-369 -445 -415 0
-370 429 0
-370 445 347 391 395 407 411 415 0
-370 -445 -347 0
-370 -445 -391 0
-370 -445 -395 0
-370 -445 -407 0
-370 -445 -411 0
-370 -445 -415 0
-371 430 0
-371 445 0
-372 445 349 350 351 393 394 395 397 398 399 409 410 411 413 414 415 417 418 419 0
-372 -445 -349 0
-372 -445 -350 0
-372 -445 -351 0
-372 -445 -393 0
-372 -445 -394 0
-372 -445 -395 0
-372 -445 -397 0
-372 -445 -398 0
-372 -445 -399 0
-372 -445 -409 0
-372 -445 -410 0
-372 -445 -411 0
-372 -445 -413 0
-372 -445 -414 0
-372 -445 -415 0
-372 -445 -417 0
-372 -445 -418 0
-372 -445 -419 0
-373 432 0
-373 445 350 351 394 395 398 399 410 411 414 415 418 419 0
-373 -445 -350 0
-373 -445 -351 0
-373 -445 -394 0
-373 -445 -395 0
-373 -445 -398 0
-373 -445 -399 0
-373 -445 -410 0
-373 -445 -411 0
-373 -445 -414 0
-373 -445 -415 0
-373 -445 -418 0
-373 -445 -419 0
-374 433 0
-374 445 351 395 399 411 415 419 0
-374 -445 -351 0
-374 -445 -395 0
-374 -445 -399 0
-374 -445 -411 0
-374 -445 -415 0
-374 -445 -419 0
-375 434 0
-375 445 0
-376 445 353 354 355 397 398 399 401 402 403 413 414 415 417 418 419 0
-376 -445 -353 0
-376 -445 -354 0
-376 -445 -355 0
-376 -445 -397 0
-376 -445 -398 0
-376 -445 -399 0
-376 -445 -401 0
-376 -445 -402 0
-376 -445 -403 0
-376 -445 -413 0
-376 -445 -414 0
-376 -445 -415 0
-376 -445 -417 0
-376 -445 -418 0
-376 -445 -419 0
-377 436 0
-377 445 354 355 398 399 402 403 414 415 418 419 0
-377 -445 -354 0
-377 -445 -355 0
-377 -445 -398 0
-377 -445 -399 0
-377 -445 -402 0
-377 -445 -403 0
-377 -445 -414 0
-377 -445 -415 0
-377 -445 -418 0
-377 -445 -419 0
-378 437 0
-378 445 355 399 403 415 419 0
-378 -445 -355 0
-378 -445 -399 0
-378 -445 -403 0
-378 -445 -415 0
-378 -445 -419 0
-379 438 0
-379 445 0
-380 445 357 358 359 401 402 403 417 418 419 0
-380 -445 -357 0
-380 -445 -358 0
-380 -445 -359 0
-380 -445 -401 0
-380 -445 -402 0
-380 -445 -403 0
-380 -445 -417 0
-380 -445 -418 0
-380 -445 -419 0
-381 440 0
-381 445 358 359 402 403 418 419 0
-381 -445 -358 0
-381 -445 -359 0
-381 -445 -402 0
-381 -445 -403 0
-381 -445 -418 0
-381 -445 -419 0
-382 441 0
-382 445 359 403 419 0
-382 -445 -359 0
-382 -445 -403 0
-382 -445 -419 0
-383 442 0
-383 445 0
-384 446 337 338 339 341 342 343 361 362 363 365 366 367 405 406 407 409 410 411 0
-384 -446 -337 0
-384 -446 -338 0
-384 -446 -339 0
-384 -446 -341 0
-384 -446 -342 0
-384 -446 -343 0
-384 -446 -361 0
-384 -446 -362 0
-384 -446 -363 0
-384 -446 -365 0
-384 -446 -366 0
-384 -446 -367 0
-384 -446 -405 0
-384 -446 -406 0
-384 -446 -407 0
-384 -446 -409 0
-384 -446 -410 0
-384 -446 -411 0
-385 420 424 0
-385 446 338 339 342 343 362 363 366 367 406 407 410 411 0
-385 -446 -338 0
-385 -446 -339 0
-385 -446 -342 0
-385 -446 -343 0
-385 -446 -362 0
-385 -446 -363 0
-385 -446 -366 0
-385 -446 -367 0
-385 -446 -406 0
-385 -446 -407 0
-385 -446 -410 0
-385 -446 -411 0
-386 421 425 0
-386 446 339 343 363 367 407 411 0
-386 -446 -339 0
-386 -446 -343 0
-386 -446 -363 0
-386 -446 -367 0
-386 -446 -407 0
-386 -446 -411 0
-387 422 426 0
-387 446 0
-388 446 341 342 343 345 346 347 365 366 367 369 370 371 405 406 407 409 410 411 413 414 415 0
-388 -446 -341 0
-388 -446 -342 0
-388 -446 -343 0
-388 -446 -345 0
-388 -446 -346 0
-388 -446 -347 0
-388 -446 -365 0
-388 -446 -366 0
-388 -446 -367 0
-388 -446 -369 0
-388 -446 -370 0
-388 -446 -371 0
-388 -446 -405 0
-388 -446 -406 0
-388 -446 -407 0
-388 -446 -409 0
-388 -446 -410 0
-388 -446 -411 0
-388 -446 -413 0
-388 -446 -414 0
-388 -446 -415 0
-389 424 428 0
-389 446 342 343 346 347 366 367 370 371 406 407 410 411 414 415 0
-389 -446 -342 0
-389 -446 -343 0
-389 -446 -346 0
-389 -446 -347 0
-389 -446 -366 0
-389 -446 -367 0
-389 -446 -370 0
-389 -446 -371 0
-389 -446 -406 0
-389 -446 -407 0
-389 -446 -410 0
-389 -446 -411 0
-389 -446 -414 0
-389 -446 -415 0
-390 425 429 0
-390 446 343 347 367 371 407 411 415 0
-390 -446 -343 0
-390 -446 -347 0
-390 -446 -367 0
-390 -446 -371 0
-390 -446 -407 0
-390 -446 -411 0
-390 -446 -415 0
-391 426 430 0
-391 446 0
-392 446 345 346 347 349 350 351 369 370 371 373 374 375 405 406 407 409 410 411 413 414 415 417 418 419 0
-392 -446 -345 0
-392 -446 -346 0
-392 -446 -347 0
-392 -446 -349 0
-392 -446 -350 0
-392 -446 -351 0
-392 -446 -369 0
-392 -446 -370 0
-392 -446 -371 0
-392 -446 -373 0
-392 -446 -374 0
-392 -446 -375 0
-392 -446 -405 0
-392 -446 -406 0
-392 -446 -407 0
-392 -446 -409 0
-392 -446 -410 0
-392 -446 -411 0
-392 -446 -413 0
-392 -446 -414 0
-392 -446 -415 0
-392 -446 -417 0
-392 -446 -418 0
-392 -446 -419 0
-393 428 432 0
-393 446 346 347 350 351 370 371 374 375 406 407 410 411 414 415 418 419 0
-393 -446 -346 0
-393 -446 -347 0
-393 -446 -350 0
-393 -446 -351 0
-393 -446 -370 0
-393 -446 -371 0
-393 -446 -374 0
-393 -446 -375 0
-393 -446 -406 0
-393 -446 -407 0
-393 -446 -410 0
-393 -446 -411 0
-393 -446 -414 0
-393 -446 -415 0
-393 -446 -418 0
-393 -446 -419 0
-394 429 433 0
-394 446 347 351 371 375 407 411 415 419 0
-394 -446 -347 0
-394 -446 -351 0
-394 -446 -371 0
-394 -446 -375 0
-394 -446 -407 0
-394 -446 -411 0
-394 -446 -415 0
-394 -446 -419 0
-395 430 434 0
-395 446 0
-396 446 349 350 351 353 354 355 373 374 375 377 378 379 409 410 411 413 414 415 417 418 419 0
-396 -446 -349 0
-396 -446 -350 0
-396 -446 -351 0
-396 -446 -353 0
-396 -446 -354 0
-396 -446 -355 0
-396 -446 -373 0
-396 -446 -374 0
-396 -446 -375 0
-396 -446 -377 0
-396 -446 -378 0
-396 -446 -379 0
-396 -446 -409 0
-396 -446 -410 0
-396 -446 -411 0
-396 -446 -413 0
-396 -446 -414 0
-396 -446 -415 0
-396 -446 -417 0
-396 -446 -418 0
-396 -446 -419 0
-397 432 436 0
-397 446 350 351 354 355 374 375 378 379 410 411 414 415 418 419 0
-397 -446 -350 0
-397 -446 -351 0
-397 -446 -354 0
-397 -446 -355 0
-397 -446 -374 0
-397 -446 -375 0
-397 -446 -378 0
-397 -446 -379 0
-397 -446 -410 0
-397 -446 -411 0
-397 -446 -414 0
-397 -446 -415 0
-397 -446 -418 0
-397 -446 -419 0
-398 433 437 0
-398 446 351 355 375 379 411 415 419 0
-398 -446 -351 0
-398 -446 -355 0
-398 -446 -375 0
-398 -446 -379 0
-398 -446 -411 0
-398 -446 -415 0
-398 -446 -419 0
-399 434 438 0
-399 446 0
-400 446 353 354 355 357 358 359 377 378 379 381 382 383 413 414 415 417 418 419 0
-400 -446 -353 0
-400 -446 -354 0
-400 -446 -355 0
-400 -446 -357 0
-400 -446 -358 0
-400 -446 -359 0
-400 -446 -377 0
-400 -446 -378 0
-400 -446 -379 0
-400 -446 -381 0
-400 -446 -382 0
-400 -446 -383 0
-400 -446 -413 0
-400 -446 -414 0
-400 -446 -415 0
-400 -446 -417 0
-400 -446 -418 0
-400 -446 -419 0
-401 436 440 0
-401 446 354 355 358 359 378 379 382 383 414 415 418 419 0
-401 -446 -354 0
-401 -446 -355 0
-401 -446 -358 0
-401 -446 -359 0
-401 -446 -378 0
-401 -446 -379 0
-401 -446 -382 0
-401 -446 -383 0
-401 -446 -414 0
-401 -446 -415 0
-401 -446 -418 0
-401 -446 -419 0
-402 437 441 0
-402 446 355 359 379 383 415 419 0
-402 -446 -355 0
-402 -446 -359 0
-402 -446 -379 0
-402 -446 -383 0
-402 -446 -415 0
-402 -446 -419 0
-403 438 442 0
-403 446 0
-404 447 337 338 339 341 342 343 345 346 347 361 362 363 365 366 367 369 370 371 385 386 387 389 390 391 393 394 395 0
-404 -447 -337 0
-404 -447 -338 0
-404 -447 -339 0
-404 -447 -341 0
-404 -447 -342 0
-404 -447 -343 0
-404 -447 -345 0
-404 -447 -346 0
-404 -447 -347 0
-404 -447 -361 0
-404 -447 -362 0
-404 -447 -363 0
-404 -447 -365 0
-404 -447 -366 0
-404 -447 -367 0
-404 -447 -369 0
-404 -447 -370 0
-404 -447 -371 0
-404 -447 -385 0
-404 -447 -386 0
-404 -447 -387 0
-404 -447 -389 0
-404 -447 -390 0
-404 -447 -391 0
-404 -447 -393 0
-404 -447 -394 0
-404 -447 -395 0
-405 420 424 0
-405 420 428 0
-405 424 428 0
-405 447 338 339 342 343 346 347 362 363 366 367 370 371 386 387 390 391 394 395 0
-405 -447 -338 0
-405 -447 -339 0
-405 -447 -342 0
-405 -447 -343 0
-405 -447 -346 0
-405 -447 -347 0
-405 -447 -362 0
-405 -447 -363 0
-405 -447 -366 0
-405 -447 -367 0
-405 -447 -370 0
-405 -447 -371 0
-405 -447 -386 0
-405 -447 -387 0
-405 -447 -390 0
-405 -447 -391 0
-405 -447 -394 0
-405 -447 -395 0
-406 421 425 0
-406 421 429 0
-406 425 429 0
-406 447 339 343 347 363 367 371 387 391 395 0
-406 -447 -339 0
-406 -447 -343 0
-406 -447 -347 0
-406 -447 -363 0
-406 -447 -367 0
-406 -447 -371 0
-406 -447 -387 0
-406 -447 -391 0
-406 -447 -395 0
-407 422 426 0
-407 422 430 0
-407 426 430 0
-407 447 0
-408 447 341 342 343 345 346 347 349 350 351 365 366 367 369 370 371 373 374 375 385 386 387 389 390 391 393 394 395 397 398 399 0
-408 -447 -341 0
-408 -447 -342 0
-408 -447 -343 0
-408 -447 -345 0
-408 -447 -346 0
-408 -447 -347 0
-408 -447 -349 0
-408 -447 -350 0
-408 -447 -351 0
-408 -447 -365 0
-408 -447 -366 0
-408 -447 -367 0
-408 -447 -369 0
-408 -447 -370 0
-408 -447 -371 0
-408 -447 -373 0
-408 -447 -374 0
-408 -447 -375 0
-408 -447 -385 0
-408 -447 -386 0
-408 -447 -387 0
-408 -447 -389 0
-408 -447 -390 0
-408 -447 -391 0
-408 -447 -393 0
-408 -447 -394 0
-408 -447 -395 0
-408 -447 -397 0
-408 -447 -398 0
-408 -447 -399 0
-409 424 428 0
-409 424 432 0
-409 428 432 0
-409 447 342 343 346 347 350 351 366 367 370 371 374 375 386 387 390 391 394 395 398 399 0
-409 -447 -342 0
-409 -447 -343 0
-409 -447 -346 0
-409 -447 -347 0
-409 -447 -350 0
-409 -447 -351 0
-409 -447 -366 0
-409 -447 -367 0
-409 -447 -370 0
-409 -447 -371 0
-409 -447 -374 0
-409 -447 -375 0
-409 -447 -386 0
-409 -447 -387 0
-409 -447 -390 0
-409 -447 -391 0
-409 -447 -394 0
-409 -447 -395 0
-409 -447 -398 0
-409 -447 -399 0
-410 425 429 0
-410 425 433 0
-410 429 433 0
-410 447 343 347 351 367 371 375 387 391 395 399 0
-410 -447 -343 0
-410 -447 -347 0
-410 -447 -351 0
-410 -447 -367 0
-410 -447 -371 0
-410 -447 -375 0
-410 -447 -387 0
-410 -447 -391 0
-410 -447 -395 0
-410 -447 -399 0
-411 426 430 0
-411 426 434 0
-411 430 434 0
-411 447 0
-412 447 345 346 347 349 350 351 353 354 355 369 370 371 373 374 375 377 378 379 389 390 391 393 394 395 397 398 399 401 402 403 0
-412 -447 -345 0
-412 -447 -346 0
-412 -447 -347 0
-412 -447 -349 0
-412 -447 -350 0
-412 -447 -351 0
-412 -447 -353 0
-412 -447 -354 0
-412 -447 -355 0
-412 -447 -369 0
-412 -447 -370 0
-412 -447 -371 0
-412 -447 -373 0
-412 -447 -374 0
-412 -447 -375 0
-412 -447 -377 0
-412 -447 -378 0
-412 -447 -379 0
-412 -447 -389 0
-412 -447 -390 0
-412 -447 -391 0
-412 -447 -393 0
-412 -447 -394 0
-412 -447 -395 0
-412 -447 -397 0
-412 -447 -398 0
-412 -447 -399 0
-412 -447 -401 0
-412 -447 -402 0
-412 -447 -403 0
-413 428 432 0
-413 428 436 0
-413 432 436 0
-413 447 346 347 350 351 354 355 370 371 374 375 378 379 390 391 394 395 398 399 402 403 0
-413 -447 -346 0
-413 -447 -347 0
-413 -447 -350 0
-413 -447 -351 0
-413 -447 -354 0
-413 -447 -355 0
-413 -447 -370 0
-413 -447 -371 0
-413 -447 -374 0
-413 -447 -375 0
-413 -447 -378 0
-413 -447 -379 0
-413 -447 -390 0
-413 -447 -391 0
-413 -447 -394 0
-413 -447 -395 0
-413 -447 -398 0
-413 -447 -399 0
-413 -447 -402 0
-413 -447 -403 0
-414 429 433 0
-414 429 437 0
-414 433 437 0
-414 447 347 351 355 371 375 379 391 395 399 403 0
-414 -447 -347 0
-414 -447 -351 0
-414 -447 -355 0
-414 -447 -371 0
-414 -447 -375 0
-414 -447 -379 0
-414 -447 -391 0
-414 -447 -395 0
-414 -447 -399 0
-414 -447 -403 0
-415 430 434 0
-415 430 438 0
-415 434 438 0
-415 447 0
-416 447 349 350 351 353 354 355 357 358 359 373 374 375 377 378 379 381 382 383 393 394 395 397 398 399 401 402 403 0
-416 -447 -349 0
-416 -447 -350 0
-416 -447 -351 0
-416 -447 -353 0
-416 -447 -354 0
-416 -447 -355 0
-416 -447 -357 0
-416 -447 -358 0
-416 -447 -359 0
-416 -447 -373 0
-416 -447 -374 0
-416 -447 -375 0
-416 -447 -377 0
-416 -447 -378 0
-416 -447 -379 0
-416 -447 -381 0
-416 -447 -382 0
-416 -447 -383 0
-416 -447 -393 0
-416 -447 -394 0
-416 -447 -395 0
-416 -447 -397 0
-416 -447 -398 0
-416 -447 -399 0
-416 -447 -401 0
-416 -447 -402 0
-416 -447 -403 0
-417 432 436 0
-417 432 440 0
-417 436 440 0
-417 447 350 351 354 355 358 359 374 375 378 379 382 383 394 395 398 399 402 403 0
-417 -447 -350 0
-417 -447 -351 0
-417 -447 -354 0
-417 -447 -355 0
-417 -447 -358 0
-417 -447 -359 0
-417 -447 -374 0
-417 -447 -375 0
-417 -447 -378 0
-417 -447 -379 0
-417 -447 -382 0
-417 -447 -383 0
-417 -447 -394 0
-417 -447 -395 0
-417 -447 -398 0
-417 -447 -399 0
-417 -447 -402 0
-417 -447 -403 0
-418 433 437 0
-418 433 441 0
-418 437 441 0
-418 447 351 355 359 375 379 383 395 399 403 0
-418 -447 -351 0
-418 -447 -355 0
-418 -447 -359 0
-418 -447 -375 0
-418 -447 -379 0
-418 -447 -383 0
-418 -447 -395 0
-418 -447 -399 0
-418 -447 -403 0
-419 434 438 0
-419 434 442 0
-419 438 442 0
-419 447 0
448 449 450 451 452 453 0
-448 -449 0
-448 -450 0
-448 -451 0
-448 -452 0
-448 -453 0
-449 -450 0
-449 -451 0
-449 -452 0
-449 -453 0
-450 -451 0
-450 -452 0
-450 -453 0
-451 -452 0
-451 -453 0
-452 -453 0
454 455 456 457 0
-454 -455 0
-454 -456 0
-454 -457 0
-455 -456 0
-455 -457 0
-456 -457 0
458 459 460 461 462 463 0
-458 -459 0
-458 -460 0
-458 -461 0
-458 -462 0
-458 -463 0
-459 -460 0
-459 -461 0
-459 -462 0
-459 -463 0
-460 -461 0
-460 -462 0
-460 -463 0
-461 -462 0
-461 -463 0
-462 -463 0
464 465 466 467 0
-464 -465 0
-464 -466 0
-464 -467 0
-465 -466 0
-465 -467 0
-466 -467 0
468 469 470 471 472 0
-468 -469 0
-468 -470 0
-468 -471 0
-468 -472 0
-469 -470 0
-469 -471 0
-469 -472 0
-470 -471 0
-470 -472 0
-471 -472 0
473 474 475 476 0
-473 -474 0
-473 -475 0
-473 -476 0
-474 -475 0
-474 -476 0
-475 -476 0
477 478 479 480 0
-477 -478 0
-477 -479 0
-477 -480 0
-478 -479 0
-478 -480 0
-479 -480 0
481 482 483 484 0
-481 -482 0
-481 -483 0
-481 -484 0
-482 -483 0
-482 -484 0
-483 -484 0
-485 448 0
-485 454 0
-448 -454 485 0
-486 448 0
-486 455 0
-448 -455 486 0
-487 448 0
-487 456 0
-448 -456 487 0
-488 448 0
-488 457 0
-448 -457 488 0
-489 449 0
-489 454 0
-449 -454 489 0
-490 449 0
-490 455 0
-449 -455 490 0
-491 449 0
-491 456 0
-449 -456 491 0
-492 449 0
-492 457 0
-449 -457 492 0
-493 450 0
-493 454 0
-450 -454 493 0
-494 450 0
-494 455 0
-450 -455 494 0
-495 450 0
-495 456 0
-450 -456 495 0
-496 450 0
-496 457 0
-450 -457 496 0
-497 451 0
-497 454 0
-451 -454 497 0
-498 451 0
-498 455 0
-451 -455 498 0
-499 451 0
-499 456 0
-451 -456 499 0
-500 451 0
-500 457 0
-451 -457 500 0
-501 452 0
-501 454 0
-452 -454 501 0
-502 452 0
-502 455 0
-452 -455 502 0
-503 452 0
-503 456 0
-452 -456 503 0
-504 452 0
-504 457 0
-452 -457 504 0
-505 453 0
-505 454 0
-453 -454 505 0
-506 453 0
-506 455 0
-453 -455 506 0
-507 453 0
-507 456 0
-453 -456 507 0
-508 453 0
-508 457 0
-453 -457 508 0
-509 458 0
-509 464 0
-458 -464 509 0
-510 458 0
-510 465 0
-458 -465 510 0
-511 458 0
-511 466 0
-458 -466 511 0
-512 458 0
-512 467 0
-458 -467 512 0
-513 459 0
-513 464 0
-459 -464 513 0
-514 459 0
-514 465 0
-459 -465 514 0
-515 459 0
-515 466 0
-459 -466 515 0
-516 459 0
-516 467 0
-459 -467 516 0
-517 460 0
-517 464 0
-460 -464 517 0
-518 460 0
-518 465 0
-460 -465 518 0
-519 460 0
-519 466 0
-460 -466 519 0
-520 460 0
-520 467 0
-460 -467 520 0
-521 461 0
-521 464 0
-461 -464 521 0
-522 461 0
-522 465 0
-461 -465 522 0
-523 461 0
-523 466 0
-461 -466 523 0
-524 461 0
-524 467 0
-461 -467 524 0
-525 462 0
-525 464 0
-462 -464 525 0
-526 462 0
-526 465 0
-462 -465 526 0
-527 462 0
-527 466 0
-462 -466 527 0
-528 462 0
-528 467 0
-462 -467 528 0
-529 463 0
-529 464 0
-463 -464 529 0
-530 463 0
-530 465 0
-463 -465 530 0
-531 463 0
-531 466 0
-463 -466 531 0
-532 463 0
-532 467 0
-463 -467 532 0
-533 468 0
-533 473 0
-468 -473 533 0
-534 468 0
-534 474 0
-468 -474 534 0
-535 468 0
-535 475 0
-468 -475 535 0
-536 468 0
-536 476 0
-468 -476 536 0
-537 469 0
-537 473 0
-469 -473 537 0
-538 469 0
-538 474 0
-469 -474 538 0
-539 469 0
-539 475 0
-469 -475 539 0
-540 469 0
-540 476 0
-469 -476 540 0
-541 470 0
-541 473 0
-470 -473 541 0
-542 470 0
-542 474 0
-470 -474 542 0
-543 470 0
-543 475 0
-470 -475 543 0
-544 470 0
-544 476 0
-470 -476 544 0
-545 471 0
-545 473 0
-471 -473 545 0
-546 471 0
-546 474 0
-471 -474 546 0
-547 471 0
-547 475 0
-471 -475 547 0
-548 471 0
-548 476 0
-471 -476 548 0
-549 472 0
-549 473 0
-472 -473 549 0
-550 472 0
-550 474 0
-472 -474 550 0
-551 472 0
-551 475 0
-472 -475 551 0
-552 472 0
-552 476 0
-472 -476 552 0
-553 477 0
-553 481 0
-477 -481 553 0
-554 477 0
-554 482 0
-477 -482 554 0
-555 477 0
-555 483 0
-477 -483 555 0
-556 477 0
-556 484 0
-477 -484 556 0
-557 478 0
-557 481 0
-478 -481 557 0
-558 478 0
-558 482 0
-478 -482 558 0
-559 478 0
-559 483 0
-478 -483 559 0
-560 478 0
-560 484 0
-478 -484 560 0
-561 479 0
-561 481 0
-479 -481 561 0
-562 479 0
-562 482 0
-479 -482 562 0
-563 479 0
-563 483 0
-479 -483 563 0
-564 479 0
-564 484 0
-479 -484 564 0
-565 480 0
-565 481 0
-480 -481 565 0
-566 480 0
-566 482 0
-480 -482 566 0
-567 480 0
-567 483 0
-480 -483 567 0
-568 480 0
-568 484 0
-480 -484 568 0
-569 485 509 533 553 0
-485 569 0
-509 569 0
-533 569 0
-553 569 0
-570 486 510 534 554 0
-486 570 0
-510 570 0
-534 570 0
-554 570 0
-571 487 511 535 555 0
-487 571 0
-511 571 0
-535 571 0
-555 571 0
-572 488 512 536 556 0
-488 572 0
-512 572 0
-536 572 0
-556 572 0
-573 489 513 533 537 553 557 0
-489 573 0
-513 573 0
-533 573 0
-537 573 0
-553 573 0
-557 573 0
-574 490 514 534 538 554 558 0
-490 574 0
-514 574 0
-534 574 0
-538 574 0
-554 574 0
-558 574 0
-575 491 515 535 539 555 559 0
-491 575 0
-515 575 0
-535 575 0
-539 575 0
-555 575 0
-559 575 0
-576 492 516 536 540 556 560 0
-492 576 0
-516 576 0
-536 576 0
-540 576 0
-556 576 0
-560 576 0
-577 493 517 537 541 553 557 561 0
-493 577 0
-517 577 0
-537 577 0
-541 577 0
-553 577 0
-557 577 0
-561 577 0
-578 494 518 538 542 554 558 562 0
-494 578 0
-518 578 0
-538 578 0
-542 578 0
-554 578 0
-558 578 0
-562 578 0
-579 495 519 539 543 555 559 563 0
-495 579 0
-519 579 0
-539 579 0
-543 579 0
-555 579 0
-559 579 0
-563 579 0
-580 496 520 540 544 556 560 564 0
-496 580 0
-520 580 0
-540 580 0
-544 580 0
-556 580 0
-560 580 0
-564 580 0
-581 497 521 541 545 557 561 565 0
-497 581 0
-521 581 0
-541 581 0
-545 581 0
-557 581 0
-561 581 0
-565 581 0
-582 498 522 542 546 558 562 566 0
-498 582 0
-522 582 0
-542 582 0
-546 582 0
-558 582 0
-562 582 0
-566 582 0
-583 499 523 543 547 559 563 567 0
-499 583 0
-523 583 0
-543 583 0
-547 583 0
-559 583 0
-563 583 0
-567 583 0
-584 500 524 544 548 560 564 568 0
-500 584 0
-524 584 0
-544 584 0
-548 584 0
-560 584 0
-564 584 0
-568 584 0
-585 501 525 545 549 561 565 0
-501 585 0
-525 585 0
-545 585 0
-549 585 0
-561 585 0
-565 585 0
-586 502 526 546 550 562 566 0
-502 586 0
-526 586 0
-546 586 0
-550 586 0
-562 586 0
-566 586 0
-587 503 527 547 551 563 567 0
-503 587 0
-527 587 0
-547 587 0
-551 587 0
-563 587 0
-567 587 0
-588 504 528 548 552 564 568 0
-504 588 0
-528 588 0
-548 588 0
-552 588 0
-564 588 0
-568 588 0
-589 505 529 549 565 0
-505 589 0
-529 589 0
-549 589 0
-565 589 0
-590 506 530 550 566 0
-506 590 0
-530 590 0
-550 590 0
-566 590 0
-591 507 531 551 567 0
-507 591 0
-531 591 0
-551 591 0
-567 591 0
-592 508 532 552 568 0
-508 592 0
-532 592 0
-552 592 0
-568 592 0
-485 -509 0
-485 -533 0
-485 -553 0
-486 -510 0
-486 -534 0
-486 -554 0
-487 -511 0
-487 -535 0
-487 -555 0
-488 -512 0
-488 -536 0
-488 -556 0
-489 -513 0
-489 -533 0
-489 -537 0
-489 -553 0
-489 -557 0
-490 -514 0
-490 -534 0
-490 -538 0
-490 -554 0
-490 -558 0
-491 -515 0
-491 -535 0
-491 -539 0
-491 -555 0
-491 -559 0
-492 -516 0
-492 -536 0
-492 -540 0
-492 -556 0
-492 -560 0
-493 -517 0
-493 -537 0
-493 -541 0
-493 -553 0
-493 -557 0
-493 -561 0
-494 -518 0
-494 -538 0
-494 -542 0
-494 -554 0
-494 -558 0
-494 -562 0
-495 -519 0
-495 -539 0
-495 -543 0
-495 -555 0
-495 -559 0
-495 -563 0
-496 -520 0
-496 -540 0
-496 -544 0
-496 -556 0
-496 -560 0
-496 -564 0
-497 -521 0
-497 -541 0
-497 -545 0
-497 -557 0
-497 -561 0
-497 -565 0
-498 -522 0
-498 -542 0
-498 -546 0
-498 -558 0
-498 -562 0
-498 -566 0
-499 -523 0
-499 -543 0
-499 -547 0
-499 -559 0
-499 -563 0
-499 -567 0
-500 -524 0
-500 -544 0
-500 -548 0
-500 -560 0
-500 -564 0
-500 -568 0
-501 -525 0
-501 -545 0
-501 -549 0
-501 -561 0
-501 -565 0
-502 -526 0
-502 -546 0
-502 -550 0
-502 -562 0
-502 -566 0
-503 -527 0
-503 -547 0
-503 -551 0
-503 -563 0
-503 -567 0
-504 -528 0
-504 -548 0
-504 -552 0
-504 -564 0
-504 -568 0
-505 -529 0
-505 -549 0
-505 -565 0
-506 -530 0
-506 -550 0
-506 -566 0
-507 -531 0
-507 -551 0
-507 -567 0
-508 -532 0
-508 -552 0
-508 -568 0
-509 -533 0
-509 -553 0
-510 -534 0
-510 -554 0
-511 -535 0
-511 -555 0
-512 -536 0
-512 -556 0
-513 -533 0
-513 -537 0
-513 -553 0
-513 -557 0
-514 -534 0
-514 -538 0
-514 -554 0
-514 -558 0
-515 -535 0
-515 -539 0
-515 -555 0
-515 -559 0
-516 -536 0
-516 -540 0
-516 -556 0
-516 -560 0
-517 -537 0
-517 -541 0
-517 -553 0
-517 -557 0
-517 -561 0
-518 -538 0
-518 -542 0
-518 -554 0
-518 -558 0
-518 -562 0
-519 -539 0
-519 -543 0
-519 -555 0
-519 -559 0
-519 -563 0
-520 -540 0
-520 -544 0
-520 -556 0
-520 -560 0
-520 -564 0
-521 -541 0
-521 -545 0
-521 -557 0
-521 -561 0
-521 -565 0
-522 -542 0
-522 -546 0
-522 -558 0
-522 -562 0
-522 -566 0
-523 -543 0
-523 -547 0
-523 -559 0
-523 -563 0
-523 -567 0
-524 -544 0
-524 -548 0
-524 -560 0
-524 -564 0
-524 -568 0
-525 -545 0
-525 -549 0
-525 -561 0
-525 -565 0
-526 -546 0
-526 -550 0
-526 -562 0
-526 -566 0
-527 -547 0
-527 -551 0
-527 -563 0
-527 -567 0
-528 -548 0
-528 -552 0
-528 -564 0
-528 -568 0
-529 -549 0
-529 -565 0
-530 -550 0
-530 -566 0
-531 -551 0
-531 -567 0
-532 -552 0
-532 -568 0
-533 -553 0
-533 -557 0
-534 -554 0
-534 -558 0
-535 -555 0
-535 -559 0
-536 -556 0
-536 -560 0
-537 -553 0
-537 -557 0
-537 -561 0
-538 -554 0
-538 -558 0
-538 -562 0
-539 -555 0
-539 -559 0
-539 -563 0
-540 -556 0
-540 -560 0
-540 -564 0
-541 -553 0
-541 -557 0
-541 -561 0
-541 -565 0
-542 -554 0
-542 -558 0
-542 -562 0
-542 -566 0
-543 -555 0
-543 -559 0
-543 -563 0
-543 -567 0
-544 -556 0
-544 -560 0
-544 -564 0
-544 -568 0
-545 -557 0
-545 -561 0
-545 -565 0
-546 -558 0
-546 -562 0
-546 -566 0
-547 -559 0
-547 -563 0
-547 -567 0
-548 -560 0
-548 -564 0
-548 -568 0
-549 -561 0
-549 -565 0
-550 -562 0
-550 -566 0
-551 -563 0
-551 -567 0
-552 -564 0
-552 -568 0
-485 593 510 511 512 534 535 536 554 555 556 0
-485 -593 -510 0
-485 -593 -511 0
-485 -593 -512 0
-485 -593 -534 0
-485 -593 -535 0
-485 -593 -536 0
-485 -593 -554 0
-485 -593 -555 0
-485 -593 -556 0
-486 569 0
-486 593 511 512 535 536 555 556 0
-486 -593 -511 0
-486 -593 -512 0
-486 -593 -535 0
-486 -593 -536 0
-486 -593 -555 0
-486 -593 -556 0
-487 570 0
-487 593 512 536 556 0
-487 -593 -512 0
-487 -593 -536 0
-487 -593 -556 0
-488 571 0
-488 593 0
-489 593 514 515 516 534 535 536 538 539 540 554 555 556 558 559 560 0
-489 -593 -514 0
-489 -593 -515 0
-489 -593 -516 0
-489 -593 -534 0
-489 -593 -535 0
-489 -593 -536 0
-489 -593 -538 0
-489 -593 -539 0
-489 -593 -540 0
-489 -593 -554 0
-489 -593 -555 0
-489 -593 -556 0
-489 -593 -558 0
-489 -593 -559 0
-489 -593 -560 0
-490 573 0
-490 593 515 516 535 536 539 540 555 556 559 560 0
-490 -593 -515 0
-490 -593 -516 0
-490 -593 -535 0
-490 -593 -536 0
-490 -593 -539 0
-490 -593 -540 0
-490 -593 -555 0
-490 -593 -556 0
-490 -593 -559 0
-490 -593 -560 0
-491 574 0
-491 593 516 536 540 556 560 0
-491 -593 -516 0
-491 -593 -536 0
-491 -593 -540 0
-491 -593 -556 0
-491 -593 -560 0
-492 575 0
-492 593 0
-493 593 518 519 520 538 539 540 542 543 544 554 555 556 558 559 560 562 563 564 0
-493 -593 -518 0
-493 -593 -519 0
-493 -593 -520 0
-493 -593 -538 0
-493 -593 -539 0
-493 -593 -540 0
-493 -593 -542 0
-493 -593 -543 0
-493 -593 -544 0
-493 -593 -554 0
-493 -593 -555 0
-493 -593 -556 0
-493 -593 -558 0
-493 -593 -559 0
-493 -593 -560 0
-493 -593 -562 0
-493 -593 -563 0
-493 -593 -564 0
-494 577 0
-494 593 519 520 539 540 543 544 555 556 559 560 563 564 0
-494 -593 -519 0
-494 -593 -520 0
-494 -593 -539 0
-494 -593 -540 0
-494 -593 -543 0
-494 -593 -544 0
-494 -593 -555 0
-494 -593 -556 0
-494 -593 -559 0
-494 -593 -560 0
-494 -593 -563 0
-494 -593 -564 0
-495 578 0
-495 593 520 540 544 556 560 564 0
-495 -593 -520 0
-495 -593 -540 0
-495 -593 -544 0
-495 -593 -556 0
-495 -593 -560 0
-495 -593 -564 0
-496 579 0
-496 593 0
-497 593 522 523 524 542 543 544 546 547 548 558 559 560 562 563 564 566 567 568 0
-497 -593 -522 0
-497 -593 -523 0
-497 -593 -524 0
-497 -593 -542 0
-497 -593 -543 0
-497 -593 -544 0
-497 -593 -546 0
-497 -593 -547 0
-497 -593 -548 0
-497 -593 -558 0
-497 -593 -559 0
-497 -593 -560 0
-497 -593 -562 0
-497 -593 -563 0
-497 -593 -564 0
-497 -593 -566 0
-497 -593 -567 0
-497 -593 -568 0
-498 581 0
-498 593 523 524 543 544 547 548 559 560 563 564 567 568 0
-498 -593 -523 0
-498 -593 -524 0
-498 -593 -543 0
-498 -593 -544 0
-498 -593 -547 0
-498 -593 -548 0
-498 -593 -559 0
-498 -593 -560 0
-498 -593 -563 0
-498 -593 -564 0
-498 -593 -567 0
-498 -593 -568 0
-499 582 0
-499 593 524 544 548 560 564 568 0
-499 -593 -524 0
-499 -593 -544 0
-499 -593 -548 0
-499 -593 -560 0
-499 -593 -564 0
-499 -593 -568 0
-500 583 0
-500 593 0
-501 593 526 527 528 546 547 548 550 551 552 562 563 564 566 567 568 0
-501 -593 -526 0
-501 -593 -527 0
-501 -593 -528 0
-501 -593 -546 0
-501 -593 -547 0
-501 -593 -548 0
-501 -593 -550 0
-501 -593 -551 0
-501 -593 -552 0
-501 -593 -562 0
-501 -593 -563 0
-501 -593 -564 0
-501 -593 -566 0
-501 -593 -567 0
-501 -593 -568 0
-502 585 0
-502 593 527 528 547 548 551 552 563 564 567 568 0
-502 -593 -527 0
-502 -593 -528 0
-502 -593 -547 0
-502 -593 -548 0
-502 -593 -551 0
-502 -593 -552 0
-502 -593 -563 0
-502 -593 -564 0
-502 -593 -567 0
-502 -593 -568 0
-503 586 0
-503 593 528 548 552 564 568 0
-503 -593 -528 0
-503 -593 -548 0
-503 -593 -552 0
-503 -593 -564 0
-503 -593 -568 0
-504 587 0
-504 593 0
-505 593 530 531 532 550 551 552 566 567 568 0
-505 -593 -530 0
-505 -593 -531 0
-505 -593 -532 0
-505 -593 -550 0
-505 -593 -551 0
-505 -593 -552 0
-505 -593 -566 0
-505 -593 -567 0
-505 -593 -568 0
-506 589 0
-506 593 531 532 551 552 567 568 0
-506 -593 -531 0
-506 -593 -532 0
-506 -593 -551 0
-506 -593 -552 0
-506 -593 -567 0
-506 -593 -568 0
-507 590 0
-507 593 532 552 568 0
-507 -593 -532 0
-507 -593 -552 0
-507 -593 -568 0
-508 591 0
-508 593 0
-509 594 486 487 488 534 535 536 554 555 556 0
-509 -594 -486 0
-509 -594 -487 0
-509 -594 -488 0
-509 -594 -534 0
-509 -594 -535 0
-509 -594 -536 0
-509 -594 -554 0
-509 -594 -555 0
-509 -594 -556 0
-510 569 0
-510 594 487 488 535 536 555 556 0
-510 -594 -487 0
-510 -594 -488 0
-510 -594 -535 0
-510 -594 -536 0
-510 -594 -555 0
-510 -594 -556 0
-511 570 0
-511 594 488 536 556 0
-511 -594 -488 0
-511 -594 -536 0
-511 -594 -556 0
-512 571 0
-512 594 0
-513 594 490 491 492 534 535 536 538 539 540 554 555 556 558 559 560 0
-513 -594 -490 0
-513 -594 -491 0
-513 -594 -492 0
-513 -594 -534 0
-513 -594 -535 0
-513 -594 -536 0
-513 -594 -538 0
-513 -594 -539 0
-513 -594 -540 0
-513 -594 -554 0
-513 -594 -555 0
-513 -594 -556 0
-513 -594 -558 0
-513 -594 -559 0
-513 -594 -560 0
-514 573 0
-514 594 491 492 535 536 539 540 555 556 559 560 0
-514 -594 -491 0
-514 -594 -492 0
-514 -594 -535 0
-514 -594 -536 0
-514 -594 -539 0
-514 -594 -540 0
-514 -594 -555 0
-514 -594 -556 0
-514 -594 -559 0
-514 -594 -560 0
-515 574 0
-515 594 492 536 540 556 560 0
-515 -594 -492 0
-515 -594 -536 0
-515 -594 -540 0
-515 -594 -556 0
-515 -594 -560 0
-516 575 0
-516 594 0
-517 594 494 495 496 538 539 540 542 543 544 554 555 556 558 559 560 562 563 564 0
-517 -594 -494 0
-517 -594 -495 0
-517 -594 -496 0
-517 -594 -538 0
-517 -594 -539 0
-517 -594 -540 0
-517 -594 -542 0
-517 -594 -543 0
-517 -594 -544 0
-517 -594 -554 0
-517 -594 -555 0
-517 -594 -556 0
-517 -594 -558 0
-517 -594 -559 0
-517 -594 -560 0
-517 -594 -562 0
-517 -594 -563 0
-517 -594 -564 0
-518 577 0
-518 594 495 496 539 540 543 544 555 556 559 560 563 564 0
-518 -594 -495 0
-518 -594 -496 0
-518 -594 -539 0
-518 -594 -540 0
-518 -594 -543 0
-518 -594 -544 0
-518 -594 -555 0
-518 -594 -556 0
-518 -594 -559 0
-518 -594 -560 0
-518 -594 -563 0
-518 -594 -564 0
-519 578 0
-519 594 496 540 544 556 560 564 0
-519 -594 -496 0
-519 -594 -540 0
-519 -594 -544 0
-519 -594 -556 0
-519 -594 -560 0
-519 -594 -564 0
-520 579 0
-520 594 0
-521 594 498 499 500 542 543 544 546 547 548 558 559 560 562 563 564 566 567 568 0
-521 -594 -498 0
-521 -594 -499 0
-521 -594 -500 0
-521 -594 -542 0
-521 -594 -543 0
-521 -594 -544 0
-521 -594 -546 0
-521 -594 -547 0
-521 -594 -548 0
-521 -594 -558 0
-521 -594 -559 0
-521 -594 -560 0
-521 -594 -562 0
-521 -594 -563 0
-521 -594 -564 0
-521 -594 -566 0
-521 -594 -567 0
-521 -594 -568 0
-522 581 0
-522 594 499 500 543 544 547 548 559 560 563 564 567 568 0
-522 -594 -499 0
-522 -594 -500 0
-522 -594 -543 0
-522 -594 -544 0
-522 -594 -547 0
-522 -594 -548 0
-522 -594 -559 0
-522 -594 -560 0
-522 -594 -563 0
-522 -594 -564 0
-522 -594 -567 0
-522 -594 -568 0
-523 582 0
-523 594 500 544 548 560 564 568 0
-523 -594 -500 0
-523 -594 -544 0
-523 -594 -548 0
-523 -594 -560 0
-523 -594 -564 0
-523 -594 -568 0
-524 583 0
-524 594 0
-525 594 502 503 504 546 547 548 550 551 552 562 563 564 566 567 568 0
-525 -594 -502 0
-525 -594 -503 0
-525 -594 -504 0
-525 -594 -546 0
-525 -594 -547 0
-525 -594 -548 0
-525 -594 -550 0
-525 -594 -551 0
-525 -594 -552 0
-525 -594 -562 0
-525 -594 -563 0
-525 -594 -564 0
-525 -594 -566 0
-525 -594 -567 0
-525 -594 -568 0
-526 585 0
-526 594 503 504 547 548 551 552 563 564 567 568 0
-526 -594 -503 0
-526 -594 -504 0
-526 -594 -547 0
-526 -594 -548 0
-526 -594 -551 0
-526 -594 -552 0
-526 -594 -563 0
-526 -594 -564 0
-526 -594 -567 0
-526 -594 -568 0
-527 586 0
-527 594 504 548 552 564 568 0
-527 -594 -504 0
-527 -594 -548 0
-527 -594 -552 0
-527 -594 -564 0
-527 -594 -568 0
-528 587 0
-528 594 0
-529 594 506 507 508 550 551 552 566 567 568 0
-529 -594 -506 0
-529 -594 -507 0
-529 -594 -508 0
-529 -594 -550 0
-529 -594 -551 0
-529 -594 -552 0
-529 -594 -566 0
-529 -594 -567 0
-529 -594 -568 0
-530 589 0
-530 594 507 508 551 552 567 568 0
-530 -594 -507 0
-530 -594 -508 0
-530 -594 -551 0
-530 -594 -552 0
-530 -594 -567 0
-530 -594 -568 0
-531 590 0
-531 594 508 552 568 0
-531 -594 -508 0
-531 -594 -552 0
-531 -594 -568 0
-532 591 0
-532 594 0
-533 595 486 487 488 490 491 492 510 511 512 514 515 516 554 555 556 558 559 560 0
-533 -595 -486 0
-533 -595 -487 0
-533 -595 -488 0
-533 -595 -490 0
-533 -595 -491 0
-533 -595 -492 0
-533 -595 -510 0
-533 -595 -511 0
-533 -595 -512 0
-533 -595 -514 0
-533 -595 -515 0
-533 -595 -516 0
-533 -595 -554 0
-533 -595 -555 0
-533 -595 -556 0
-533 -595 -558 0
-533 -595 -559 0
-533 -595 -560 0
-534 569 573 0
-534 595 487 488 491 492 511 512 515 516 555 556 559 560 0
-534 -595 -487 0
-534 -595 -488 0
-534 -595 -491 0
-534 -595 -492 0
-534 -595 -511 0
-534 -595 -512 0
-534 -595 -515 0
-534 -595 -516 0
-534 -595 -555 0
-534 -595 -556 0
-534 -595 -559 0
-534 -595 -560 0
-535 570 574 0
-535 595 488 492 512 516 556 560 0
-535 -595 -488 0
-535 -595 -492 0
-535 -595 -512 0
-535 -595 -516 0
-535 -595 -556 0
-535 -595 -560 0
-536 571 575 0
-536 595 0
-537 595 490 491 492 494 495 496 514 515 516 518 519 520 554 555 556 558 559 560 562 563 564 0
-537 -595 -490 0
-537 -595 -491 0
-537 -595 -492 0
-537 -595 -494 0
-537 -595 -495 0
-537 -595 -496 0
-537 -595 -514 0
-537 -595 -515 0
-537 -595 -516 0
-537 -595 -518 0
-537 -595 -519 0
-537 -595 -520 0
-537 -595 -554 0
-537 -595 -555 0
-537 -595 -556 0
-537 -595 -558 0
-537 -595 -559 0
-537 -595 -560 0
-537 -595 -562 0
-537 -595 -563 0
-537 -595 -564 0
-538 573 577 0
-538 595 491 492 495 496 515 516 519 520 555 556 559 560 563 564 0
-538 -595 -491 0
-538 -595 -492 0
-538 -595 -495 0
-538 -595 -496 0
-538 -595 -515 0
-538 -595 -516 0
-538 -595 -519 0
-538 -595 -520 0
-538 -595 -555 0
-538 -595 -556 0
-538 -595 -559 0
-538 -595 -560 0
-538 -595 -563 0
-538 -595 -564 0
-539 574 578 0
-539 595 492 496 516 520 556 560 564 0
-539 -595 -492 0
-539 -595 -496 0
-539 -595 -516 0
-539 -595 -520 0
-539 -595 -556 0
-539 -595 -560 0
-539 -595 -564 0
-540 575 579 0
-540 595 0
-541 595 494 495 496 498 499 500 518 519 520 522 523 524 554 555 556 558 559 560 562 563 564 566 567 568 0
-541 -595 -494 0
-541 -595 -495 0
-541 -595 -496 0
-541 -595 -498 0
-541 -595 -499 0
-541 -595 -500 0
-541 -595 -518 0
-541 -595 -519 0
-541 -595 -520 0
-541 -595 -522 0
-541 -595 -523 0
-541 -595 -524 0
-541 -595 -554 0
-541 -595 -555 0
-541 -595 -556 0
-541 -595 -558 0
-541 -595 -559 0
-541 -595 -560 0
-541 -595 -562 0
-541 -595 -563 0
-541 -595 -564 0
-541 -595 -566 0
-541 -595 -567 0
-541 -595 -568 0
-542 577 581 0
-542 595 495 496 499 500 519 520 523 524 555 556 559 560 563 564 567 568 0
-542 -595 -495 0
-542 -595 -496 0
-542 -595 -499 0
-542 -595 -500 0
-542 -595 -519 0
-542 -595 -520 0
-542 -595 -523 0
-542 -595 -524 0
-542 -595 -555 0
-542 -595 -556 0
-542 -595 -559 0
-542 -595 -560 0
-542 -595 -563 0
-542 -595 -564 0
-542 -595 -567 0
-542 -595 -568 0
-543 578 582 0
-543 595 496 500 520 524 556 560 564 568 0
-543 -595 -496 0
-543 -595 -500 0
-543 -595 -520 0
-543 -595 -524 0
-543 -595 -556 0
-543 -595 -560 0
-543 -595 -564 0
-543 -595 -568 0
-544 579 583 0
-544 595 0
-545 595 498 499 500 502 503 504 522 523 524 526 527 528 558 559 560 562 563 564 566 567 568 0
-545 -595 -498 0
-545 -595 -499 0
-545 -595 -500 0
-545 -595 -502 0
-545 -595 -503 0
-545 -595 -504 0
-545 -595 -522 0
-545 -595 -523 0
-545 -595 -524 0
-545 -595 -526 0
-545 -595 -527 0
-545 -595 -528 0
-545 -595 -558 0
-545 -595 -559 0
-545 -595 -560 0
-545 -595 -562 0
-545 -595 -563 0
-545 -595 -564 0
-545 -595 -566 0
-545 -595 -567 0
-545 -595 -568 0
-546 581 585 0
-546 595 499 500 503 504 523 524 527 528 559 560 563 564 567 568 0
-546 -595 -499 0
-546 -595 -500 0
-546 -595 -503 0
-546 -595 -504 0
-546 -595 -523 0
-546 -595 -524 0
-546 -595 -527 0
-546 -595 -528 0
-546 -595 -559 0
-546 -595 -560 0
-546 -595 -563 0
-546 -595 -564 0
-546 -595 -567 0
-546 -595 -568 0
-547 582 586 0
-547 595 500 504 524 528 560 564 568 0
-547 -595 -500 0
-547 -595 -504 0
-547 -595 -524 0
-547 -595 -528 0
-547 -595 -560 0
-547 -595 -564 0
-547 -595 -568 0
-548 583 587 0
-548 595 0
-549 595 502 503 504 506 507 508 526 527 528 530 531 532 562 563 564 566 567 568 0
-549 -595 -502 0
-549 -595 -503 0
-549 -595 -504 0
-549 -595 -506 0
-549 -595 -507 0
-549 -595 -508 0
-549 -595 -526 0
-549 -595 -527 0
-549 -595 -528 0
-549 -595 -530 0
-549 -595 -531 0
-549 -595 -532 0
-549 -595 -562 0
-549 -595 -563 0
-549 -595 -564 0
-549 -595 -566 0
-549 -595 -567 0
-549 -595 -568 0
-550 585 589 0
-550 595 503 504 507 508 527 528 531 532 563 564 567 568 0
-550 -595 -503 0
-550 -595 -504 0
-550 -595 -507 0
-550 -595 -508 0
-550 -595 -527 0
-550 -595 -528 0
-550 -595 -531 0
-550 -595 -532 0
-550 -595 -563 0
-550 -595 -564 0
-550 -595 -567 0
-550 -595 -568 0
-551 586 590 0
-551 595 504 508 528 532 564 568 0
-551 -595 -504 0
-551 -595 -508 0
-551 -595 -528 0
-551 -595 -532 0
-551 -595 -564 0
-551 -595 -568 0
-552 587 591 0
-552 595 0
-553 596 486 487 488 490 491 492 494 495 496 510 511 512 514 515 516 518 519 520 534 535 536 538 539 540 542 543 544 0
-553 -596 -486 0
-553 -596 -487 0
-553 -596 -488 0
-553 -596 -490 0
-553 -596 -491 0
-553 -596 -492 0
-553 -596 -494 0
-553 -596 -495 0
-553 -596 -496 0
-553 -596 -510 0
-553 -596 -511 0
-553 -596 -512 0
-553 -596 -514 0
-553 -596 -515 0
-553 -596 -516 0
-553 -596 -518 0
-553 -596 -519 0
-553 -596 -520 0
-553 -596 -534 0
-553 -596 -535 0
-553 -596 -536 0
-553 -596 -538 0
-553 -596 -539 0
-553 -596 -540 0
-553 -596 -542 0
-553 -596 -543 0
-553 -596 -544 0
-554 569 573 0
-554 569 577 0
-554 573 577 0
-554 596 487 488 491 492 495 496 511 512 515 516 519 520 535 536 539 540 543 544 0
-554 -596 -487 0
-554 -596 -488 0
-554 -596 -491 0
-554 -596 -492 0
-554 -596 -495 0
-554 -596 -496 0
-554 -596 -511 0
-554 -596 -512 0
-554 -596 -515 0
-554 -596 -516 0
-554 -596 -519 0
-554 -596 -520 0
-554 -596 -535 0
-554 -596 -536 0
-554 -596 -539 0
-554 -596 -540 0
-554 -596 -543 0
-554 -596 -544 0
-555 570 574 0
-555 570 578 0
-555 574 578 0
-555 596 488 492 496 512 516 520 536 540 544 0
-555 -596 -488 0
-555 -596 -492 0
-555 -596 -496 0
-555 -596 -512 0
-555 -596 -516 0
-555 -596 -520 0
-555 -596 -536 0
-555 -596 -540 0
-555 -596 -544 0
-556 571 575 0
-556 571 579 0
-556 575 579 0
-556 596 0
-557 596 490 491 492 494 495 496 498 499 500 514 515 516 518 519 520 522 523 524 534 535 536 538 539 540 542 543 544 546 547 548 0
-557 -596 -490 0
-557 -596 -491 0
-557 -596 -492 0
-557 -596 -494 0
-557 -596 -495 0
-557 -596 -496 0
-557 -596 -498 0
-557 -596 -499 0
-557 -596 -500 0
-557 -596 -514 0
-557 -596 -515 0
-557 -596 -516 0
-557 -596 -518 0
-557 -596 -519 0
-557 -596 -520 0
-557 -596 -522 0
-557 -596 -523 0
-557 -596 -524 0
-557 -596 -534 0
-557 -596 -535 0
-557 -596 -536 0
-557 -596 -538 0
-557 -596 -539 0
-557 -596 -540 0
-557 -596 -542 0
-557 -596 -543 0
-557 -596 -544 0
-557 -596 -546 0
-557 -596 -547 0
-557 -596 -548 0
-558 573 577 0
-558 573 581 0
-558 577 581 0
-558 596 491 492 495 496 499 500 515 516 519 520 523 524 535 536 539 540 543 544 547 548 0
-558 -596 -491 0
-558 -596 -492 0
-558 -596 -495 0
-558 -596 -496 0
-558 -596 -499 0
-558 -596 -500 0
-558 -596 -515 0
-558 -596 -516 0
-558 -596 -519 0
-558 -596 -520 0
-558 -596 -523 0
-558 -596 -524 0
-558 -596 -535 0
-558 -596 -536 0
-558 -596 -539 0
-558 -596 -540 0
-558 -596 -543 0
-558 -596 -544 0
-558 -596 -547 0
-558 -596 -548 0
-559 574 578 0
-559 574 582 0
-559 578 582 0
-559 596 492 496 500 516 520 524 536 540 544 548 0
-559 -596 -492 0
-559 -596 -496 0
-559 -596 -500 0
-559 -596 -516 0
-559 -596 -520 0
-559 -596 -524 0
-559 -596 -536 0
-559 -596 -540 0
-559 -596 -544 0
-559 -596 -548 0
-560 575 579 0
-560 575 583 0
-560 579 583 0
-560 596 0
-561 596 494 495 496 498 499 500 502 503 504 518 519 520 522 523 524 526 527 528 538 539 540 542 543 544 546 547 548 550 551 552 0
-561 -596 -494 0
-561 -596 -495 0
-561 -596 -496 0
-561 -596 -498 0
-561 -596 -499 0
-561 -596 -500 0
-561 -596 -502 0
-561 -596 -503 0
-561 -596 -504 0
-561 -596 -518 0
-561 -596 -519 0
-561 -596 -520 0
-561 -596 -522 0
-561 -596 -523 0
-561 -596 -524 0
-561 -596 -526 0
-561 -596 -527 0
-561 -596 -528 0
-561 -596 -538 0
-561 -596 -539 0
-561 -596 -540 0
-561 -596 -542 0
-561 -596 -543 0
-561 -596 -544 0
-561 -596 -546 0
-561 -596 -547 0
-561 -596 -548 0
-561 -596 -550 0
-561 -596 -551 0
-561 -596 -552 0
-562 577 581 0
-562 577 585 0
-562 581 585 0
-562 596 495 496 499 500 503 504 519 520 523 524 527 528 539 540 543 544 547 548 551 552 0
-562 -596 -495 0
-562 -596 -496 0
-562 -596 -499 0
-562 -596 -500 0
-562 -596 -503 0
-562 -596 -504 0
-562 -596 -519 0
-562 -596 -520 0
-562 -596 -523 0
-562 -596 -524 0
-562 -596 -527 0
-562 -596 -528 0
-562 -596 -539 0
-562 -596 -540 0
-562 -596 -543 0
-562 -596 -544 0
-562 -596 -547 0
-562 -596 -548 0
-562 -596 -551 0
-562 -596 -552 0
-563 578 582 0
-563 578 586 0
-563 582 586 0
-563 596 496 500 504 520 524 528 540 544 548 552 0
-563 -596 -496 0
-563 -596 -500 0
-563 -596 -504 0
-563 -596 -520 0
-563 -596 -524 0
-563 -596 -528 0
-563 -596 -540 0
-563 -596 -544 0
-563 -596 -548 0
-563 -596 -552 0
-564 579 583 0
-564 579 587 0
-564 583 587 0
-564 596 0
-565 596 498 499 500 502 503 504 506 507 508 522 523 524 526 527 528 530 531 532 542 543 544 546 547 548 550 551 552 0
-565 -596 -498 0
-565 -596 -499 0
-565 -596 -500 0
-565 -596 -502 0
-565 -596 -503 0
-565 -596 -504 0
-565 -596 -506 0
-565 -596 -507 0
-565 -596 -508 0
-565 -596 -522 0
-565 -596 -523 0
-565 -596 -524 0
-565 -596 -526 0
-565 -596 -527 0
-565 -596 -528 0
-565 -596 -530 0
-565 -596 -531 0
-565 -596 -532 0
-565 -596 -542 0
-565 -596 -543 0
-565 -596 -544 0
-565 -596 -546 0
-565 -596 -547 0
-565 -596 -548 0
-565 -596 -550 0
-565 -596 -551 0
-565 -596 -552 0
-566 581 585 0
-566 581 589 0
-566 585 589 0
-566 596 499 500 503 504 507 508 523 524 527 528 531 532 543 544 547 548 551 552 0
-566 -596 -499 0
-566 -596 -500 0
-566 -596 -503 0
-566 -596 -504 0
-566 -596 -507 0
-566 -596 -508 0
-566 -596 -523 0
-566 -596 -524 0
-566 -596 -527 0
-566 -596 -528 0
-566 -596 -531 0
-566 -596 -532 0
-566 -596 -543 0
-566 -596 -544 0
-566 -596 -547 0
-566 -596 -548 0
-566 -596 -551 0
-566 -596 -552 0
-567 582 586 0
-567 582 590 0
-567 586 590 0
-567 596 500 504 508 524 528 532 544 548 552 0
-567 -596 -500 0
-567 -596 -504 0
-567 -596 -508 0
-567 -596 -524 0
-567 -596 -528 0
-567 -596 -532 0
-567 -596 -544 0
-567 -596 -548 0
-567 -596 -552 0
-568 583 587 0
-568 583 591 0
-568 587 591 0
-568 596 0
597 598 599 600 601 602 0
-597 -598 0
-597 -599 0
-597 -600 0
-597 -601 0
-597 -602 0
-598 -599 0
-598 -600 0
-598 -601 0
-598 -602 0
-599 -600 0
-599 -601 0
-599 -602 0
-600 -601 0
-600 -602 0
-601 -602 0
603 604 605 606 0
-603 -604 0
-603 -605 0
-603 -606 0
-604 -605 0
-604 -606 0
-605 -606 0
607 608 609 610 611 612 0
-607 -608 0
-607 -609 0
-607 -610 0
-607 -611 0
-607 -612 0
-608 -609 0
-608 -610 0
-608 -611 0
-608 -612 0
-609 -610 0
-609 -611 0
-609 -612 0
-610 -611 0
-610 -612 0
-611 -612 0
613 614 615 616 0
-613 -614 0
-613 -615 0
-613 -616 0
-614 -615 0
-614 -616 0
-615 -616 0
617 618 619 620 621 0
-617 -618 0
-617 -619 0
-617 -620 0
-617 -621 0
-618 -619 0
-618 -620 0
-618 -621 0
-619 -620 0
-619 -621 0
-620 -621 0
622 623 624 625 0
-622 -623 0
-622 -624 0
-622 -625 0
-623 -624 0
-623 -625 0
-624 -625 0
626 627 628 629 0
-626 -627 0
-626 -628 0
-626 -629 0
-627 -628 0
-627 -629 0
-628 -629 0
630 631 632 633 0
-630 -631 0
-630 -632 0
-630 -633 0
-631 -632 0
-631 -633 0
-632 -633 0
-634 597 0
-634 603 0
-597 -603 634 0
-635 597 0
-635 604 0
-597 -604 635 0
-636 597 0
-636 605 0
-597 -605 636 0
-637 597 0
-637 606 0
-597 -606 637 0
-638 598 0
-638 603 0
-598 -603 638 0
-639 598 0
-639 604 0
-598 -604 639 0
-640 598 0
-640 605 0
-598 -605 640 0
-641 598 0
-641 606 0
-598 -606 641 0
-642 599 0
-642 603 0
-599 -603 642 0
-643 599 0
-643 604 0
-599 -604 643 0
-644 599 0
-644 605 0
-599 -605 644 0
-645 599 0
-645 606 0
-599 -606 645 0
-646 600 0
-646 603 0
-600 -603 646 0
-647 600 0
-647 604 0
-600 -604 647 0
-648 600 0
-648 605 0
-600 -605 648 0
-649 600 0
-649 606 0
-600 -606 649 0
-650 601 0
-650 603 0
-601 -603 650 0
-651 601 0
-651 604 0
-601 -604 651 0
-652 601 0
-652 605 0
-601 -605 652 0
-653 601 0
-653 606 0
-601 -606 653 0
-654 602 0
-654 603 0
-602 -603 654 0
-655 602 0
-655 604 0
-602 -604 655 0
-656 602 0
-656 605 0
-602 -605 656 0
-657 602 0
-657 606 0
-602 -606 657 0
-658 607 0
-658 613 0
-607 -613 658 0
-659 607 0
-659 614 0
-607 -614 659 0
-660 607 0
-660 615 0
-607 -615 660 0
-661 607 0
-661 616 0
-607 -616 661 0
-662 608 0
-662 613 0
-608 -613 662 0
-663 608 0
-663 614 0
-608 -614 663 0
-664 608 0
-664 615 0
-608 -615 664 0
-665 608 0
-665 616 0
-608 -616 665 0
-666 609 0
-666 613 0
-609 -613 666 0
-667 609 0
-667 614 0
-609 -614 667 0
-668 609 0
-668 615 0
-609 -615 668 0
-669 609 0
-669 616 0
-609 -616 669 0
-670 610 0
-670 613 0
-610 -613 670 0
-671 610 0
-671 614 0
-610 -614 671 0
-672 610 0
-672 615 0
-610 -615 672 0
-673 610 0
-673 616 0
-610 -616 673 0
-674 611 0
-674 613 0
-611 -613 674 0
-675 611 0
-675 614 0
-611 -614 675 0
-676 611 0
-676 615 0
-611 -615 676 0
-677 611 0
-677 616 0
-611 -616 677 0
-678 612 0
-678 613 0
-612 -613 678 0
-679 612 0
-679 614 0
-612 -614 679 0
-680 612 0
-680 615 0
-612 -615 680 0
-681 612 0
-681 616 0
-612 -616 681 0
-682 617 0
-682 622 0
-617 -622 682 0
-683 617 0
-683 623 0
-617 -623 683 0
-684 617 0
-684 624 0
-617 -624 684 0
-685 617 0
-685 625 0
-617 -625 685 0
-686 618 0
-686 622 0
-618 -622 686 0
-687 618 0
-687 623 0
-618 -623 687 0
-688 618 0
-688 624 0
-618 -624 688 0
-689 618 0
-689 625 0
-618 -625 689 0
-690 619 0
-690 622 0
-619 -622 690 0
-691 619 0
-691 623 0
-619 -623 691 0
-692 619 0
-692 624 0
-619 -624 692 0
-693 619 0
-693 625 0
-619 -625 693 0
-694 620 0
-694 622 0
-620 -622 694 0
-695 620 0
-695 623 0
-620 -623 695 0
-696 620 0
-696 624 0
-620 -624 696 0
-697 620 0
-697 625 0
-620 -625 697 0
-698 621 0
-698 622 0
-621 -622 698 0
-699 621 0
-699 623 0
-621 -623 699 0
-700 621 0
-700 624 0
-621 -624 700 0
-701 621 0
-701 625 0
-621 -625 701 0
-702 626 0
-702 630 0
-626 -630 702 0
-703 626 0
-703 631 0
-626 -631 703 0
-704 626 0
-704 632 0
-626 -632 704 0
-705 626 0
-705 633 0
-626 -633 705 0
-706 627 0
-706 630 0
-627 -630 706 0
-707 627 0
-707 631 0
-627 -631 707 0
-708 627 0
-708 632 0
-627 -632 708 0
-709 627 0
-709 633 0
-627 -633 709 0
-710 628 0
-710 630 0
-628 -630 710 0
-711 628 0
-711 631 0
-628 -631 711 0
-712 628 0
-712 632 0
-628 -632 712 0
-713 628 0
-713 633 0
-628 -633 713 0
-714 629 0
-714 630 0
-629 -630 714 0
-715 629 0
-715 631 0
-629 -631 715 0
-716 629 0
-716 632 0
-629 -632 716 0
-717 629 0
-717 633 0
-629 -633 717 0
-718 634 658 682 702 0
-634 718 0
-658 718 0
-682 718 0
-702 718 0
-719 635 659 683 703 0
-635 719 0
-659 719 0
-683 719 0
-703 719 0
-720 636 660 684 704 0
-636 720 0
-660 720 0
-684 720 0
-704 720 0
-721 637 661 685 705 0
-637 721 0
-661 721 0
-685 721 0
-705 721 0
-722 638 662 682 686 702 706 0
-638 722 0
-662 722 0
-682 722 0
-686 722 0
-702 722 0
-706 722 0
-723 639 663 683 687 703 707 0
-639 723 0
-663 723 0
-683 723 0
-687 723 0
-703 723 0
-707 723 0
-724 640 664 684 688 704 708 0
-640 724 0
-664 724 0
-684 724 0
-688 724 0
-704 724 0
-708 724 0
-725 641 665 685 689 705 709 0
-641 725 0
-665 725 0
-685 725 0
-689 725 0
-705 725 0
-709 725 0
-726 642 666 686 690 702 706 710 0
-642 726 0
-666 726 0
-686 726 0
-690 726 0
-702 726 0
-706 726 0
-710 726 0
-727 643 667 687 691 703 707 711 0
-643 727 0
-667 727 0
-687 727 0
-691 727 0
-703 727 0
-707 727 0
-711 727 0
-728 644 668 688 692 704 708 712 0
-644 728 0
-668 728 0
-688 728 0
-692 728 0
-704 728 0
-708 728 0
-712 728 0
-729 645 669 689 693 705 709 713 0
-645 729 0
-669 729 0
-689 729 0
-693 729 0
-705 729 0
-709 729 0
-713 729 0
-730 646 670 690 694 706 710 714 0
-646 730 0
-670 730 0
-690 730 0
-694 730 0
-706 730 0
-710 730 0
-714 730 0
-731 647 671 691 695 707 711 715 0
-647 731 0
-671 731 0
-691 731 0
-695 731 0
-707 731 0
-711 731 0
-715 731 0
-732 648 672 692 696 708 712 716 0
-648 732 0
-672 732 0
-692 732 0
-696 732 0
-708 732 0
-712 732 0
-716 732 0
-733 649 673 693 697 709 713 717 0
-649 733 0
-673 733 0
-693 733 0
-697 733 0
-709 733 0
-713 733 0
-717 733 0
-734 650 674 694 698 710 714 0
-650 734 0
-674 734 0
-694 734 0
-698 734 0
-710 734 0
-714 734 0
-735 651 675 695 699 711 715 0
-651 735 0
-675 735 0
-695 735 0
-699 735 0
-711 735 0
-715 735 0
-736 652 676 696 700 712 716 0
-652 736 0
-676 736 0
-696 736 0
-700 736 0
-712 736 0
-716 736 0
-737 653 677 697 701 713 717 0
-653 737 0
-677 737 0
-697 737 0
-701 737 0
-713 737 0
-717 737 0
-738 654 678 698 714 0
-654 738 0
-678 738 0
-698 738 0
-714 738 0
-739 655 679 699 715 0
-655 739 0
-679 739 0
-699 739 0
-715 739 0
-740 656 680 700 716 0
-656 740 0
-680 740 0
-700 740 0
-716 740 0
-741 657 681 701 717 0
-657 741 0
-681 741 0
-701 741 0
-717 741 0
-634 -658 0
-634 -682 0
-634 -702 0
-635 -659 0
-635 -683 0
-635 -703 0
-636 -660 0
-636 -684 0
-636 -704 0
-637 -661 0
-637 -685 0
-637 -705 0
-638 -662 0
-638 -682 0
-638 -686 0
-638 -702 0
-638 -706 0
-639 -663 0
-639 -683 0
-639 -687 0
-639 -703 0
-639 -707 0
-640 -664 0
-640 -684 0
-640 -688 0
-640 -704 0
-640 -708 0
-641 -665 0
-641 -685 0
-641 -689 0
-641 -705 0
-641 -709 0
-642 -666 0
-642 -686 0
-642 -690 0
-642 -702 0
-642 -706 0
-642 -710 0
-643 -667 0
-643 -687 0
-643 -691 0
-643 -703 0
-643 -707 0
-643 -711 0
-644 -668 0
-644 -688 0
-644 -692 0
-644 -704 0
-644 -708 0
-644 -712 0
-645 -669 0
-645 -689 0
-645 -693 0
-645 -705 0
-645 -709 0
-645 -713 0
-646 -670 0
-646 -690 0
-646 -694 0
-646 -706 0
-646 -710 0
-646 -714 0
-647 -671 0
-647 -691 0
-647 -695 0
-647 -707 0
-647 -711 0
-647 -715 0
-648 -672 0
-648 -692 0
-648 -696 0
-648 -708 0
-648 -712 0
-648 -716 0
-649 -673 0
-649 -693 0
-649 -697 0
-649 -709 0
-649 -713 0
-649 -717 0
-650 -674 0
-650 -694 0
-650 -698 0
-650 -710 0
-650 -714 0
-651 -675 0
-651 -695 0
-651 -699 0
-651 -711 0
-651 -715 0
-652 -676 0
-652 -696 0
-652 -700 0
-652 -712 0
-652 -716 0
-653 -677 0
-653 -697 0
-653 -701 0
-653 -713 0
-653 -717 0
-654 -678 0
-654 -698 0
-654 -714 0
-655 -679 0
-655 -699 0
-655 -715 0
-656 -680 0
-656 -700 0
-656 -716 0
-657 -681 0
-657 -701 0
-657 -717 0
-658 -682 0
-658 -702 0
-659 -683 0
-659 -703 0
-660 -684 0
-660 -704 0
-661 -685 0
-661 -705 0
-662 -682 0
-662 -686 0
-662 -702 0
-662 -706 0
-663 -683 0
-663 -687 0
-663 -703 0
-663 -707 0
-664 -684 0
-664 -688 0
-664 -704 0
-664 -708 0
-665 -685 0
-665 -689 0
-665 -705 0
-665 -709 0
-666 -686 0
-666 -690 0
-666 -702 0
-666 -706 0
-666 -710 0
-667 -687 0
-667 -691 0
-667 -703 0
-667 -707 0
-667 -711 0
-668 -688 0
-668 -692 0
-668 -704 0
-668 -708 0
-668 -712 0
-669 -689 0
-669 -693 0
-669 -705 0
-669 -709 0
-669 -713 0
-670 -690 0
-670 -694 0
-670 -706 0
-670 -710 0
-670 -714 0
-671 -691 0
-671 -695 0
-671 -707 0
-671 -711 0
-671 -715 0
-672 -692 0
-672 -696 0
-672 -708 0
-672 -712 0
-672 -716 0
-673 -693 0
-673 -697 0
-673 -709 0
-673 -713 0
-673 -717 0
-674 -694 0
-674 -698 0
-674 -710 0
-674 -714 0
-675 -695 0
-675 -699 0
-675 -711 0
-675 -715 0
-676 -696 0
-676 -700 0
-676 -712 0
-676 -716 0
-677 -697 0
-677 -701 0
-677 -713 0
-677 -717 0
-678 -698 0
-678 -714 0
-679 -699 0
-679 -715 0
-680 -700 0
-680 -716 0
-681 -701 0
-681 -717 0
-682 -702 0
-682 -706 0
-683 -703 0
-683 -707 0
-684 -704 0
-684 -708 0
-685 -705 0
-685 -709 0
-686 -702 0
-686 -706 0
-686 -710 0
-687 -703 0
-687 -707 0
-687 -711 0
-688 -704 0
-688 -708 0
-688 -712 0
-689 -705 0
-689 -709 0
-689 -713 0
-690 -702 0
-690 -706 0
-690 -710 0
-690 -714 0
-691 -703 0
-691 -707 0
-691 -711 0
-691 -715 0
-692 -704 0
-692 -708 0
-692 -712 0
-692 -716 0
-693 -705 0
-693 -709 0
-693 -713 0
-693 -717 0
-694 -706 0
-694 -710 0
-694 -714 0
-695 -707 0
-695 -711 0
-695 -715 0
-696 -708 0
-696 -712 0
-696 -716 0
-697 -709 0
-697 -713 0
-697 -717 0
-698 -710 0
-698 -714 0
-699 -711 0
-699 -715 0
-700 -712 0
-700 -716 0
-701 -713 0
-701 -717 0
-634 742 659 660 661 683 684 685 703 704 705 0
-634 -742 -659 0
-634 -742 -660 0
-634 -742 -661 0
-634 -742 -683 0
-634 -742 -684 0
-634 -742 -685 0
-634 -742 -703 0
-634 -742 -704 0
-634 -742 -705 0
-635 718 0
-635 742 660 661 684 685 704 705 0
-635 -742 -660 0
-635 -742 -661 0
-635 -742 -684 0
-635 -742 -685 0
-635 -742 -704 0
-635 -742 -705 0
-636 719 0
-636 742 661 685 705 0
-636 -742 -661 0
-636 -742 -685 0
-636 -742 -705 0
-637 720 0
-637 742 0
-638 742 663 664 665 683 684 685 687 688 689 703 704 705 707 708 709 0
-638 -742 -663 0
-638 -742 -664 0
-638 -742 -665 0
-638 -742 -683 0
-638 -742 -684 0
-638 -742 -685 0
-638 -742 -687 0
-638 -742 -688 0
-638 -742 -689 0
-638 -742 -703 0
-638 -742 -704 0
-638 -742 -705 0
-638 -742 -707 0
-638 -742 -708 0
-638 -742 -709 0
-639 722 0
-639 742 664 665 684 685 688 689 704 705 708 709 0
-639 -742 -664 0
-639 -742 -665 0
-639 -742 -684 0
-639 -742 -685 0
-639 -742 -688 0
-639 -742 -689 0
-639 -742 -704 0
-639 -742 -705 0
-639 -742 -708 0
-639 -742 -709 0
-640 723 0
-640 742 665 685 689 705 709 0
-640 -742 -665 0
-640 -742 -685 0
-640 -742 -689 0
-640 -742 -705 0
-640 -742 -709 0
-641 724 0
-641 742 0
-642 742 667 668 669 687 688 689 691 692 693 703 704 705 707 708 709 711 712 713 0
-642 -742 -667 0
-642 -742 -668 0
-642 -742 -669 0
-642 -742 -687 0
-642 -742 -688 0
-642 -742 -689 0
-642 -742 -691 0
-642 -742 -692 0
-642 -742 -693 0
-642 -742 -703 0
-642 -742 -704 0
-642 -742 -705 0
-642 -742 -707 0
-642 -742 -708 0
-642 -742 -709 0
-642 -742 -711 0
-642 -742 -712 0
-642 -742 -713 0
-643 726 0
-643 742 668 669 688 689 692 693 704 705 708 709 712 713 0
-643 -742 -668 0
-643 -742 -669 0
-643 -742 -688 0
-643 -742 -689 0
-643 -742 -692 0
-643 -742 -693 0
-643 -742 -704 0
-643 -742 -705 0
-643 -742 -708 0
-643 -742 -709 0
-643 -742 -712 0
-643 -742 -713 0
-644 727 0
-644 742 669 689 693 705 709 713 0
-644 -742 -669 0
-644 -742 -689 0
-644 -742 -693 0
-644 -742 -705 0
-644 -742 -709 0
-644 -742 -713 0
-645 728 0
-645 742 0
-646 742 671 672 673 691 692 693 695 696 697 707 708 709 711 712 713 715 716 717 0
-646 -742 -671 0
-646 -742 -672 0
-646 -742 -673 0
-646 -742 -691 0
-646 -742 -692 0
-646 -742 -693 0
-646 -742 -695 0
-646 -742 -696 0
-646 -742 -697 0
-646 -742 -707 0
-646 -742 -708 0
-646 -742 -709 0
-646 -742 -711 0
-646 -742 -712 0
-646 -742 -713 0
-646 -742 -715 0
-646 -742 -716 0
-646 -742 -717 0
-647 730 0
-647 742 672 673 692 693 696 697 708 709 712 713 716 717 0
-647 -742 -672 0
-647 -742 -673 0
-647 -742 -692 0
-647 -742 -693 0
-647 -742 -696 0
-647 -742 -697 0
-647 -742 -708 0
-647 -742 -709 0
-647 -742 -712 0
-647 -742 -713 0
-647 -742 -716 0
-647 -742 -717 0
-648 731 0
-648 742 673 693 697 709 713 717 0
-648 -742 -673 0
-648 -742 -693 0
-648 -742 -697 0
-648 -742 -709 0
-648 -742 -713 0
-648 -742 -717 0
-649 732 0
-649 742 0
-650 742 675 676 677 695 696 697 699 700 701 711 712 713 715 716 717 0
-650 -742 -675 0
-650 -742 -676 0
-650 -742 -677 0
-650 -742 -695 0
-650 -742 -696 0
-650 -742 -697 0
-650 -742 -699 0
-650 -742 -700 0
-650 -742 -701 0
-650 -742 -711 0
-650 -742 -712 0
-650 -742 -713 0
-650 -742 -715 0
-650 -742 -716 0
-650 -742 -717 0
-651 734 0
-651 742 676 677 696 697 700 701 712 713 716 717 0
-651 -742 -676 0
-651 -742 -677 0
-651 -742 -696 0
-651 -742 -697 0
-651 -742 -700 0
-651 -742 -701 0
-651 -742 -712 0
-651 -742 -713 0
-651 -742 -716 0
-651 -742 -717 0
-652 735 0
-652 742 677 697 701 713 717 0
-652 -742 -677 0
-652 -742 -697 0
-652 -742 -701 0
-652 -742 -713 0
-652 -742 -717 0
-653 736 0
-653 742 0
-654 742 679 680 681 699 700 701 715 716 717 0
-654 -742 -679 0
-654 -742 -680 0
-654 -742 -681 0
-654 -742 -699 0
-654 -742 -700 0
-654 -742 -701 0
-654 -742 -715 0
-654 -742 -716 0
-654 -742 -717 0
-655 738 0
-655 742 680 681 700 701 716 717 0
-655 -742 -680 0
-655 -742 -681 0
-655 -742 -700 0
-655 -742 -701 0
-655 -742 -716 0
-655 -742 -717 0
-656 739 0
-656 742 681 701 717 0
-656 -742 -681 0
-656 -742 -701 0
-656 -742 -717 0
-657 740 0
-657 742 0
-658 743 635 636 637 683 684 685 703 704 705 0
-658 -743 -635 0
-658 -743 -636 0
-658 -743 -637 0
-658 -743 -683 0
-658 -743 -684 0
-658 -743 -685 0
-658 -743 -703 0
-658 -743 -704 0
-658 -743 -705 0
-659 718 0
-659 743 636 637 684 685 704 705 0
-659 -743 -636 0
-659 -743 -637 0
-659 -743 -684 0
-659 -743 -685 0
-659 -743 -704 0
-659 -743 -705 0
-660 719 0
-660 743 637 685 705 0
-660 -743 -637 0
-660 -743 -685 0
-660 -743 -705 0
-661 720 0
-661 743 0
-662 743 639 640 641 683 684 685 687 688 689 703 704 705 707 708 709 0
-662 -743 -639 0
-662 -743 -640 0
-662 -743 -641 0
-662 -743 -683 0
-662 -743 -684 0
-662 -743 -685 0
-662 -743 -687 0
-662 -743 -688 0
-662 -743 -689 0
-662 -743 -703 0
-662 -743 -704 0
-662 -743 -705 0
-662 -743 -707 0
-662 -743 -708 0
-662 -743 -709 0
-663 722 0
-663 743 640 641 684 685 688 689 704 705 708 709 0
-663 -743 -640 0
-663 -743 -641 0
-663 -743 -684 0
-663 -743 -685 0
-663 -743 -688 0
-663 -743 -689 0
-663 -743 -704 0
-663 -743 -705 0
-663 -743 -708 0
-663 -743 -709 0
-664 723 0
-664 743 641 685 689 705 709 0
-664 -743 -641 0
-664 -743 -685 0
-664 -743 -689 0
-664 -743 -705 0
-664 -743 -709 0
-665 724 0
-665 743 0
-666 743 643 644 645 687 688 689 691 692 693 703 704 705 707 708 709 711 712 713 0
-666 -743 -643 0
-666 -743 -644 0
-666 -743 -645 0
-666 -743 -687 0
-666 -743 -688 0
-666 -743 -689 0
-666 -743 -691 0
-666 -743 -692 0
-666 -743 -693 0
-666 -743 -703 0
-666 -743 -704 0
-666 -743 -705 0
-666 -743 -707 0
-666 -743 -708 0
-666 -743 -709 0
-666 -743 -711 0
-666 -743 -712 0
-666 -743 -713 0
-667 726 0
-667 743 644 645 688 689 692 693 704 705 708 709 712 713 0
-667 -743 -644 0
-667 -743 -645 0
-667 -743 -688 0
-667 -743 -689 0
-667 -743 -692 0
-667 -743 -693 0
-667 -743 -704 0
-667 -743 -705 0
-667 -743 -708 0
-667 -743 -709 0
-667 -743 -712 0
-667 -743 -713 0
-668 727 0
-668 743 645 689 693 705 709 713 0
-668 -743 -645 0
-668 -743 -689 0
-668 -743 -693 0
-668 -743 -705 0
-668 -743 -709 0
-668 -743 -713 0
-669 728 0
-669 743 0
-670 743 647 648 649 691 692 693 695 696 697 707 708 709 711 712 713 715 716 717 0
-670 -743 -647 0
-670 -743 -648 0
-670 -743 -649 0
-670 -743 -691 0
-670 -743 -692 0
-670 -743 -693 0
-670 -743 -695 0
-670 -743 -696 0
-670 -743 -697 0
-670 -743 -707 0
-670 -743 -708 0
-670 -743 -709 0
-670 -743 -711 0
-670 -743 -712 0
-670 -743 -713 0
-670 -743 -715 0
-670 -743 -716 0
-670 -743 -717 0
-671 730 0
-671 743 648 649 692 693 696 697 708 709 712 713 716 717 0
-671 -743 -648 0
-671 -743 -649 0
-671 -743 -692 0
-671 -743 -693 0
-671 -743 -696 0
-671 -743 -697 0
-671 -743 -708 0
-671 -743 -709 0
-671 -743 -712 0
-671 -743 -713 0
-671 -743 -716 0
-671 -743 -717 0
-672 731 0
-672 743 649 693 697 709 713 717 0
-672 -743 -649 0
-672 -743 -693 0
-672 -743 -697 0
-672 -743 -709 0
-672 -743 -713 0
-672 -743 -717 0
-673 732 0
-673 743 0
-674 743 651 652 653 695 696 697 699 700 701 711 712 713 715 716 717 0
-674 -743 -651 0
-674 -743 -652 0
-674 -743 -653 0
-674 -743 -695 0
-674 -743 -696 0
-674 -743 -697 0
-674 -743 -699 0
-674 -743 -700 0
-674 -743 -701 0
-674 -743 -711 0
-674 -743 -712 0
-674 -743 -713 0
-674 -743 -715 0
-674 -743 -716 0
-674 -743 -717 0
-675 734 0
-675 743 652 653 696 697 700 701 712 713 716 717 0
-675 -743 -652 0
-675 -743 -653 0
-675 -743 -696 0
-675 -743 -697 0
-675 -743 -700 0
-675 -743 -701 0
-675 -743 -712 0
-675 -743 -713 0
-675 -743 -716 0
-675 -743 -717 0
-676 735 0
-676 743 653 697 701 713 717 0
-676 -743 -653 0
-676 -743 -697 0
-676 -743 -701 0
-676 -743 -713 0
-676 -743 -717 0
-677 736 0
-677 743 0
-678 743 655 656 657 699 700 701 715 716 717 0
-678 -743 -655 0
-678 -743 -656 0
-678 -743 -657 0
-678 -743 -699 0
-678 -743 -700 0
-678 -743 -701 0
-678 -743 -715 0
-678 -743 -716 0
-678 -743 -717 0
-679 738 0
-679 743 656 657 700 701 716 717 0
-679 -743 -656 0
-679 -743 -657 0
-679 -743 -700 0
-679 -743 -701 0
-679 -743 -716 0
-679 -743 -717 0
-680 739 0
-680 743 657 701 717 0
-680 -743 -657 0
-680 -743 -701 0
-680 -743 -717 0
-681 740 0
-681 743 0
-682 744 635 636 637 639 640 641 659 660 661 663 664 665 703 704 705 707 708 709 0
-682 -744 -635 0
-682 -744 -636 0
-682 -744 -637 0
-682 -744 -639 0
-682 -744 -640 0
-682 -744 -641 0
-682 -744 -659 0
-682 -744 -660 0
-682 -744 -661 0
-682 -744 -663 0
-682 -744 -664 0
-682 -744 -665 0
-682 -744 -703 0
-682 -744 -704 0
-682 -744 -705 0
-682 -744 -707 0
-682 -744 -708 0
-682 -744 -709 0
-683 718 722 0
-683 744 636 637 640 641 660 661 664 665 704 705 708 709 0
-683 -744 -636 0
-683 -744 -637 0
-683 -744 -640 0
-683 -744 -641 0
-683 -744 -660 0
-683 -744 -661 0
-683 -744 -664 0
-683 -744 -665 0
-683 -744 -704 0
-683 -744 -705 0
-683 -744 -708 0
-683 -744 -709 0
-684 719 723 0
-684 744 637 641 661 665 705 709 0
-684 -744 -637 0
-684 -744 -641 0
-684 -744 -661 0
-684 -744 -665 0
-684 -744 -705 0
-684 -744 -709 0
-685 720 724 0
-685 744 0
-686 744 639 640 641 643 644 645 663 664 665 667 668 669 703 704 705 707 708 709 711 712 713 0
-686 -744 -639 0
-686 -744 -640 0
-686 -744 -641 0
-686 -744 -643 0
-686 -744 -644 0
-686 -744 -645 0
-686 -744 -663 0
-686 -744 -664 0
-686 -744 -665 0
-686 -744 -667 0
-686 -744 -668 0
-686 -744 -669 0
-686 -744 -703 0
-686 -744 -704 0
-686 -744 -705 0
-686 -744 -707 0
-686 -744 -708 0
-686 -744 -709 0
-686 -744 -711 0
-686 -744 -712 0
-686 -744 -713 0
-687 722 726 0
-687 744 640 641 644 645 664 665 668 669 704 705 708 709 712 713 0
-687 -744 -640 0
-687 -744 -641 0
-687 -744 -644 0
-687 -744 -645 0
-687 -744 -664 0
-687 -744 -665 0
-687 -744 -668 0
-687 -744 -669 0
-687 -744 -704 0
-687 -744 -705 0
-687 -744 -708 0
-687 -744 -709 0
-687 -744 -712 0
-687 -744 -713 0
-688 723 727 0
-688 744 641 645 665 669 705 709 713 0
-688 -744 -641 0
-688 -744 -645 0
-688 -744 -665 0
-688 -744 -669 0
-688 -744 -705 0
-688 -744 -709 0
-688 -744 -713 0
-689 724 728 0
-689 744 0
-690 744 643 644 645 647 648 649 667 668 669 671 672 673 703 704 705 707 708 709 711 712 713 715 716 717 0
-690 -744 -643 0
-690 -744 -644 0
-690 -744 -645 0
-690 -744 -647 0
-690 -744 -648 0
-690 -744 -649 0
-690 -744 -667 0
-690 -744 -668 0
-690 -744 -669 0
-690 -744 -671 0
-690 -744 -672 0
-690 -744 -673 0
-690 -744 -703 0
-690 -744 -704 0
-690 -744 -705 0
-690 -744 -707 0
-690 -744 -708 0
-690 -744 -709 0
-690 -744 -711 0
-690 -744 -712 0
-690 -744 -713 0
-690 -744 -715 0
-690 -744 -716 0
-690 -744 -717 0
-691 726 730 0
-691 744 644 645 648 649 668 669 672 673 704 705 708 709 712 713 716 717 0
-691 -744 -644 0
-691 -744 -645 0
-691 -744 -648 0
-691 -744 -649 0
-691 -744 -668 0
-691 -744 -669 0
-691 -744 -672 0
-691 -744 -673 0
-691 -744 -704 0
-691 -744 -705 0
-691 -744 -708 0
-691 -744 -709 0
-691 -744 -712 0
-691 -744 -713 0
-691 -744 -716 0
-691 -744 -717 0
-692 727 731 0
-692 744 645 649 669 673 705 709 713 717 0
-692 -744 -645 0
-692 -744 -649 0
-692 -744 -669 0
-692 -744 -673 0
-692 -744 -705 0
-692 -744 -709 0
-692 -744 -713 0
-692 -744 -717 0
-693 728 732 0
-693 744 0
-694 744 647 648 649 651 652 653 671 672 673 675 676 677 707 708 709 711 712 713 715 716 717 0
-694 -744 -647 0
-694 -744 -648 0
-694 -744 -649 0
-694 -744 -651 0
-694 -744 -652 0
-694 -744 -653 0
-694 -744 -671 0
-694 -744 -672 0
-694 -744 -673 0
-694 -744 -675 0
-694 -744 -676 0
-694 -744 -677 0
-694 -744 -707 0
-694 -744 -708 0
-694 -744 -709 0
-694 -744 -711 0
-694 -744 -712 0
-694 -744 -713 0
-694 -744 -715 0
-694 -744 -716 0
-694 -744 -717 0
-695 730 734 0
-695 744 648 649 652 653 672 673 676 677 708 709 712 713 716 717 0
-695 -744 -648 0
-695 -744 -649 0
-695 -744 -652 0
-695 -744 -653 0
-695 -744 -672 0
-695 -744 -673 0
-695 -744 -676 0
-695 -744 -677 0
-695 -744 -708 0
-695 -744 -709 0
-695 -744 -712 0
-695 -744 -713 0
-695 -744 -716 0
-695 -744 -717 0
-696 731 735 0
-696 744 649 653 673 677 709 713 717 0
-696 -744 -649 0
-696 -744 -653 0
-696 -744 -673 0
-696 -744 -677 0
-696 -744 -709 0
-696 -744 -713 0
-696 -744 -717 0
-697 732 736 0
-697 744 0
-698 744 651 652 653 655 656 657 675 676 677 679 680 681 711 712 713 715 716 717 0
-698 -744 -651 0
-698 -744 -652 0
-698 -744 -653 0
-698 -744 -655 0
-698 -744 -656 0
-698 -744 -657 0
-698 -744 -675 0
-698 -744 -676 0
-698 -744 -677 0
-698 -744 -679 0
-698 -744 -680 0
-698 -744 -681 0
-698 -744 -711 0
-698 -744 -712 0
-698 -744 -713 0
-698 -744 -715 0
-698 -744 -716 0
-698 -744 -717 0
-699 734 738 0
-699 744 652 653 656 657 676 677 680 681 712 713 716 717 0
-699 -744 -652 0
-699 -744 -653 0
-699 -744 -656 0
-699 -744 -657 0
-699 -744 -676 0
-699 -744 -677 0
-699 -744 -680 0
-699 -744 -681 0
-699 -744 -712 0
-699 -744 -713 0
-699 -744 -716 0
-699 -744 -717 0
-700 735 739 0
-700 744 653 657 677 681 713 717 0
-700 -744 -653 0
-700 -744 -657 0
-700 -744 -677 0
-700 -744 -681 0
-700 -744 -713 0
-700 -744 -717 0
-701 736 740 0
-701 744 0
-702 745 635 636 637 639 640 641 643 644 645 659 660 661 663 664 665 667 668 669 683 684 685 687 688 689 691 692 693 0
-702 -745 -635 0
-702 -745 -636 0
-702 -745 -637 0
-702 -745 -639 0
-702 -745 -640 0
-702 -745 -641 0
-702 -745 -643 0
-702 -745 -644 0
-702 -745 -645 0
-702 -745 -659 0
-702 -745 -660 0
-702 -745 -661 0
-702 -745 -663 0
-702 -745 -664 0
-702 -745 -665 0
-702 -745 -667 0
-702 -745 -668 0
-702 -745 -669 0
-702 -745 -683 0
-702 -745 -684 0
-702 -745 -685 0
-702 -745 -687 0
-702 -745 -688 0
-702 -745 -689 0
-702 -745 -691 0
-702 -745 -692 0
-702 -745 -693 0
-703 718 722 0
-703 718 726 0
-703 722 726 0
-703 745 636 637 640 641 644 645 660 661 664 665 668 669 684 685 688 689 692 693 0
-703 -745 -636 0
-703 -745 -637 0
-703 -745 -640 0
-703 -745 -641 0
-703 -745 -644 0
-703 -745 -645 0
-703 -745 -660 0
-703 -745 -661 0
-703 -745 -664 0
-703 -745 -665 0
-703 -745 -668 0
-703 -745 -669 0
-703 -745 -684 0
-703 -745 -685 0
-703 -745 -688 0
-703 -745 -689 0
-703 -745 -692 0
-703 -745 -693 0
-704 719 723 0
-704 719 727 0
-704 723 727 0
-704 745 637 641 645 661 665 669 685 689 693 0
-704 -745 -637 0
-704 -745 -641 0
-704 -745 -645 0
-704 -745 -661 0
-704 -745 -665 0
-704 -745 -669 0
-704 -745 -685 0
-704 -745 -689 0
-704 -745 -693 0
-705 720 724 0
-705 720 728 0
-705 724 728 0
-705 745 0
-706 745 639 640 641 643 644 645 647 648 649 663 664 665 667 668 669 671 672 673 683 684 685 687 688 689 691 692 693 695 696 697 0
-706 -745 -639 0
-706 -745 -640 0
-706 -745 -641 0
-706 -745 -643 0
-706 -745 -644 0
-706 -745 -645 0
-706 -745 -647 0
-706 -745 -648 0
-706 -745 -649 0
-706 -745 -663 0
-706 -745 -664 0
-706 -745 -665 0
-706 -745 -667 0
-706 -745 -668 0
-706 -745 -669 0
-706 -745 -671 0
-706 -745 -672 0
-706 -745 -673 0
-706 -745 -683 0
-706 -745 -684 0
-706 -745 -685 0
-706 -745 -687 0
-706 -745 -688 0
-706 -745 -689 0
-706 -745 -691 0
-706 -745 -692 0
-706 -745 -693 0
-706 -745 -695 0
-706 -745 -696 0
-706 -745 -697 0
-707 722 726 0
-707 722 730 0
-707 726 730 0
-707 745 640 641 644 645 648 649 664 665 668 669 672 673 684 685 688 689 692 693 696 697 0
-707 -745 -640 0
-707 -745 -641 0
-707 -745 -644 0
-707 -745 -645 0
-707 -745 -648 0
-707 -745 -649 0
-707 -745 -664 0
-707 -745 -665 0
-707 -745 -668 0
-707 -745 -669 0
-707 -745 -672 0
-707 -745 -673 0
-707 -745 -684 0
-707 -745 -685 0
-707 -745 -688 0
-707 -745 -689 0
-707 -745 -692 0
-707 -745 -693 0
-707 -745 -696 0
-707 -745 -697 0
-708 723 727 0
-708 723 731 0
-708 727 731 0
-708 745 641 645 649 665 669 673 685 689 693 697 0
-708 -745 -641 0
-708 -745 -645 0
-708 -745 -649 0
-708 -745 -665 0
-708 -745 -669 0
-708 -745 -673 0
-708 -745 -685 0
-708 -745 -689 0
-708 -745 -693 0
-708 -745 -697 0
-709 724 728 0
-709 724 732 0
-709 728 732 0
-709 745 0
-710 745 643 644 645 647 648 649 651 652 653 667 668 669 671 672 673 675 676 677 687 688 689 691 692 693 695 696 697 699 700 701 0
-710 -745 -643 0
-710 -745 -644 0
-710 -745 -645 0
-710 -745 -647 0
-710 -745 -648 0
-710 -745 -649 0
-710 -745 -651 0
-710 -745 -652 0
-710 -745 -653 0
-710 -745 -667 0
-710 -745 -668 0
-710 -745 -669 0
-710 -745 -671 0
-710 -745 -672 0
-710 -745 -673 0
-710 -745 -675 0
-710 -745 -676 0
-710 -745 -677 0
-710 -745 -687 0
-710 -745 -688 0
-710 -745 -689 0
-710 -745 -691 0
-710 -745 -692 0
-710 -745 -693 0
-710 -745 -695 0
-710 -745 -696 0
-710 -745 -697 0
-710 -745 -699 0
-710 -745 -700 0
-710 -745 -701 0
-711 726 730 0
-711 726 734 0
-711 730 734 0
-711 745 644 645 648 649 652 653 668 669 672 673 676 677 688 689 692 693 696 697 700 701 0
-711 -745 -644 0
-711 -745 -645 0
-711 -745 -648 0
-711 -745 -649 0
-711 -745 -652 0
-711 -745 -653 0
-711 -745 -668 0
-711 -745 -669 0
-711 -745 -672 0
-711 -745 -673 0
-711 -745 -676 0
-711 -745 -677 0
-711 -745 -688 0
-711 -745 -689 0
-711 -745 -692 0
-711 -745 -693 0
-711 -745 -696 0
-711 -745 -697 0
-711 -745 -700 0
-711 -745 -701 0
-712 727 731 0
-712 727 735 0
-712 731 735 0
-712 745 645 649 653 669 673 677 689 693 697 701 0
-712 -745 -645 0
-712 -745 -649 0
-712 -745 -653 0
-712 -745 -669 0
-712 -745 -673 0
-712 -745 -677 0
-712 -745 -689 0
-712 -745 -693 0
-712 -745 -697 0
-712 -745 -701 0
-713 728 732 0
-713 728 736 0
-713 732 736 0
-713 745 0
-714 745 647 648 649 651 652 653 655 656 657 671 672 673 675 676 677 679 680 681 691 692 693 695 696 697 699 700 701 0
-714 -745 -647 0
-714 -745 -648 0
-714 -745 -649 0
-714 -745 -651 0
-714 -745 -652 0
-714 -745 -653 0
-714 -745 -655 0
-714 -745 -656 0
-714 -745 -657 0
-714 -745 -671 0
-714 -745 -672 0
-714 -745 -673 0
-714 -745 -675 0
-714 -745 -676 0
-714 -745 -677 0
-714 -745 -679 0
-714 -745 -680 0
-714 -745 -681 0
-714 -745 -691 0
-714 -745 -692 0
-714 -745 -693 0
-714 -745 -695 0
-714 -745 -696 0
-714 -745 -697 0
-714 -745 -699 0
-714 -745 -700 0
-714 -745 -701 0
-715 730 734 0
-715 730 738 0
-715 734 738 0
-715 745 648 649 652 653 656 657 672 673 676 677 680 681 692 693 696 697 700 701 0
-715 -745 -648 0
-715 -745 -649 0
-715 -745 -652 0
-715 -745 -653 0
-715 -745 -656 0
-715 -745 -657 0
-715 -745 -672 0
-715 -745 -673 0
-715 -745 -676 0
-715 -745 -677 0
-715 -745 -680 0
-715 -745 -681 0
-715 -745 -692 0
-715 -745 -693 0
-715 -745 -696 0
-715 -745 -697 0
-715 -745 -700 0
-715 -745 -701 0
-716 731 735 0
-716 731 739 0
-716 735 739 0
-716 745 649 653 657 673 677 681 693 697 701 0
-716 -745 -649 0
-716 -745 -653 0
-716 -745 -657 0
-716 -745 -673 0
-716 -745 -677 0
-716 -745 -681 0
-716 -745 -693 0
-716 -745 -697 0
-716 -745 -701 0
-717 732 736 0
-717 732 740 0
-717 736 740 0
-717 745 0
4 0
7 0
16 0
17 0
21 0
26 0
33 0
35 0
597 0
604 0
612 0
613 0
617 0
622 0
628 0
630 0
746 747 748 749 750 751 752 753 754 755 756 757 758 759 760 761 762 763 764 765 766 767 768 769 770 771 772 773 774 775 776 777 778 779 780 781 782 783 784 785 786 787 788 789 790 791 792 793 794 795 796 797 798 799 800 801 802 803 804 805 806 807 808 809 810 811 812 813 814 815 816 817 818 819 820 821 822 823 824 825 826 827 828 829 0
-746 -747 0
-746 -748 0
-746 -749 0
-746 -750 0
-746 -751 0
-746 -752 0
-746 -753 0
-746 -754 0
-746 -755 0
-746 -756 0
-746 -757 0
-746 -758 0
-746 -759 0
-746 -760 0
-746 -761 0
-746 -762 0
-746 -763 0
-746 -764 0
-746 -765 0
-746 -766 0
-746 -767 0
-746 -768 0
-746 -769 0
-746 -770 0
-746 -771 0
-746 -772 0
-746 -773 0
-746 -774 0
-746 -775 0
-746 -776 0
-746 -777 0
-746 -778 0
-746 -779 0
-746 -780 0
-746 -781 0
-746 -782 0
-746 -783 0
-746 -784 0
-746 -785 0
-746 -786 0
-746 -787 0
-746 -788 0
-746 -789 0
-746 -790 0
-746 -791 0
-746 -792 0
-746 -793 0
-746 -794 0
-746 -795 0
-746 -796 0
-746 -797 0
-746 -798 0
-746 -799 0
-746 -800 0
-746 -801 0
-746 -802 0
-746 -803 0
-746 -804 0
-746 -805 0
-746 -806 0
-746 -807 0
-746 -808 0
-746 -809 0
-746 -810 0
-746 -811 0
-746 -812 0
-746 -813 0
-746 -814 0
-746 -815 0
-746 -816 0
-746 -817 0
-746 -818 0
-746 -819 0
-746 -820 0
-746 -821 0
-746 -822 0
-746 -823 0
-746 -824 0
-746 -825 0
-746 -826 0
-746 -827 0
-746 -828 0
-746 -829 0
-747 -748 0
-747 -749 0
-747 -750 0
-747 -751 0
-747 -752 0
-747 -753 0
-747 -754 0
-747 -755 0
-747 -756 0
-747 -757 0
-747 -758 0
-747 -759 0
-747 -760 0
-747 -761 0
-747 -762 0
-747 -763 0
-747 -764 0
-747 -765 0
-747 -766 0
-747 -767 0
-747 -768 0
-747 -769 0
-747 -770 0
-747 -771 0
-747 -772 0
-747 -773 0
-747 -774 0
-747 -775 0
-747 -776 0
-747 -777 0
-747 -778 0
-747 -779 0
-747 -780 0
-747 -781 0
-747 -782 0
-747 -783 0
-747 -784 0
-747 -785 0
-747 -786 0
-747 -787 0
-747 -788 0
-747 -789 0
-747 -790 0
-747 -791 0
-747 -792 0
-747 -793 0
-747 -794 0
-747 -795 0
-747 -796 0
-747 -797 0
-747 -798 0
-747 -799 0
-747 -800 0
-747 -801 0
-747 -802 0
-747 -803 0
-747 -804 0
-747 -805 0
-747 -806 0
-747 -807 0
-747 -808 0
-747 -809 0
-747 -810 0
-747 -811 0
-747 -812 0
-747 -813 0
-747 -814 0
-747 -815 0
-747 -816 0
-747 -817 0
-747 -818 0
-747 -819 0
-747 -820 0
-747 -821 0
-747 -822 0
-747 -823 0
-747 -824 0
-747 -825 0
-747 -826 0
-747 -827 0
-747 -828 0
-747 -829 0
-748 -749 0
-748 -750 0
-748 -751 0
-748 -752 0
-748 -753 0
-748 -754 0
-748 -755 0
-748 -756 0
-748 -757 0
-748 -758 0
-748 -759 0
-748 -760 0
-748 -761 0
-748 -762 0
-748 -763 0
-748 -764 0
-748 -765 0
-748 -766 0
-748 -767 0
-748 -768 0
-748 -769 0
-748 -770 0
-748 -771 0
-748 -772 0
-748 -773 0
-748 -774 0
-748 -775 0
-748 -776 0
-748 -777 0
-748 -778 0
-748 -779 0
-748 -780 0
-748 -781 0
-748 -782 0
-748 -783 0
-748 -784 0
-748 -785 0
-748 -786 0
-748 -787 0
-748 -788 0
-748 -789 0
-748 -790 0
-748 -791 0
-748 -792 0
-748 -793 0
-748 -794 0
-748 -795 0
-748 -796 0
-748 -797 0
-748 -798 0
-748 -799 0
-748 -800 0
-748 -801 0
-748 -802 0
-748 -803 0
-748 -804 0
-748 -805 0
-748 -806 0
-748 -807 0
-748 -808 0
-748 -809 0
-748 -810 0
-748 -811 0
-748 -812 0
-748 -813 0
-748 -814 0
-748 -815 0
-748 -816 0
-748 -817 0
-748 -818 0
-748 -819 0
-748 -820 0
-748 -821 0
-748 -822 0
-748 -823 0
-748 -824 0
-748 -825 0
-748 -826 0
-748 -827 0
-748 -828 0
-748 -829 0
-749 -750 0
-749 -751 0
-749 -752 0
-749 -753 0
-749 -754 0
-749 -755 0
-749 -756 0
-749 -757 0
-749 -758 0
-749 -759 0
-749 -760 0
-749 -761 0
-749 -762 0
-749 -763 0
-749 -764 0
-749 -765 0
-749 -766 0
-749 -767 0
-749 -768 0
-749 -769 0
-749 -770 0
-749 -771 0
-749 -772 0
-749 -773 0
-749 -774 0
-749 -775 0
-749 -776 0
-749 -777 0
-749 -778 0
-749 -779 0
-749 -780 0
-749 -781 0
-749 -782 0
-749 -783 0
-749 -784 0
-749 -785 0
-749 -786 0
-749 -787 0
-749 -788 0
-749 -789 0
-749 -790 0
-749 -791 0
-749 -792 0
-749 -793 0
-749 -794 0
-749 -795 0
-749 -796 0
-749 -797 0
-749 -798 0
-749 -799 0
-749 -800 0
-749 -801 0
-749 -802 0
-749 -803 0
-749 -804 0
-749 -805 0
-749 -806 0
-749 -807 0
-749 -808 0
-749 -809 0
-749 -810 0
-749 -811 0
-749 -812 0
-749 -813 0
-749 -814 0
-749 -815 0
-749 -816 0
-749 -817 0
-749 -818 0
-749 -819 0
-749 -820 0
-749 -821 0
-749 -822 0
-749 -823 0
-749 -824 0
-749 -825 0
-749 -826 0
-749 -827 0
-749 -828 0
-749 -829 0
-750 -751 0
-750 -752 0
-750 -753 0
-750 -754 0
-750 -755 0
-750 -756 0
-750 -757 0
-750 -758 0
-750 -759 0
-750 -760 0
-750 -761 0
-750 -762 0
-750 -763 0
-750 -764 0
-750 -765 0
-750 -766 0
-750 -767 0
-750 -768 0
-750 -769 0
-750 -770 0
-750 -771 0
-750 -772 0
-750 -773 0
-750 -774 0
-750 -775 0
-750 -776 0
-750 -777 0
-750 -778 0
-750 -779 0
-750 -780 0
-750 -781 0
-750 -782 0
-750 -783 0
-750 -784 0
-750 -785 0
-750 -786 0
-750 -787 0
-750 -788 0
-750 -789 0
-750 -790 0
-750 -791 0
-750 -792 0
-750 -793 0
-750 -794 0
-750 -795 0
-750 -796 0
-750 -797 0
-750 -798 0
-750 -799 0
-750 -800 0
-750 -801 0
-750 -802 0
-750 -803 0
-750 -804 0
-750 -805 0
-750 -806 0
-750 -807 0
-750 -808 0
-750 -809 0
-750 -810 0
-750 -811 0
-750 -812 0
-750 -813 0
-750 -814 0
-750 -815 0
-750 -816 0
-750 -817 0
-750 -818 0
-750 -819 0
-750 -820 0
-750 -821 0
-750 -822 0
-750 -823 0
-750 -824 0
-750 -825 0
-750 -826 0
-750 -827 0
-750 -828 0
-750 -829 0
-751 -752 0
-751 -753 0
-751 -754 0
-751 -755 0
-751 -756 0
-751 -757 0
-751 -758 0
-751 -759 0
-751 -760 0
-751 -761 0
-751 -762 0
-751 -763 0
-751 -764 0
-751 -765 0
-751 -766 0
-751 -767 0
-751 -768 0
-751 -769 0
-751 -770 0
-751 -771 0
-751 -772 0
-751 -773 0
-751 -774 0
-751 -775 0
-751 -776 0
-751 -777 0
-751 -778 0
-751 -779 0
-751 -780 0
-751 -781 0
-751 -782 0
-751 -783 0
-751 -784 0
-751 -785 0
-751 -786 0
-751 -787 0
-751 -788 0
-751 -789 0
-751 -790 0
-751 -791 0
-751 -792 0
-751 -793 0
-751 -794 0
-751 -795 0
-751 -796 0
-751 -797 0
-751 -798 0
-751 -799 0
-751 -800 0
-751 -801 0
-751 -802 0
-751 -803 0
-751 -804 0
-751 -805 0
-751 -806 0
-751 -807 0
-751 -808 0
-751 -809 0
-751 -810 0
-751 -811 0
-751 -812 0
-751 -813 0
-751 -814 0
-751 -815 0
-751 -816 0
-751 -817 0
-751 -818 0
-751 -819 0
-751 -820 0
-751 -821 0
-751 -822 0
-751 -823 0
-751 -824 0
-751 -825 0
-751 -826 0
-751 -827 0
-751 -828 0
-751 -829 0
-752 -753 0
-752 -754 0
-752 -755 0
-752 -756 0
-752 -757 0
-752 -758 0
-752 -759 0
-752 -760 0
-752 -761 0
-752 -762 0
-752 -763 0
-752 -764 0
-752 -765 0
-752 -766 0
-752 -767 0
-752 -768 0
-752 -769 0
-752 -770 0
-752 -771 0
-752 -772 0
-752 -773 0
-752 -774 0
-752 -775 0
-752 -776 0
-752 -777 0
-752 -778 0
-752 -779 0
-752 -780 0
-752 -781 0
-752 -782 0
-752 -783 0
-752 -784 0
-752 -785 0
-752 -786 0
-752 -787 0
-752 -788 0
-752 -789 0
-752 -790 0
-752 -791 0
-752 -792 0
-752 -793 0
-752 -794 0
-752 -795 0
-752 -796 0
-752 -797 0
-752 -798 0
-752 -799 0
-752 -800 0
-752 -801 0
-752 -802 0
-752 -803 0
-752 -804 0
-752 -805 0
-752 -806 0
-752 -807 0
-752 -808 0
-752 -809 0
-752 -810 0
-752 -811 0
-752 -812 0
-752 -813 0
-752 -814 0
-752 -815 0
-752 -816 0
-752 -817 0
-752 -818 0
-752 -819 0
-752 -820 0
-752 -821 0
-752 -822 0
-752 -823 0
-752 -824 0
-752 -825 0
-752 -826 0
-752 -827 0
-752 -828 0
-752 -829 0
-753 -754 0
-753 -755 0
-753 -756 0
-753 -757 0
-753 -758 0
-753 -759 0
-753 -760 0
-753 -761 0
-753 -762 0
-753 -763 0
-753 -764 0
-753 -765 0
-753 -766 0
-753 -767 0
-753 -768 0
-753 -769 0
-753 -770 0
-753 -771 0
-753 -772 0
-753 -773 0
-753 -774 0
-753 -775 0
-753 -776 0
-753 -777 0
-753 -778 0
-753 -779 0
-753 -780 0
-753 -781 0
-753 -782 0
-753 -783 0
-753 -784 0
-753 -785 0
-753 -786 0
-753 -787 0
-753 -788 0
-753 -789 0
-753 -790 0
-753 -791 0
-753 -792 0
-753 -793 0
-753 -794 0
-753 -795 0
-753 -796 0
-753 -797 0
-753 -798 0
-753 -799 0
-753 -800 0
-753 -801 0
-753 -802 0
-753 -803 0
-753 -804 0
-753 -805 0
-753 -806 0
-753 -807 0
-753 -808 0
-753 -809 0
-753 -810 0
-753 -811 0
-753 -812 0
-753 -813 0
-753 -814 0
-753 -815 0
-753 -816 0
-753 -817 0
-753 -818 0
-753 -819 0
-753 -820 0
-753 -821 0
-753 -822 0
-753 -823 0
-753 -824 0
-753 -825 0
-753 -826 0
-753 -827 0
-753 -828 0
-753 -829 0
-754 -755 0
-754 -756 0
-754 -757 0
-754 -758 0
-754 -759 0
-754 -760 0
-754 -761 0
-754 -762 0
-754 -763 0
-754 -764 0
-754 -765 0
-754 -766 0
-754 -767 0
-754 -768 0
-754 -769 0
-754 -770 0
-754 -771 0
-754 -772 0
-754 -773 0
-754 -774 0
-754 -775 0
-754 -776 0
-754 -777 0
-754 -778 0
-754 -779 0
-754 -780 0
-754 -781 0
-754 -782 0
-754 -783 0
-754 -784 0
-754 -785 0
-754 -786 0
-754 -787 0
-754 -788 0
-754 -789 0
-754 -790 0
-754 -791 0
-754 -792 0
-754 -793 0
-754 -794 0
-754 -795 0
-754 -796 0
-754 -797 0
-754 -798 0
-754 -799 0
-754 -800 0
-754 -801 0
-754 -802 0
-754 -803 0
-754 -804 0
-754 -805 0
-754 -806 0
-754 -807 0
-754 -808 0
-754 -809 0
-754 -810 0
-754 -811 0
-754 -812 0
-754 -813 0
-754 -814 0
-754 -815 0
-754 -816 0
-754 -817 0
-754 -818 0
-754 -819 0
-754 -820 0
-754 -821 0
-754 -822 0
-754 -823 0
-754 -824 0
-754 -825 0
-754 -826 0
-754 -827 0
-754 -828 0
-754 -829 0
-755 -756 0
-755 -757 0
-755 -758 0
-755 -759 0
-755 -760 0
-755 -761 0
-755 -762 0
-755 -763 0
-755 -764 0
-755 -765 0
-755 -766 0
-755 -767 0
-755 -768 0
-755 -769 0
-755 -770 0
-755 -771 0
-755 -772 0
-755 -773 0
-755 -774 0
-755 -775 0
-755 -776 0
-755 -777 0
-755 -778 0
-755 -779 0
-755 -780 0
-755 -781 0
-755 -782 0
-755 -783 0
-755 -784 0
-755 -785 0
-755 -786 0
-755 -787 0
-755 -788 0
-755 -789 0
-755 -790 0
-755 -791 0
-755 -792 0
-755 -793 0
-755 -794 0
-755 -795 0
-755 -796 0
-755 -797 0
-755 -798 0
-755 -799 0
-755 -800 0
-755 -801 0
-755 -802 0
-755 -803 0
-755 -804 0
-755 -805 0
-755 -806 0
-755 -807 0
-755 -808 0
-755 -809 0
-755 -810 0
-755 -811 0
-755 -812 0
-755 -813 0
-755 -814 0
-755 -815 0
-755 -816 0
-755 -817 0
-755 -818 0
-755 -819 0
-755 -820 0
-755 -821 0
-755 -822 0
-755 -823 0
-755 -824 0
-755 -825 0
-755 -826 0
-755 -827 0
-755 -828 0
-755 -829 0
-756 -757 0
-756 -758 0
-756 -759 0
-756 -760 0
-756 -761 0
-756 -762 0
-756 -763 0
-756 -764 0
-756 -765 0
-756 -766 0
-756 -767 0
-756 -768 0
-756 -769 0
-756 -770 0
-756 -771 0
-756 -772 0
-756 -773 0
-756 -774 0
-756 -775 0
-756 -776 0
-756 -777 0
-756 -778 0
-756 -779 0
-756 -780 0
-756 -781 0
-756 -782 0
-756 -783 0
-756 -784 0
-756 -785 0
-756 -786 0
-756 -787 0
-756 -788 0
-756 -789 0
-756 -790 0
-756 -791 0
-756 -792 0
-756 -793 0
-756 -794 0
-756 -795 0
-756 -796 0
-756 -797 0
-756 -798 0
-756 -799 0
-756 -800 0
-756 -801 0
-756 -802 0
-756 -803 0
-756 -804 0
-756 -805 0
-756 -806 0
-756 -807 0
-756 -808 0
-756 -809 0
-756 -810 0
-756 -811 0
-756 -812 0
-756 -813 0
-756 -814 0
-756 -815 0
-756 -816 0
-756 -817 0
-756 -818 0
-756 -819 0
-756 -820 0
-756 -821 0
-756 -822 0
-756 -823 0
-756 -824 0
-756 -825 0
-756 -826 0
-756 -827 0
-756 -828 0
-756 -829 0
-757 -758 0
-757 -759 0
-757 -760 0
-757 -761 0
-757 -762 0
-757 -763 0
-757 -764 0
-757 -765 0
-757 -766 0
-757 -767 0
-757 -768 0
-757 -769 0
-757 -770 0
-757 -771 0
-757 -772 0
-757 -773 0
-757 -774 0
-757 -775 0
-757 -776 0
-757 -777 0
-757 -778 0
-757 -779 0
-757 -780 0
-757 -781 0
-757 -782 0
-757 -783 0
-757 -784 0
-757 -785 0
-757 -786 0
-757 -787 0
-757 -788 0
-757 -789 0
-757 -790 0
-757 -791 0
-757 -792 0
-757 -793 0
-757 -794 0
-757 -795 0
-757 -796 0
-757 -797 0
-757 -798 0
-757 -799 0
-757 -800 0
-757 -801 0
-757 -802 0
-757 -803 0
-757 -804 0
-757 -805 0
-757 -806 0
-757 -807 0
-757 -808 0
-757 -809 0
-757 -810 0
-757 -811 0
-757 -812 0
-757 -813 0
-757 -814 0
-757 -815 0
-757 -816 0
-757 -817 0
-757 -818 0
-757 -819 0
-757 -820 0
-757 -821 0
-757 -822 0
-757 -823 0
-757 -824 0
-757 -825 0
-757 -826 0
-757 -827 0
-757 -828 0
-757 -829 0
-758 -759 0
-758 -760 0
-758 -761 0
-758 -762 0
-758 -763 0
-758 -764 0
-758 -765 0
-758 -766 0
-758 -767 0
-758 -768 0
-758 -769 0
-758 -770 0
-758 -771 0
-758 -772 0
-758 -773 0
-758 -774 0
-758 -775 0
-758 -776 0
-758 -777 0
-758 -778 0
-758 -779 0
-758 -780 0
-758 -781 0
-758 -782 0
-758 -783 0
-758 -784 0
-758 -785 0
-758 -786 0
-758 -787 0
-758 -788 0
-758 -789 0
-758 -790 0
-758 -791 0
-758 -792 0
-758 -793 0
-758 -794 0
-758 -795 0
-758 -796 0
-758 -797 0
-758 -798 0
-758 -799 0
-758 -800 0
-758 -801 0
-758 -802 0
-758 -803 0
-758 -804 0
-758 -805 0
-758 -806 0
-758 -807 0
-758 -808 0
-758 -809 0
-758 -810 0
-758 -811 0
-758 -812 0
-758 -813 0
-758 -814 0
-758 -815 0
-758 -816 0
-758 -817 0
-758 -818 0
-758 -819 0
-758 -820 0
-758 -821 0
-758 -822 0
-758 -823 0
-758 -824 0
-758 -825 0
-758 -826 0
-758 -827 0
-758 -828 0
-758 -829 0
-759 -760 0
-759 -761 0
-759 -762 0
-759 -763 0
-759 -764 0
-759 -765 0
-759 -766 0
-759 -767 0
-759 -768 0
-759 -769 0
-759 -770 0
-759 -771 0
-759 -772 0
-759 -773 0
-759 -774 0
-759 -775 0
-759 -776 0
-759 -777 0
-759 -778 0
-759 -779 0
-759 -780 0
-759 -781 0
-759 -782 0
-759 -783 0
-759 -784 0
-759 -785 0
-759 -786 0
-759 -787 0
-759 -788 0
-759 -789 0
-759 -790 0
-759 -791 0
-759 -792 0
-759 -793 0
-759 -794 0
-759 -795 0
-759 -796 0
-759 -797 0
-759 -798 0
-759 -799 0
-759 -800 0
-759 -801 0
-759 -802 0
-759 -803 0
-759 -804 0
-759 -805 0
-759 -806 0
-759 -807 0
-759 -808 0
-759 -809 0
-759 -810 0
-759 -811 0
-759 -812 0
-759 -813 0
-759 -814 0
-759 -815 0
-759 -816 0
-759 -817 0
-759 -818 0
-759 -819 0
-759 -820 0
-759 -821 0
-759 -822 0
-759 -823 0
-759 -824 0
-759 -825 0
-759 -826 0
-759 -827 0
-759 -828 0
-759 -829 0
-760 -761 0
-760 -762 0
-760 -763 0
-760 -764 0
-760 -765 0
-760 -766 0
-760 -767 0
-760 -768 0
-760 -769 0
-760 -770 0
-760 -771 0
-760 -772 0
-760 -773 0
-760 -774 0
-760 -775 0
-760 -776 0
-760 -777 0
-760 -778 0
-760 -779 0
-760 -780 0
-760 -781 0
-760 -782 0
-760 -783 0
-760 -784 0
-760 -785 0
-760 -786 0
-760 -787 0
-760 -788 0
-760 -789 0
-760 -790 0
-760 -791 0
-760 -792 0
-760 -793 0
-760 -794 0
-760 -795 0
-760 -796 0
-760 -797 0
-760 -798 0
-760 -799 0
-760 -800 0
-760 -801 0
-760 -802 0
-760 -803 0
-760 -804 0
-760 -805 0
-760 -806 0
-760 -807 0
-760 -808 0
-760 -809 0
-760 -810 0
-760 -811 0
-760 -812 0
-760 -813 0
-760 -814 0
-760 -815 0
-760 -816 0
-760 -817 0
-760 -818 0
-760 -819 0
-760 -820 0
-760 -821 0
-760 -822 0
-760 -823 0
-760 -824 0
-760 -825 0
-760 -826 0
-760 -827 0
-760 -828 0
-760 -829 0
-761 -762 0
-761 -763 0
-761 -764 0
-761 -765 0
-761 -766 0
-761 -767 0
-761 -768 0
-761 -769 0
-761 -770 0
-761 -771 0
-761 -772 0
-761 -773 0
-761 -774 0
-761 -775 0
-761 -776 0
-761 -777 0
-761 -778 0
-761 -779 0
-761 -780 0
-761 -781 0
-761 -782 0
-761 -783 0
-761 -784 0
-761 -785 0
-761 -786 0
-761 -787 0
-761 -788 0
-761 -789 0
-761 -790 0
-761 -791 0
-761 -792 0
-761 -793 0
-761 -794 0
-761 -795 0
-761 -796 0
-761 -797 0
-761 -798 0
-761 -799 0
-761 -800 0
-761 -801 0
-761 -802 0
-761 -803 0
-761 -804 0
-761 -805 0
-761 -806 0
-761 -807 0
-761 -808 0
-761 -809 0
-761 -810 0
-761 -811 0
-761 -812 0
-761 -813 0
-761 -814 0
-761 -815 0
-761 -816 0
-761 -817 0
-761 -818 0
-761 -819 0
-761 -820 0
-761 -821 0
-761 -822 0
-761 -823 0
-761 -824 0
-761 -825 0
-761 -826 0
-761 -827 0
-761 -828 0
-761 -829 0
-762 -763 0
-762 -764 0
-762 -765 0
-762 -766 0
-762 -767 0
-762 -768 0
-762 -769 0
-762 -770 0
-762 -771 0
-762 -772 0
-762 -773 0
-762 -774 0
-762 -775 0
-762 -776 0
-762 -777 0
-762 -778 0
-762 -779 0
-762 -780 0
-762 -781 0
-762 -782 0
-762 -783 0
-762 -784 0
-762 -785 0
-762 -786 0
-762 -787 0
-762 -788 0
-762 -789 0
-762 -790 0
-762 -791 0
-762 -792 0
-762 -793 0
-762 -794 0
-762 -795 0
-762 -796 0
-762 -797 0
-762 -798 0
-762 -799 0
-762 -800 0
-762 -801 0
-762 -802 0
-762 -803 0
-762 -804 0
-762 -805 0
-762 -806 0
-762 -807 0
-762 -808 0
-762 -809 0
-762 -810 0
-762 -811 0
-762 -812 0
-762 -813 0
-762 -814 0
-762 -815 0
-762 -816 0
-762 -817 0
-762 -818 0
-762 -819 0
-762 -820 0
-762 -821 0
-762 -822 0
-762 -823 0
-762 -824 0
-762 -825 0
-762 -826 0
-762 -827 0
-762 -828 0
-762 -829 0
-763 -764 0
-763 -765 0
-763 -766 0
-763 -767 0
-763 -768 0
-763 -769 0
-763 -770 0
-763 -771 0
-763 -772 0
-763 -773 0
-763 -774 0
-763 -775 0
-763 -776 0
-763 -777 0
-763 -778 0
-763 -779 0
-763 -780 0
-763 -781 0
-763 -782 0
-763 -783 0
-763 -784 0
-763 -785 0
-763 -786 0
-763 -787 0
-763 -788 0
-763 -789 0
-763 -790 0
-763 -791 0
-763 -792 0
-763 -793 0
-763 -794 0
-763 -795 0
-763 -796 0
-763 -797 0
-763 -798 0
-763 -799 0
-763 -800 0
-763 -801 0
-763 -802 0
-763 -803 0
-763 -804 0
-763 -805 0
-763 -806 0
-763 -807 0
-763 -808 0
-763 -809 0
-763 -810 0
-763 -811 0
-763 -812 0
-763 -813 0
-763 -814 0
-763 -815 0
-763 -816 0
-763 -817 0
-763 -818 0
-763 -819 0
-763 -820 0
-763 -821 0
-763 -822 0
-763 -823 0
-763 -824 0
-763 -825 0
-763 -826 0
-763 -827 0
-763 -828 0
-763 -829 0
-764 -765 0
-764 -766 0
-764 -767 0
-764 -768 0
-764 -769 0
-764 -770 0
-764 -771 0
-764 -772 0
-764 -773 0
-764 -774 0
-764 -775 0
-764 -776 0
-764 -777 0
-764 -778 0
-764 -779 0
-764 -780 0
-764 -781 0
-764 -782 0
-764 -783 0
-764 -784 0
-764 -785 0
-764 -786 0
-764 -787 0
-764 -788 0
-764 -789 0
-764 -790 0
-764 -791 0
-764 -792 0
-764 -793 0
-764 -794 0
-764 -795 0
-764 -796 0
-764 -797 0
-764 -798 0
-764 -799 0
-764 -800 0
-764 -801 0
-764 -802 0
-764 -803 0
-764 -804 0
-764 -805 0
-764 -806 0
-764 -807 0
-764 -808 0
-764 -809 0
-764 -810 0
-764 -811 0
-764 -812 0
-764 -813 0
-764 -814 0
-764 -815 0
-764 -816 0
-764 -817 0
-764 -818 0
-764 -819 0
-764 -820 0
-764 -821 0
-764 -822 0
-764 -823 0
-764 -824 0
-764 -825 0
-764 -826 0
-764 -827 0
-764 -828 0
-764 -829 0
-765 -766 0
-765 -767 0
-765 -768 0
-765 -769 0
-765 -770 0
-765 -771 0
-765 -772 0
-765 -773 0
-765 -774 0
-765 -775 0
-765 -776 0
-765 -777 0
-765 -778 0
-765 -779 0
-765 -780 0
-765 -781 0
-765 -782 0
-765 -783 0
-765 -784 0
-765 -785 0
-765 -786 0
-765 -787 0
-765 -788 0
-765 -789 0
-765 -790 0
-765 -791 0
-765 -792 0
-765 -793 0
-765 -794 0
-765 -795 0
-765 -796 0
-765 -797 0
-765 -798 0
-765 -799 0
-765 -800 0
-765 -801 0
-765 -802 0
-765 -803 0
-765 -804 0
-765 -805 0
-765 -806 0
-765 -807 0
-765 -808 0
-765 -809 0
-765 -810 0
-765 -811 0
-765 -812 0
-765 -813 0
-765 -814 0
-765 -815 0
-765 -816 0
-765 -817 0
-765 -818 0
-765 -819 0
-765 -820 0
-765 -821 0
-765 -822 0
-765 -823 0
-765 -824 0
-765 -825 0
-765 -826 0
-765 -827 0
-765 -828 0
-765 -829 0
-766 -767 0
-766 -768 0
-766 -769 0
-766 -770 0
-766 -771 0
-766 -772 0
-766 -773 0
-766 -774 0
-766 -775 0
-766 -776 0
-766 -777 0
-766 -778 0
-766 -779 0
-766 -780 0
-766 -781 0
-766 -782 0
-766 -783 0
-766 -784 0
-766 -785 0
-766 -786 0
-766 -787 0
-766 -788 0
-766 -789 0
-766 -790 0
-766 -791 0
-766 -792 0
-766 -793 0
-766 -794 0
-766 -795 0
-766 -796 0
-766 -797 0
-766 -798 0
-766 -799 0
-766 -800 0
-766 -801 0
-766 -802 0
-766 -803 0
-766 -804 0
-766 -805 0
-766 -806 0
-766 -807 0
-766 -808 0
-766 -809 0
-766 -810 0
-766 -811 0
-766 -812 0
-766 -813 0
-766 -814 0
-766 -815 0
-766 -816 0
-766 -817 0
-766 -818 0
-766 -819 0
-766 -820 0
-766 -821 0
-766 -822 0
-766 -823 0
-766 -824 0
-766 -825 0
-766 -826 0
-766 -827 0
-766 -828 0
-766 -829 0
-767 -768 0
-767 -769 0
-767 -770 0
-767 -771 0
-767 -772 0
-767 -773 0
-767 -774 0
-767 -775 0
-767 -776 0
-767 -777 0
-767 -778 0
-767 -779 0
-767 -780 0
-767 -781 0
-767 -782 0
-767 -783 0
-767 -784 0
-767 -785 0
-767 -786 0
-767 -787 0
-767 -788 0
-767 -789 0
-767 -790 0
-767 -791 0
-767 -792 0
-767 -793 0
-767 -794 0
-767 -795 0
-767 -796 0
-767 -797 0
-767 -798 0
-767 -799 0
-767 -800 0
-767 -801 0
-767 -802 0
-767 -803 0
-767 -804 0
-767 -805 0
-767 -806 0
-767 -807 0
-767 -808 0
-767 -809 0
-767 -810 0
-767 -811 0
-767 -812 0
-767 -813 0
-767 -814 0
-767 -815 0
-767 -816 0
-767 -817 0
-767 -818 0
-767 -819 0
-767 -820 0
-767 -821 0
-767 -822 0
-767 -823 0
-767 -824 0
-767 -825 0
-767 -826 0
-767 -827 0
-767 -828 0
-767 -829 0
-768 -769 0
-768 -770 0
-768 -771 0
-768 -772 0
-768 -773 0
-768 -774 0
-768 -775 0
-768 -776 0
-768 -777 0
-768 -778 0
-768 -779 0
-768 -780 0
-768 -781 0
-768 -782 0
-768 -783 0
-768 -784 0
-768 -785 0
-768 -786 0
-768 -787 0
-768 -788 0
-768 -789 0
-768 -790 0
-768 -791 0
-768 -792 0
-768 -793 0
-768 -794 0
-768 -795 0
-768 -796 0
-768 -797 0
-768 -798 0
-768 -799 0
-768 -800 0
-768 -801 0
-768 -802 0
-768 -803 0
-768 -804 0
-768 -805 0
-768 -806 0
-768 -807 0
-768 -808 0
-768 -809 0
-768 -810 0
-768 -811 0
-768 -812 0
-768 -813 0
-768 -814 0
-768 -815 0
-768 -816 0
-768 -817 0
-768 -818 0
-768 -819 0
-768 -820 0
-768 -821 0
-768 -822 0
-768 -823 0
-768 -824 0
-768 -825 0
-768 -826 0
-768 -827 0
-768 -828 0
-768 -829 0
-769 -770 0
-769 -771 0
-769 -772 0
-769 -773 0
-769 -774 0
-769 -775 0
-769 -776 0
-769 -777 0
-769 -778 0
-769 -779 0
-769 -780 0
-769 -781 0
-769 -782 0
-769 -783 0
-769 -784 0
-769 -785 0
-769 -786 0
-769 -787 0
-769 -788 0
-769 -789 0
-769 -790 0
-769 -791 0
-769 -792 0
-769 -793 0
-769 -794 0
-769 -795 0
-769 -796 0
-769 -797 0
-769 -798 0
-769 -799 0
-769 -800 0
-769 -801 0
-769 -802 0
-769 -803 0
-769 -804 0
-769 -805 0
-769 -806 0
-769 -807 0
-769 -808 0
-769 -809 0
-769 -810 0
-769 -811 0
-769 -812 0
-769 -813 0
-769 -814 0
-769 -815 0
-769 -816 0
-769 -817 0
-769 -818 0
-769 -819 0
-769 -820 0
-769 -821 0
-769 -822 0
-769 -823 0
-769 -824 0
-769 -825 0
-769 -826 0
-769 -827 0
-769 -828 0
-769 -829 0
-770 -771 0
-770 -772 0
-770 -773 0
-770 -774 0
-770 -775 0
-770 -776 0
-770 -777 0
-770 -778 0
-770 -779 0
-770 -780 0
-770 -781 0
-770 -782 0
-770 -783 0
-770 -784 0
-770 -785 0
-770 -786 0
-770 -787 0
-770 -788 0
-770 -789 0
-770 -790 0
-770 -791 0
-770 -792 0
-770 -793 0
-770 -794 0
-770 -795 0
-770 -796 0
-770 -797 0
-770 -798 0
-770 -799 0
-770 -800 0
-770 -801 0
-770 -802 0
-770 -803 0
-770 -804 0
-770 -805 0
-770 -806 0
-770 -807 0
-770 -808 0
-770 -809 0
-770 -810 0
-770 -811 0
-770 -812 0
-770 -813 0
-770 -814 0
-770 -815 0
-770 -816 0
-770 -817 0
-770 -818 0
-770 -819 0
-770 -820 0
-770 -821 0
-770 -822 0
-770 -823 0
-770 -824 0
-770 -825 0
-770 -826 0
-770 -827 0
-770 -828 0
-770 -829 0
-771 -772 0
-771 -773 0
-771 -774 0
-771 -775 0
-771 -776 0
-771 -777 0
-771 -778 0
-771 -779 0
-771 -780 0
-771 -781 0
-771 -782 0
-771 -783 0
-771 -784 0
-771 -785 0
-771 -786 0
-771 -787 0
-771 -788 0
-771 -789 0
-771 -790 0
-771 -791 0
-771 -792 0
-771 -793 0
-771 -794 0
-771 -795 0
-771 -796 0
-771 -797 0
-771 -798 0
-771 -799 0
-771 -800 0
-771 -801 0
-771 -802 0
-771 -803 0
-771 -804 0
-771 -805 0
-771 -806 0
-771 -807 0
-771 -808 0
-771 -809 0
-771 -810 0
-771 -811 0
-771 -812 0
-771 -813 0
-771 -814 0
-771 -815 0
-771 -816 0
-771 -817 0
-771 -818 0
-771 -819 0
-771 -820 0
-771 -821 0
-771 -822 0
-771 -823 0
-771 -824 0
-771 -825 0
-771 -826 0
-771 -827 0
-771 -828 0
-771 -829 0
-772 -773 0
-772 -774 0
-772 -775 0
-772 -776 0
-772 -777 0
-772 -778 0
-772 -779 0
-772 -780 0
-772 -781 0
-772 -782 0
-772 -783 0
-772 -784 0
-772 -785 0
-772 -786 0
-772 -787 0
-772 -788 0
-772 -789 0
-772 -790 0
-772 -791 0
-772 -792 0
-772 -793 0
-772 -794 0
-772 -795 0
-772 -796 0
-772 -797 0
-772 -798 0
-772 -799 0
-772 -800 0
-772 -801 0
-772 -802 0
-772 -803 0
-772 -804 0
-772 -805 0
-772 -806 0
-772 -807 0
-772 -808 0
-772 -809 0
-772 -810 0
-772 -811 0
-772 -812 0
-772 -813 0
-772 -814 0
-772 -815 0
-772 -816 0
-772 -817 0
-772 -818 0
-772 -819 0
-772 -820 0
-772 -821 0
-772 -822 0
-772 -823 0
-772 -824 0
-772 -825 0
-772 -826 0
-772 -827 0
-772 -828 0
-772 -829 0
-773 -774 0
-773 -775 0
-773 -776 0
-773 -777 0
-773 -778 0
-773 -779 0
-773 -780 0
-773 -781 0
-773 -782 0
-773 -783 0
-773 -784 0
-773 -785 0
-773 -786 0
-773 -787 0
-773 -788 0
-773 -789 0
-773 -790 0
-773 -791 0
-773 -792 0
-773 -793 0
-773 -794 0
-773 -795 0
-773 -796 0
-773 -797 0
-773 -798 0
-773 -799 0
-773 -800 0
-773 -801 0
-773 -802 0
-773 -803 0
-773 -804 0
-773 -805 0
-773 -806 0
-773 -807 0
-773 -808 0
-773 -809 0
-773 -810 0
-773 -811 0
-773 -812 0
-773 -813 0
-773 -814 0
-773 -815 0
-773 -816 0
-773 -817 0
-773 -818 0
-773 -819 0
-773 -820 0
-773 -821 0
-773 -822 0
-773 -823 0
-773 -824 0
-773 -825 0
-773 -826 0
-773 -827 0
-773 -828 0
-773 -829 0
-774 -775 0
-774 -776 0
-774 -777 0
-774 -778 0
-774 -779 0
-774 -780 0
-774 -781 0
-774 -782 0
-774 -783 0
-774 -784 0
-774 -785 0
-774 -786 0
-774 -787 0
-774 -788 0
-774 -789 0
-774 -790 0
-774 -791 0
-774 -792 0
-774 -793 0
-774 -794 0
-774 -795 0
-774 -796 0
-774 -797 0
-774 -798 0
-774 -799 0
-774 -800 0
-774 -801 0
-774 -802 0
-774 -803 0
-774 -804 0
-774 -805 0
-774 -806 0
-774 -807 0
-774 -808 0
-774 -809 0
-774 -810 0
-774 -811 0
-774 -812 0
-774 -813 0
-774 -814 0
-774 -815 0
-774 -816 0
-774 -817 0
-774 -818 0
-774 -819 0
-774 -820 0
-774 -821 0
-774 -822 0
-774 -823 0
-774 -824 0
-774 -825 0
-774 -826 0
-774 -827 0
-774 -828 0
-774 -829 0
-775 -776 0
-775 -777 0
-775 -778 0
-775 -779 0
-775 -780 0
-775 -781 0
-775 -782 0
-775 -783 0
-775 -784 0
-775 -785 0
-775 -786 0
-775 -787 0
-775 -788 0
-775 -789 0
-775 -790 0
-775 -791 0
-775 -792 0
-775 -793 0
-775 -794 0
-775 -795 0
-775 -796 0
-775 -797 0
-775 -798 0
-775 -799 0
-775 -800 0
-775 -801 0
-775 -802 0
-775 -803 0
-775 -804 0
-775 -805 0
-775 -806 0
-775 -807 0
-775 -808 0
-775 -809 0
-775 -810 0
-775 -811 0
-775 -812 0
-775 -813 0
-775 -814 0
-775 -815 0
-775 -816 0
-775 -817 0
-775 -818 0
-775 -819 0
-775 -820 0
-775 -821 0
-775 -822 0
-775 -823 0
-775 -824 0
-775 -825 0
-775 -826 0
-775 -827 0
-775 -828 0
-775 -829 0
-776 -777 0
-776 -778 0
-776 -779 0
-776 -780 0
-776 -781 0
-776 -782 0
-776 -783 0
-776 -784 0
-776 -785 0
-776 -786 0
-776 -787 0
-776 -788 0
-776 -789 0
-776 -790 0
-776 -791 0
-776 -792 0
-776 -793 0
-776 -794 0
-776 -795 0
-776 -796 0
-776 -797 0
-776 -798 0
-776 -799 0
-776 -800 0
-776 -801 0
-776 -802 0
-776 -803 0
-776 -804 0
-776 -805 0
-776 -806 0
-776 -807 0
-776 -808 0
-776 -809 0
-776 -810 0
-776 -811 0
-776 -812 0
-776 -813 0
-776 -814 0
-776 -815 0
-776 -816 0
-776 -817 0
-776 -818 0
-776 -819 0
-776 -820 0
-776 -821 0
-776 -822 0
-776 -823 0
-776 -824 0
-776 -825 0
-776 -826 0
-776 -827 0
-776 -828 0
-776 -829 0
-777 -778 0
-777 -779 0
-777 -780 0
-777 -781 0
-777 -782 0
-777 -783 0
-777 -784 0
-777 -785 0
-777 -786 0
-777 -787 0
-777 -788 0
-777 -789 0
-777 -790 0
-777 -791 0
-777 -792 0
-777 -793 0
-777 -794 0
-777 -795 0
-777 -796 0
-777 -797 0
-777 -798 0
-777 -799 0
-777 -800 0
-777 -801 0
-777 -802 0
-777 -803 0
-777 -804 0
-777 -805 0
-777 -806 0
-777 -807 0
-777 -808 0
-777 -809 0
-777 -810 0
-777 -811 0
-777 -812 0
-777 -813 0
-777 -814 0
-777 -815 0
-777 -816 0
-777 -817 0
-777 -818 0
-777 -819 0
-777 -820 0
-777 -821 0
-777 -822 0
-777 -823 0
-777 -824 0
-777 -825 0
-777 -826 0
-777 -827 0
-777 -828 0
-777 -829 0
-778 -779 0
-778 -780 0
-778 -781 0
-778 -782 0
-778 -783 0
-778 -784 0
-778 -785 0
-778 -786 0
-778 -787 0
-778 -788 0
-778 -789 0
-778 -790 0
-778 -791 0
-778 -792 0
-778 -793 0
-778 -794 0
-778 -795 0
-778 -796 0
-778 -797 0
-778 -798 0
-778 -799 0
-778 -800 0
-778 -801 0
-778 -802 0
-778 -803 0
-778 -804 0
-778 -805 0
-778 -806 0
-778 -807 0
-778 -808 0
-778 -809 0
-778 -810 0
-778 -811 0
-778 -812 0
-778 -813 0
-778 -814 0
-778 -815 0
-778 -816 0
-778 -817 0
-778 -818 0
-778 -819 0
-778 -820 0
-778 -821 0
-778 -822 0
-778 -823 0
-778 -824 0
-778 -825 0
-778 -826 0
-778 -827 0
-778 -828 0
-778 -829 0
-779 -780 0
-779 -781 0
-779 -782 0
-779 -783 0
-779 -784 0
-779 -785 0
-779 -786 0
-779 -787 0
-779 -788 0
-779 -789 0
-779 -790 0
-779 -791 0
-779 -792 0
-779 -793 0
-779 -794 0
-779 -795 0
-779 -796 0
-779 -797 0
-779 -798 0
-779 -799 0
-779 -800 0
-779 -801 0
-779 -802 0
-779 -803 0
-779 -804 0
-779 -805 0
-779 -806 0
-779 -807 0
-779 -808 0
-779 -809 0
-779 -810 0
-779 -811 0
-779 -812 0
-779 -813 0
-779 -814 0
-779 -815 0
-779 -816 0
-779 -817 0
-779 -818 0
-779 -819 0
-779 -820 0
-779 -821 0
-779 -822 0
-779 -823 0
-779 -824 0
-779 -825 0
-779 -826 0
-779 -827 0
-779 -828 0
-779 -829 0
-780 -781 0
-780 -782 0
-780 -783 0
-780 -784 0
-780 -785 0
-780 -786 0
-780 -787 0
-780 -788 0
-780 -789 0
-780 -790 0
-780 -791 0
-780 -792 0
-780 -793 0
-780 -794 0
-780 -795 0
-780 -796 0
-780 -797 0
-780 -798 0
-780 -799 0
-780 -800 0
-780 -801 0
-780 -802 0
-780 -803 0
-780 -804 0
-780 -805 0
-780 -806 0
-780 -807 0
-780 -808 0
-780 -809 0
-780 -810 0
-780 -811 0
-780 -812 0
-780 -813 0
-780 -814 0
-780 -815 0
-780 -816 0
-780 -817 0
-780 -818 0
-780 -819 0
-780 -820 0
-780 -821 0
-780 -822 0
-780 -823 0
-780 -824 0
-780 -825 0
-780 -826 0
-780 -827 0
-780 -828 0
-780 -829 0
-781 -782 0
-781 -783 0
-781 -784 0
-781 -785 0
-781 -786 0
-781 -787 0
-781 -788 0
-781 -789 0
-781 -790 0
-781 -791 0
-781 -792 0
-781 -793 0
-781 -794 0
-781 -795 0
-781 -796 0
-781 -797 0
-781 -798 0
-781 -799 0
-781 -800 0
-781 -801 0
-781 -802 0
-781 -803 0
-781 -804 0
-781 -805 0
-781 -806 0
-781 -807 0
-781 -808 0
-781 -809 0
-781 -810 0
-781 -811 0
-781 -812 0
-781 -813 0
-781 -814 0
-781 -815 0
-781 -816 0
-781 -817 0
-781 -818 0
-781 -819 0
-781 -820 0
-781 -821 0
-781 -822 0
-781 -823 0
-781 -824 0
-781 -825 0
-781 -826 0
-781 -827 0
-781 -828 0
-781 -829 0
-782 -783 0
-782 -784 0
-782 -785 0
-782 -786 0
-782 -787 0
-782 -788 0
-782 -789 0
-782 -790 0
-782 -791 0
-782 -792 0
-782 -793 0
-782 -794 0
-782 -795 0
-782 -796 0
-782 -797 0
-782 -798 0
-782 -799 0
-782 -800 0
-782 -801 0
-782 -802 0
-782 -803 0
-782 -804 0
-782 -805 0
-782 -806 0
-782 -807 0
-782 -808 0
-782 -809 0
-782 -810 0
-782 -811 0
-782 -812 0
-782 -813 0
-782 -814 0
-782 -815 0
-782 -816 0
-782 -817 0
-782 -818 0
-782 -819 0
-782 -820 0
-782 -821 0
-782 -822 0
-782 -823 0
-782 -824 0
-782 -825 0
-782 -826 0
-782 -827 0
-782 -828 0
-782 -829 0
-783 -784 0
-783 -785 0
-783 -786 0
-783 -787 0
-783 -788 0
-783 -789 0
-783 -790 0
-783 -791 0
-783 -792 0
-783 -793 0
-783 -794 0
-783 -795 0
-783 -796 0
-783 -797 0
-783 -798 0
-783 -799 0
-783 -800 0
-783 -801 0
-783 -802 0
-783 -803 0
-783 -804 0
-783 -805 0
-783 -806 0
-783 -807 0
-783 -808 0
-783 -809 0
-783 -810 0
-783 -811 0
-783 -812 0
-783 -813 0
-783 -814 0
-783 -815 0
-783 -816 0
-783 -817 0
-783 -818 0
-783 -819 0
-783 -820 0
-783 -821 0
-783 -822 0
-783 -823 0
-783 -824 0
-783 -825 0
-783 -826 0
-783 -827 0
-783 -828 0
-783 -829 0
-784 -785 0
-784 -786 0
-784 -787 0
-784 -788 0
-784 -789 0
-784 -790 0
-784 -791 0
-784 -792 0
-784 -793 0
-784 -794 0
-784 -795 0
-784 -796 0
-784 -797 0
-784 -798 0
-784 -799 0
-784 -800 0
-784 -801 0
-784 -802 0
-784 -803 0
-784 -804 0
-784 -805 0
-784 -806 0
-784 -807 0
-784 -808 0
-784 -809 0
-784 -810 0
-784 -811 0
-784 -812 0
-784 -813 0
-784 -814 0
-784 -815 0
-784 -816 0
-784 -817 0
-784 -818 0
-784 -819 0
-784 -820 0
-784 -821 0
-784 -822 0
-784 -823 0
-784 -824 0
-784 -825 0
-784 -826 0
-784 -827 0
-784 -828 0
-784 -829 0
-785 -786 0
-785 -787 0
-785 -788 0
-785 -789 0
-785 -790 0
-785 -791 0
-785 -792 0
-785 -793 0
-785 -794 0
-785 -795 0
-785 -796 0
-785 -797 0
-785 -798 0
-785 -799 0
-785 -800 0
-785 -801 0
-785 -802 0
-785 -803 0
-785 -804 0
-785 -805 0
-785 -806 0
-785 -807 0
-785 -808 0
-785 -809 0
-785 -810 0
-785 -811 0
-785 -812 0
-785 -813 0
-785 -814 0
-785 -815 0
-785 -816 0
-785 -817 0
-785 -818 0
-785 -819 0
-785 -820 0
-785 -821 0
-785 -822 0
-785 -823 0
-785 -824 0
-785 -825 0
-785 -826 0
-785 -827 0
-785 -828 0
-785 -829 0
-786 -787 0
-786 -788 0
-786 -789 0
-786 -790 0
-786 -791 0
-786 -792 0
-786 -793 0
-786 -794 0
-786 -795 0
-786 -796 0
-786 -797 0
-786 -798 0
-786 -799 0
-786 -800 0
-786 -801 0
-786 -802 0
-786 -803 0
-786 -804 0
-786 -805 0
-786 -806 0
-786 -807 0
-786 -808 0
-786 -809 0
-786 -810 0
-786 -811 0
-786 -812 0
-786 -813 0
-786 -814 0
-786 -815 0
-786 -816 0
-786 -817 0
-786 -818 0
-786 -819 0
-786 -820 0
-786 -821 0
-786 -822 0
-786 -823 0
-786 -824 0
-786 -825 0
-786 -826 0
-786 -827 0
-786 -828 0
-786 -829 0
-787 -788 0
-787 -789 0
-787 -790 0
-787 -791 0
-787 -792 0
-787 -793 0
-787 -794 0
-787 -795 0
-787 -796 0
-787 -797 0
-787 -798 0
-787 -799 0
-787 -800 0
-787 -801 0
-787 -802 0
-787 -803 0
-787 -804 0
-787 -805 0
-787 -806 0
-787 -807 0
-787 -808 0
-787 -809 0
-787 -810 0
-787 -811 0
-787 -812 0
-787 -813 0
-787 -814 0
-787 -815 0
-787 -816 0
-787 -817 0
-787 -818 0
-787 -819 0
-787 -820 0
-787 -821 0
-787 -822 0
-787 -823 0
-787 -824 0
-787 -825 0
-787 -826 0
-787 -827 0
-787 -828 0
-787 -829 0
-788 -789 0
-788 -790 0
-788 -791 0
-788 -792 0
-788 -793 0
-788 -794 0
-788 -795 0
-788 -796 0
-788 -797 0
-788 -798 0
-788 -799 0
-788 -800 0
-788 -801 0
-788 -802 0
-788 -803 0
-788 -804 0
-788 -805 0
-788 -806 0
-788 -807 0
-788 -808 0
-788 -809 0
-788 -810 0
-788 -811 0
-788 -812 0
-788 -813 0
-788 -814 0
-788 -815 0
-788 -816 0
-788 -817 0
-788 -818 0
-788 -819 0
-788 -820 0
-788 -821 0
-788 -822 0
-788 -823 0
-788 -824 0
-788 -825 0
-788 -826 0
-788 -827 0
-788 -828 0
-788 -829 0
-789 -790 0
-789 -791 0
-789 -792 0
-789 -793 0
-789 -794 0
-789 -795 0
-789 -796 0
-789 -797 0
-789 -798 0
-789 -799 0
-789 -800 0
-789 -801 0
-789 -802 0
-789 -803 0
-789 -804 0
-789 -805 0
-789 -806 0
-789 -807 0
-789 -808 0
-789 -809 0
-789 -810 0
-789 -811 0
-789 -812 0
-789 -813 0
-789 -814 0
-789 -815 0
-789 -816 0
-789 -817 0
-789 -818 0
-789 -819 0
-789 -820 0
-789 -821 0
-789 -822 0
-789 -823 0
-789 -824 0
-789 -825 0
-789 -826 0
-789 -827 0
-789 -828 0
-789 -829 0
-790 -791 0
-790 -792 0
-790 -793 0
-790 -794 0
-790 -795 0
-790 -796 0
-790 -797 0
-790 -798 0
-790 -799 0
-790 -800 0
-790 -801 0
-790 -802 0
-790 -803 0
-790 -804 0
-790 -805 0
-790 -806 0
-790 -807 0
-790 -808 0
-790 -809 0
-790 -810 0
-790 -811 0
-790 -812 0
-790 -813 0
-790 -814 0
-790 -815 0
-790 -816 0
-790 -817 0
-790 -818 0
-790 -819 0
-790 -820 0
-790 -821 0
-790 -822 0
-790 -823 0
-790 -824 0
-790 -825 0
-790 -826 0
-790 -827 0
-790 -828 0
-790 -829 0
-791 -792 0
-791 -793 0
-791 -794 0
-791 -795 0
-791 -796 0
-791 -797 0
-791 -798 0
-791 -799 0
-791 -800 0
-791 -801 0
-791 -802 0
-791 -803 0
-791 -804 0
-791 -805 0
-791 -806 0
-791 -807 0
-791 -808 0
-791 -809 0
-791 -810 0
-791 -811 0
-791 -812 0
-791 -813 0
-791 -814 0
-791 -815 0
-791 -816 0
-791 -817 0
-791 -818 0
-791 -819 0
-791 -820 0
-791 -821 0
-791 -822 0
-791 -823 0
-791 -824 0
-791 -825 0
-791 -826 0
-791 -827 0
-791 -828 0
-791 -829 0
-792 -793 0
-792 -794 0
-792 -795 0
-792 -796 0
-792 -797 0
-792 -798 0
-792 -799 0
-792 -800 0
-792 -801 0
-792 -802 0
-792 -803 0
-792 -804 0
-792 -805 0
-792 -806 0
-792 -807 0
-792 -808 0
-792 -809 0
-792 -810 0
-792 -811 0
-792 -812 0
-792 -813 0
-792 -814 0
-792 -815 0
-792 -816 0
-792 -817 0
-792 -818 0
-792 -819 0
-792 -820 0
-792 -821 0
-792 -822 0
-792 -823 0
-792 -824 0
-792 -825 0
-792 -826 0
-792 -827 0
-792 -828 0
-792 -829 0
-793 -794 0
-793 -795 0
-793 -796 0
-793 -797 0
-793 -798 0
-793 -799 0
-793 -800 0
-793 -801 0
-793 -802 0
-793 -803 0
-793 -804 0
-793 -805 0
-793 -806 0
-793 -807 0
-793 -808 0
-793 -809 0
-793 -810 0
-793 -811 0
-793 -812 0
-793 -813 0
-793 -814 0
-793 -815 0
-793 -816 0
-793 -817 0
-793 -818 0
-793 -819 0
-793 -820 0
-793 -821 0
-793 -822 0
-793 -823 0
-793 -824 0
-793 -825 0
-793 -826 0
-793 -827 0
-793 -828 0
-793 -829 0
-794 -795 0
-794 -796 0
-794 -797 0
-794 -798 0
-794 -799 0
-794 -800 0
-794 -801 0
-794 -802 0
-794 -803 0
-794 -804 0
-794 -805 0
-794 -806 0
-794 -807 0
-794 -808 0
-794 -809 0
-794 -810 0
-794 -811 0
-794 -812 0
-794 -813 0
-794 -814 0
-794 -815 0
-794 -816 0
-794 -817 0
-794 -818 0
-794 -819 0
-794 -820 0
-794 -821 0
-794 -822 0
-794 -823 0
-794 -824 0
-794 -825 0
-794 -826 0
-794 -827 0
-794 -828 0
-794 -829 0
-795 -796 0
-795 -797 0
-795 -798 0
-795 -799 0
-795 -800 0
-795 -801 0
-795 -802 0
-795 -803 0
-795 -804 0
-795 -805 0
-795 -806 0
-795 -807 0
-795 -808 0
-795 -809 0
-795 -810 0
-795 -811 0
-795 -812 0
-795 -813 0
-795 -814 0
-795 -815 0
-795 -816 0
-795 -817 0
-795 -818 0
-795 -819 0
-795 -820 0
-795 -821 0
-795 -822 0
-795 -823 0
-795 -824 0
-795 -825 0
-795 -826 0
-795 -827 0
-795 -828 0
-795 -829 0
-796 -797 0
-796 -798 0
-796 -799 0
-796 -800 0
-796 -801 0
-796 -802 0
-796 -803 0
-796 -804 0
-796 -805 0
-796 -806 0
-796 -807 0
-796 -808 0
-796 -809 0
-796 -810 0
-796 -811 0
-796 -812 0
-796 -813 0
-796 -814 0
-796 -815 0
-796 -816 0
-796 -817 0
-796 -818 0
-796 -819 0
-796 -820 0
-796 -821 0
-796 -822 0
-796 -823 0
-796 -824 0
-796 -825 0
-796 -826 0
-796 -827 0
-796 -828 0
-796 -829 0
-797 -798 0
-797 -799 0
-797 -800 0
-797 -801 0
-797 -802 0
-797 -803 0
-797 -804 0
-797 -805 0
-797 -806 0
-797 -807 0
-797 -808 0
-797 -809 0
-797 -810 0
-797 -811 0
-797 -812 0
-797 -813 0
-797 -814 0
-797 -815 0
-797 -816 0
-797 -817 0
-797 -818 0
-797 -819 0
-797 -820 0
-797 -821 0
-797 -822 0
-797 -823 0
-797 -824 0
-797 -825 0
-797 -826 0
-797 -827 0
-797 -828 0
-797 -829 0
-798 -799 0
-798 -800 0
-798 -801 0
-798 -802 0
-798 -803 0
-798 -804 0
-798 -805 0
-798 -806 0
-798 -807 0
-798 -808 0
-798 -809 0
-798 -810 0
-798 -811 0
-798 -812 0
-798 -813 0
-798 -814 0
-798 -815 0
-798 -816 0
-798 -817 0
-798 -818 0
-798 -819 0
-798 -820 0
-798 -821 0
-798 -822 0
-798 -823 0
-798 -824 0
-798 -825 0
-798 -826 0
-798 -827 0
-798 -828 0
-798 -829 0
-799 -800 0
-799 -801 0
-799 -802 0
-799 -803 0
-799 -804 0
-799 -805 0
-799 -806 0
-799 -807 0
-799 -808 0
-799 -809 0
-799 -810 0
-799 -811 0
-799 -812 0
-799 -813 0
-799 -814 0
-799 -815 0
-799 -816 0
-799 -817 0
-799 -818 0
-799 -819 0
-799 -820 0
-799 -821 0
-799 -822 0
-799 -823 0
-799 -824 0
-799 -825 0
-799 -826 0
-799 -827 0
-799 -828 0
-799 -829 0
-800 -801 0
-800 -802 0
-800 -803 0
-800 -804 0
-800 -805 0
-800 -806 0
-800 -807 0
-800 -808 0
-800 -809 0
-800 -810 0
-800 -811 0
-800 -812 0
-800 -813 0
-800 -814 0
-800 -815 0
-800 -816 0
-800 -817 0
-800 -818 0
-800 -819 0
-800 -820 0
-800 -821 0
-800 -822 0
-800 -823 0
-800 -824 0
-800 -825 0
-800 -826 0
-800 -827 0
-800 -828 0
-800 -829 0
-801 -802 0
-801 -803 0
-801 -804 0
-801 -805 0
-801 -806 0
-801 -807 0
-801 -808 0
-801 -809 0
-801 -810 0
-801 -811 0
-801 -812 0
-801 -813 0
-801 -814 0
-801 -815 0
-801 -816 0
-801 -817 0
-801 -818 0
-801 -819 0
-801 -820 0
-801 -821 0
-801 -822 0
-801 -823 0
-801 -824 0
-801 -825 0
-801 -826 0
-801 -827 0
-801 -828 0
-801 -829 0
-802 -803 0
-802 -804 0
-802 -805 0
-802 -806 0
-802 -807 0
-802 -808 0
-802 -809 0
-802 -810 0
-802 -811 0
-802 -812 0
-802 -813 0
-802 -814 0
-802 -815 0
-802 -816 0
-802 -817 0
-802 -818 0
-802 -819 0
-802 -820 0
-802 -821 0
-802 -822 0
-802 -823 0
-802 -824 0
-802 -825 0
-802 -826 0
-802 -827 0
-802 -828 0
-802 -829 0
-803 -804 0
-803 -805 0
-803 -806 0
-803 -807 0
-803 -808 0
-803 -809 0
-803 -810 0
-803 -811 0
-803 -812 0
-803 -813 0
-803 -814 0
-803 -815 0
-803 -816 0
-803 -817 0
-803 -818 0
-803 -819 0
-803 -820 0
-803 -821 0
-803 -822 0
-803 -823 0
-803 -824 0
-803 -825 0
-803 -826 0
-803 -827 0
-803 -828 0
-803 -829 0
-804 -805 0
-804 -806 0
-804 -807 0
-804 -808 0
-804 -809 0
-804 -810 0
-804 -811 0
-804 -812 0
-804 -813 0
-804 -814 0
-804 -815 0
-804 -816 0
-804 -817 0
-804 -818 0
-804 -819 0
-804 -820 0
-804 -821 0
-804 -822 0
-804 -823 0
-804 -824 0
-804 -825 0
-804 -826 0
-804 -827 0
-804 -828 0
-804 -829 0
-805 -806 0
-805 -807 0
-805 -808 0
-805 -809 0
-805 -810 0
-805 -811 0
-805 -812 0
-805 -813 0
-805 -814 0
-805 -815 0
-805 -816 0
-805 -817 0
-805 -818 0
-805 -819 0
-805 -820 0
-805 -821 0
-805 -822 0
-805 -823 0
-805 -824 0
-805 -825 0
-805 -826 0
-805 -827 0
-805 -828 0
-805 -829 0
-806 -807 0
-806 -808 0
-806 -809 0
-806 -810 0
-806 -811 0
-806 -812 0
-806 -813 0
-806 -814 0
-806 -815 0
-806 -816 0
-806 -817 0
-806 -818 0
-806 -819 0
-806 -820 0
-806 -821 0
-806 -822 0
-806 -823 0
-806 -824 0
-806 -825 0
-806 -826 0
-806 -827 0
-806 -828 0
-806 -829 0
-807 -808 0
-807 -809 0
-807 -810 0
-807 -811 0
-807 -812 0
-807 -813 0
-807 -814 0
-807 -815 0
-807 -816 0
-807 -817 0
-807 -818 0
-807 -819 0
-807 -820 0
-807 -821 0
-807 -822 0
-807 -823 0
-807 -824 0
-807 -825 0
-807 -826 0
-807 -827 0
-807 -828 0
-807 -829 0
-808 -809 0
-808 -810 0
-808 -811 0
-808 -812 0
-808 -813 0
-808 -814 0
-808 -815 0
-808 -816 0
-808 -817 0
-808 -818 0
-808 -819 0
-808 -820 0
-808 -821 0
-808 -822 0
-808 -823 0
-808 -824 0
-808 -825 0
-808 -826 0
-808 -827 0
-808 -828 0
-808 -829 0
-809 -810 0
-809 -811 0
-809 -812 0
-809 -813 0
-809 -814 0
-809 -815 0
-809 -816 0
-809 -817 0
-809 -818 0
-809 -819 0
-809 -820 0
-809 -821 0
-809 -822 0
-809 -823 0
-809 -824 0
-809 -825 0
-809 -826 0
-809 -827 0
-809 -828 0
-809 -829 0
-810 -811 0
-810 -812 0
-810 -813 0
-810 -814 0
-810 -815 0
-810 -816 0
-810 -817 0
-810 -818 0
-810 -819 0
-810 -820 0
-810 -821 0
-810 -822 0
-810 -823 0
-810 -824 0
-810 -825 0
-810 -826 0
-810 -827 0
-810 -828 0
-810 -829 0
-811 -812 0
-811 -813 0
-811 -814 0
-811 -815 0
-811 -816 0
-811 -817 0
-811 -818 0
-811 -819 0
-811 -820 0
-811 -821 0
-811 -822 0
-811 -823 0
-811 -824 0
-811 -825 0
-811 -826 0
-811 -827 0
-811 -828 0
-811 -829 0
-812 -813 0
-812 -814 0
-812 -815 0
-812 -816 0
-812 -817 0
-812 -818 0
-812 -819 0
-812 -820 0
-812 -821 0
-812 -822 0
-812 -823 0
-812 -824 0
-812 -825 0
-812 -826 0
-812 -827 0
-812 -828 0
-812 -829 0
-813 -814 0
-813 -815 0
-813 -816 0
-813 -817 0
-813 -818 0
-813 -819 0
-813 -820 0
-813 -821 0
-813 -822 0
-813 -823 0
-813 -824 0
-813 -825 0
-813 -826 0
-813 -827 0
-813 -828 0
-813 -829 0
-814 -815 0
-814 -816 0
-814 -817 0
-814 -818 0
-814 -819 0
-814 -820 0
-814 -821 0
-814 -822 0
-814 -823 0
-814 -824 0
-814 -825 0
-814 -826 0
-814 -827 0
-814 -828 0
-814 -829 0
-815 -816 0
-815 -817 0
-815 -818 0
-815 -819 0
-815 -820 0
-815 -821 0
-815 -822 0
-815 -823 0
-815 -824 0
-815 -825 0
-815 -826 0
-815 -827 0
-815 -828 0
-815 -829 0
-816 -817 0
-816 -818 0
-816 -819 0
-816 -820 0
-816 -821 0
-816 -822 0
-816 -823 0
-816 -824 0
-816 -825 0
-816 -826 0
-816 -827 0
-816 -828 0
-816 -829 0
-817 -818 0
-817 -819 0
-817 -820 0
-817 -821 0
-817 -822 0
-817 -823 0
-817 -824 0
-817 -825 0
-817 -826 0
-817 -827 0
-817 -828 0
-817 -829 0
-818 -819 0
-818 -820 0
-818 -821 0
-818 -822 0
-818 -823 0
-818 -824 0
-818 -825 0
-818 -826 0
-818 -827 0
-818 -828 0
-818 -829 0
-819 -820 0
-819 -821 0
-819 -822 0
-819 -823 0
-819 -824 0
-819 -825 0
-819 -826 0
-819 -827 0
-819 -828 0
-819 -829 0
-820 -821 0
-820 -822 0
-820 -823 0
-820 -824 0
-820 -825 0
-820 -826 0
-820 -827 0
-820 -828 0
-820 -829 0
-821 -822 0
-821 -823 0
-821 -824 0
-821 -825 0
-821 -826 0
-821 -827 0
-821 -828 0
-821 -829 0
-822 -823 0
-822 -824 0
-822 -825 0
-822 -826 0
-822 -827 0
-822 -828 0
-822 -829 0
-823 -824 0
-823 -825 0
-823 -826 0
-823 -827 0
-823 -828 0
-823 -829 0
-824 -825 0
-824 -826 0
-824 -827 0
-824 -828 0
-824 -829 0
-825 -826 0
-825 -827 0
-825 -828 0
-825 -829 0
-826 -827 0
-826 -828 0
-826 -829 0
-827 -828 0
-827 -829 0
-828 -829 0
-830 746 747 748 749 750 751 752 753 754 755 756 757 758 759 760 761 762 763 764 765 766 767 768 769 0
-746 830 0
-747 830 0
-748 830 0
-749 830 0
-750 830 0
-751 830 0
-752 830 0
-753 830 0
-754 830 0
-755 830 0
-756 830 0
-757 830 0
-758 830 0
-759 830 0
-760 830 0
-761 830 0
-762 830 0
-763 830 0
-764 830 0
-765 830 0
-766 830 0
-767 830 0
-768 830 0
-769 830 0
830 -1 150 0
830 1 -150 0
830 -2 151 0
830 2 -151 0
830 -3 152 0
830 3 -152 0
830 -4 153 0
830 4 -153 0
830 -5 154 0
830 5 -154 0
830 -6 155 0
830 6 -155 0
830 -7 156 0
830 7 -156 0
830 -8 157 0
830 8 -157 0
830 -9 158 0
830 9 -158 0
830 -10 159 0
830 10 -159 0
-831 770 771 772 773 774 775 776 777 778 779 780 781 782 783 784 785 786 787 788 789 790 791 792 793 0
-770 831 0
-771 831 0
-772 831 0
-773 831 0
-774 831 0
-775 831 0
-776 831 0
-777 831 0
-778 831 0
-779 831 0
-780 831 0
-781 831 0
-782 831 0
-783 831 0
-784 831 0
-785 831 0
-786 831 0
-787 831 0
-788 831 0
-789 831 0
-790 831 0
-791 831 0
-792 831 0
-793 831 0
831 -11 160 0
831 11 -160 0
831 -12 161 0
831 12 -161 0
831 -13 162 0
831 13 -162 0
831 -14 163 0
831 14 -163 0
831 -15 164 0
831 15 -164 0
831 -16 165 0
831 16 -165 0
831 -17 166 0
831 17 -166 0
831 -18 167 0
831 18 -167 0
831 -19 168 0
831 19 -168 0
831 -20 169 0
831 20 -169 0
-832 794 795 796 797 798 799 800 801 802 803 804 805 806 807 808 809 810 811 812 813 0
-794 832 0
-795 832 0
-796 832 0
-797 832 0
-798 832 0
-799 832 0
-800 832 0
-801 832 0
-802 832 0
-803 832 0
-804 832 0
-805 832 0
-806 832 0
-807 832 0
-808 832 0
-809 832 0
-810 832 0
-811 832 0
-812 832 0
-813 832 0
832 -21 170 0
832 21 -170 0
832 -22 171 0
832 22 -171 0
832 -23 172 0
832 23 -172 0
832 -24 173 0
832 24 -173 0
832 -25 174 0
832 25 -174 0
832 -26 175 0
832 26 -175 0
832 -27 176 0
832 27 -176 0
832 -28 177 0
832 28 -177 0
832 -29 178 0
832 29 -178 0
-833 814 815 816 817 818 819 820 821 822 823 824 825 826 827 828 829 0
-814 833 0
-815 833 0
-816 833 0
-817 833 0
-818 833 0
-819 833 0
-820 833 0
-821 833 0
-822 833 0
-823 833 0
-824 833 0
-825 833 0
-826 833 0
-827 833 0
-828 833 0
-829 833 0
833 -30 179 0
833 30 -179 0
833 -31 180 0
833 31 -180 0
833 -32 181 0
833 32 -181 0
833 -33 182 0
833 33 -182 0
833 -34 183 0
833 34 -183 0
833 -35 184 0
833 35 -184 0
833 -36 185 0
833 36 -185 0
833 -37 186 0
833 37 -186 0
-746 146 0
-746 150 0
-746 -12 0
-746 -13 0
-746 -14 0
-746 -15 0
-746 -16 0
-746 -20 0
-746 -17 157 0
-746 -17 -1 -8 0
-746 -17 -63 0
-746 -17 -64 0
-746 -17 -65 0
-746 -17 -87 0
-746 -17 -88 0
-746 -17 -89 0
-746 -17 -107 0
-746 -17 -108 0
-746 -17 -109 0
-746 -18 158 0
-746 -18 -1 -9 0
-746 -18 -64 0
-746 -18 -65 0
-746 -18 -88 0
-746 -18 -89 0
-746 -18 -108 0
-746 -18 -109 0
-746 -19 159 0
-746 -19 -1 -10 0
-746 -19 -65 0
-746 -19 -89 0
-746 -19 -109 0
-747 146 0
-747 151 0
-747 -11 0
-747 -13 0
-747 -14 0
-747 -15 0
-747 -16 0
-747 -20 0
-747 -17 157 0
-747 -17 -2 -8 0
-747 -17 -67 0
-747 -17 -68 0
-747 -17 -69 0
-747 -17 -87 0
-747 -17 -88 0
-747 -17 -89 0
-747 -17 -91 0
-747 -17 -92 0
-747 -17 -93 0
-747 -17 -107 0
-747 -17 -108 0
-747 -17 -109 0
-747 -17 -111 0
-747 -17 -112 0
-747 -17 -113 0
-747 -18 158 0
-747 -18 -2 -9 0
-747 -18 -68 0
-747 -18 -69 0
-747 -18 -88 0
-747 -18 -89 0
-747 -18 -92 0
-747 -18 -93 0
-747 -18 -108 0
-747 -18 -109 0
-747 -18 -112 0
-747 -18 -113 0
-747 -19 159 0
-747 -19 -2 -10 0
-747 -19 -69 0
-747 -19 -89 0
-747 -19 -93 0
-747 -19 -109 0
-747 -19 -113 0
-748 146 0
-748 152 0
-748 -11 0
-748 -12 0
-748 -14 0
-748 -15 0
-748 -16 0
-748 -20 0
-748 -17 157 0
-748 -17 -3 -8 0
-748 -17 -71 0
-748 -17 -72 0
-748 -17 -73 0
-748 -17 -91 0
-748 -17 -92 0
-748 -17 -93 0
-748 -17 -95 0
-748 -17 -96 0
-748 -17 -97 0
-748 -17 -107 0
-748 -17 -108 0
-748 -17 -109 0
-748 -17 -111 0
-748 -17 -112 0
-748 -17 -113 0
-748 -17 -115 0
-748 -17 -116 0
-748 -17 -117 0
-748 -18 158 0
-748 -18 -3 -9 0
-748 -18 -72 0
-748 -18 -73 0
-748 -18 -92 0
-748 -18 -93 0
-748 -18 -96 0
-748 -18 -97 0
-748 -18 -108 0
-748 -18 -109 0
-748 -18 -112 0
-748 -18 -113 0
-748 -18 -116 0
-748 -18 -117 0
-748 -19 159 0
-748 -19 -3 -10 0
-748 -19 -73 0
-748 -19 -93 0
-748 -19 -97 0
-748 -19 -109 0
-748 -19 -113 0
-748 -19 -117 0
-749 146 0
-749 153 0
-749 -11 0
-749 -12 0
-749 -13 0
-749 -15 0
-749 -16 0
-749 -20 0
-749 -17 157 0
-749 -17 -4 -8 0
-749 -17 -75 0
-749 -17 -76 0
-749 -17 -77 0
-749 -17 -95 0
-749 -17 -96 0
-749 -17 -97 0
-749 -17 -99 0
-749 -17 -100 0
-749 -17 -101 0
-749 -17 -111 0
-749 -17 -112 0
-749 -17 -113 0
-749 -17 -115 0
-749 -17 -116 0
-749 -17 -117 0
-749 -17 -119 0
-749 -17 -120 0
-749 -17 -121 0
-749 -18 158 0
-749 -18 -4 -9 0
-749 -18 -76 0
-749 -18 -77 0
-749 -18 -96 0
-749 -18 -97 0
-749 -18 -100 0
-749 -18 -101 0
-749 -18 -112 0
-749 -18 -113 0
-749 -18 -116 0
-749 -18 -117 0
-749 -18 -120 0
-749 -18 -121 0
-749 -19 159 0
-749 -19 -4 -10 0
-749 -19 -77 0
-749 -19 -97 0
-749 -19 -101 0
-749 -19 -113 0
-749 -19 -117 0
-749 -19 -121 0
-750 146 0
-750 154 0
-750 -11 0
-750 -12 0
-750 -13 0
-750 -14 0
-750 -16 0
-750 -20 0
-750 -17 157 0
-750 -17 -5 -8 0
-750 -17 -79 0
-750 -17 -80 0
-750 -17 -81 0
-750 -17 -99 0
-750 -17 -100 0
-750 -17 -101 0
-750 -17 -103 0
-750 -17 -104 0
-750 -17 -105 0
-750 -17 -115 0
-750 -17 -116 0
-750 -17 -117 0
-750 -17 -119 0
-750 -17 -120 0
-750 -17 -121 0
-750 -18 158 0
-750 -18 -5 -9 0
-750 -18 -80 0
-750 -18 -81 0
-750 -18 -100 0
-750 -18 -101 0
-750 -18 -104 0
-750 -18 -105 0
-750 -18 -116 0
-750 -18 -117 0
-750 -18 -120 0
-750 -18 -121 0
-750 -19 159 0
-750 -19 -5 -10 0
-750 -19 -81 0
-750 -19 -101 0
-750 -19 -105 0
-750 -19 -117 0
-750 -19 -121 0
-751 146 0
-751 155 0
-751 -11 0
-751 -12 0
-751 -13 0
-751 -14 0
-751 -15 0
-751 -20 0
-751 -17 157 0
-751 -17 -6 -8 0
-751 -17 -83 0
-751 -17 -84 0
-751 -17 -85 0
-751 -17 -103 0
-751 -17 -104 0
-751 -17 -105 0
-751 -17 -119 0
-751 -17 -120 0
-751 -17 -121 0
-751 -18 158 0
-751 -18 -6 -9 0
-751 -18 -84 0
-751 -18 -85 0
-751 -18 -104 0
-751 -18 -105 0
-751 -18 -120 0
-751 -18 -121 0
-751 -19 159 0
-751 -19 -6 -10 0
-751 -19 -85 0
-751 -19 -105 0
-751 -19 -121 0
-752 146 0
-752 150 0
-752 -22 0
-752 -23 0
-752 -24 0
-752 -25 0
-752 -29 0
-752 -26 157 0
-752 -26 -1 -8 0
-752 -26 -63 0
-752 -26 -64 0
-752 -26 -65 0
-752 -26 -87 0
-752 -26 -88 0
-752 -26 -89 0
-752 -26 -107 0
-752 -26 -108 0
-752 -26 -109 0
-752 -27 158 0
-752 -27 -1 -9 0
-752 -27 -64 0
-752 -27 -65 0
-752 -27 -88 0
-752 -27 -89 0
-752 -27 -108 0
-752 -27 -109 0
-752 -28 159 0
-752 -28 -1 -10 0
-752 -28 -65 0
-752 -28 -89 0
-752 -28 -109 0
-753 146 0
-753 151 0
-753 -23 0
-753 -24 0
-753 -25 0
-753 -29 0
-753 -26 157 0
-753 -26 -2 -8 0
-753 -26 -67 0
-753 -26 -68 0
-753 -26 -69 0
-753 -26 -87 0
-753 -26 -88 0
-753 -26 -89 0
-753 -26 -91 0
-753 -26 -92 0
-753 -26 -93 0
-753 -26 -107 0
-753 -26 -108 0
-753 -26 -109 0
-753 -26 -111 0
-753 -26 -112 0
-753 -26 -113 0
-753 -27 158 0
-753 -27 -2 -9 0
-753 -27 -68 0
-753 -27 -69 0
-753 -27 -88 0
-753 -27 -89 0
-753 -27 -92 0
-753 -27 -93 0
-753 -27 -108 0
-753 -27 -109 0
-753 -27 -112 0
-753 -27 -113 0
-753 -28 159 0
-753 -28 -2 -10 0
-753 -28 -69 0
-753 -28 -89 0
-753 -28 -93 0
-753 -28 -109 0
-753 -28 -113 0
-754 146 0
-754 152 0
-754 -21 0
-754 -24 0
-754 -25 0
-754 -29 0
-754 -26 157 0
-754 -26 -3 -8 0
-754 -26 -71 0
-754 -26 -72 0
-754 -26 -73 0
-754 -26 -91 0
-754 -26 -92 0
-754 -26 -93 0
-754 -26 -95 0
-754 -26 -96 0
-754 -26 -97 0
-754 -26 -107 0
-754 -26 -108 0
-754 -26 -109 0
-754 -26 -111 0
-754 -26 -112 0
-754 -26 -113 0
-754 -26 -115 0
-754 -26 -116 0
-754 -26 -117 0
-754 -27 158 0
-754 -27 -3 -9 0
-754 -27 -72 0
-754 -27 -73 0
-754 -27 -92 0
-754 -27 -93 0
-754 -27 -96 0
-754 -27 -97 0
-754 -27 -108 0
-754 -27 -109 0
-754 -27 -112 0
-754 -27 -113 0
-754 -27 -116 0
-754 -27 -117 0
-754 -28 159 0
-754 -28 -3 -10 0
-754 -28 -73 0
-754 -28 -93 0
-754 -28 -97 0
-754 -28 -109 0
-754 -28 -113 0
-754 -28 -117 0
-755 146 0
-755 153 0
-755 -21 0
-755 -22 0
-755 -25 0
-755 -29 0
-755 -26 157 0
-755 -26 -4 -8 0
-755 -26 -75 0
-755 -26 -76 0
-755 -26 -77 0
-755 -26 -95 0
-755 -26 -96 0
-755 -26 -97 0
-755 -26 -99 0
-755 -26 -100 0
-755 -26 -101 0
-755 -26 -111 0
-755 -26 -112 0
-755 -26 -113 0
-755 -26 -115 0
-755 -26 -116 0
-755 -26 -117 0
-755 -26 -119 0
-755 -26 -120 0
-755 -26 -121 0
-755 -27 158 0
-755 -27 -4 -9 0
-755 -27 -76 0
-755 -27 -77 0
-755 -27 -96 0
-755 -27 -97 0
-755 -27 -100 0
-755 -27 -101 0
-755 -27 -112 0
-755 -27 -113 0
-755 -27 -116 0
-755 -27 -117 0
-755 -27 -120 0
-755 -27 -121 0
-755 -28 159 0
-755 -28 -4 -10 0
-755 -28 -77 0
-755 -28 -97 0
-755 -28 -101 0
-755 -28 -113 0
-755 -28 -117 0
-755 -28 -121 0
-756 146 0
-756 154 0
-756 -21 0
-756 -22 0
-756 -23 0
-756 -29 0
-756 -26 157 0
-756 -26 -5 -8 0
-756 -26 -79 0
-756 -26 -80 0
-756 -26 -81 0
-756 -26 -99 0
-756 -26 -100 0
-756 -26 -101 0
-756 -26 -103 0
-756 -26 -104 0
-756 -26 -105 0
-756 -26 -115 0
-756 -26 -116 0
-756 -26 -117 0
-756 -26 -119 0
-756 -26 -120 0
-756 -26 -121 0
-756 -27 158 0
-756 -27 -5 -9 0
-756 -27 -80 0
-756 -27 -81 0
-756 -27 -100 0
-756 -27 -101 0
-756 -27 -104 0
-756 -27 -105 0
-756 -27 -116 0
-756 -27 -117 0
-756 -27 -120 0
-756 -27 -121 0
-756 -28 159 0
-756 -28 -5 -10 0
-756 -28 -81 0
-756 -28 -101 0
-756 -28 -105 0
-756 -28 -117 0
-756 -28 -121 0
-757 146 0
-757 155 0
-757 -21 0
-757 -22 0
-757 -23 0
-757 -24 0
-757 -29 0
-757 -26 157 0
-757 -26 -6 -8 0
-757 -26 -83 0
-757 -26 -84 0
-757 -26 -85 0
-757 -26 -103 0
-757 -26 -104 0
-757 -26 -105 0
-757 -26 -119 0
-757 -26 -120 0
-757 -26 -121 0
-757 -27 158 0
-757 -27 -6 -9 0
-757 -27 -84 0
-757 -27 -85 0
-757 -27 -104 0
-757 -27 -105 0
-757 -27 -120 0
-757 -27 -121 0
-757 -28 159 0
-757 -28 -6 -10 0
-757 -28 -85 0
-757 -28 -105 0
-757 -28 -121 0
-758 146 0
-758 150 0
-758 -31 0
-758 -32 0
-758 -33 0
-758 -37 0
-758 -34 157 0
-758 -34 -1 -8 0
-758 -34 -63 0
-758 -34 -64 0
-758 -34 -65 0
-758 -34 -87 0
-758 -34 -88 0
-758 -34 -89 0
-758 -34 -107 0
-758 -34 -108 0
-758 -34 -109 0
-758 -35 158 0
-758 -35 -1 -9 0
-758 -35 -64 0
-758 -35 -65 0
-758 -35 -88 0
-758 -35 -89 0
-758 -35 -108 0
-758 -35 -109 0
-758 -36 159 0
-758 -36 -1 -10 0
-758 -36 -65 0
-758 -36 -89 0
-758 -36 -109 0
-759 146 0
-759 151 0
-759 -32 0
-759 -33 0
-759 -37 0
-759 -34 157 0
-759 -34 -2 -8 0
-759 -34 -67 0
-759 -34 -68 0
-759 -34 -69 0
-759 -34 -87 0
-759 -34 -88 0
-759 -34 -89 0
-759 -34 -91 0
-759 -34 -92 0
-759 -34 -93 0
-759 -34 -107 0
-759 -34 -108 0
-759 -34 -109 0
-759 -34 -111 0
-759 -34 -112 0
-759 -34 -113 0
-759 -35 158 0
-759 -35 -2 -9 0
-759 -35 -68 0
-759 -35 -69 0
-759 -35 -88 0
-759 -35 -89 0
-759 -35 -92 0
-759 -35 -93 0
-759 -35 -108 0
-759 -35 -109 0
-759 -35 -112 0
-759 -35 -113 0
-759 -36 159 0
-759 -36 -2 -10 0
-759 -36 -69 0
-759 -36 -89 0
-759 -36 -93 0
-759 -36 -109 0
-759 -36 -113 0
-760 146 0
-760 152 0
-760 -33 0
-760 -37 0
-760 -34 157 0
-760 -34 -3 -8 0
-760 -34 -71 0
-760 -34 -72 0
-760 -34 -73 0
-760 -34 -91 0
-760 -34 -92 0
-760 -34 -93 0
-760 -34 -95 0
-760 -34 -96 0
-760 -34 -97 0
-760 -34 -107 0
-760 -34 -108 0
-760 -34 -109 0
-760 -34 -111 0
-760 -34 -112 0
-760 -34 -113 0
-760 -34 -115 0
-760 -34 -116 0
-760 -34 -117 0
-760 -35 158 0
-760 -35 -3 -9 0
-760 -35 -72 0
-760 -35 -73 0
-760 -35 -92 0
-760 -35 -93 0
-760 -35 -96 0
-760 -35 -97 0
-760 -35 -108 0
-760 -35 -109 0
-760 -35 -112 0
-760 -35 -113 0
-760 -35 -116 0
-760 -35 -117 0
-760 -36 159 0
-760 -36 -3 -10 0
-760 -36 -73 0
-760 -36 -93 0
-760 -36 -97 0
-760 -36 -109 0
-760 -36 -113 0
-760 -36 -117 0
-761 146 0
-761 153 0
-761 -30 0
-761 -37 0
-761 -34 157 0
-761 -34 -4 -8 0
-761 -34 -75 0
-761 -34 -76 0
-761 -34 -77 0
-761 -34 -95 0
-761 -34 -96 0
-761 -34 -97 0
-761 -34 -99 0
-761 -34 -100 0
-761 -34 -101 0
-761 -34 -111 0
-761 -34 -112 0
-761 -34 -113 0
-761 -34 -115 0
-761 -34 -116 0
-761 -34 -117 0
-761 -34 -119 0
-761 -34 -120 0
-761 -34 -121 0
-761 -35 158 0
-761 -35 -4 -9 0
-761 -35 -76 0
-761 -35 -77 0
-761 -35 -96 0
-761 -35 -97 0
-761 -35 -100 0
-761 -35 -101 0
-761 -35 -112 0
-761 -35 -113 0
-761 -35 -116 0
-761 -35 -117 0
-761 -35 -120 0
-761 -35 -121 0
-761 -36 159 0
-761 -36 -4 -10 0
-761 -36 -77 0
-761 -36 -97 0
-761 -36 -101 0
-761 -36 -113 0
-761 -36 -117 0
-761 -36 -121 0
-762 146 0
-762 154 0
-762 -30 0
-762 -31 0
-762 -37 0
-762 -34 157 0
-762 -34 -5 -8 0
-762 -34 -79 0
-762 -34 -80 0
-762 -34 -81 0
-762 -34 -99 0
-762 -34 -100 0
-762 -34 -101 0
-762 -34 -103 0
-762 -34 -104 0
-762 -34 -105 0
-762 -34 -115 0
-762 -34 -116 0
-762 -34 -117 0
-762 -34 -119 0
-762 -34 -120 0
-762 -34 -121 0
-762 -35 158 0
-762 -35 -5 -9 0
-762 -35 -80 0
-762 -35 -81 0
-762 -35 -100 0
-762 -35 -101 0
-762 -35 -104 0
-762 -35 -105 0
-762 -35 -116 0
-762 -35 -117 0
-762 -35 -120 0
-762 -35 -121 0
-762 -36 159 0
-762 -36 -5 -10 0
-762 -36 -81 0
-762 -36 -101 0
-762 -36 -105 0
-762 -36 -117 0
-762 -36 -121 0
-763 146 0
-763 155 0
-763 -30 0
-763 -31 0
-763 -32 0
-763 -37 0
-763 -34 157 0
-763 -34 -6 -8 0
-763 -34 -83 0
-763 -34 -84 0
-763 -34 -85 0
-763 -34 -103 0
-763 -34 -104 0
-763 -34 -105 0
-763 -34 -119 0
-763 -34 -120 0
-763 -34 -121 0
-763 -35 158 0
-763 -35 -6 -9 0
-763 -35 -84 0
-763 -35 -85 0
-763 -35 -104 0
-763 -35 -105 0
-763 -35 -120 0
-763 -35 -121 0
-763 -36 159 0
-763 -36 -6 -10 0
-763 -36 -85 0
-763 -36 -105 0
-763 -36 -121 0
-764 146 0
-764 150 0
-764 156 0
-764 -1 -7 0
-764 -62 0
-764 -63 0
-764 -64 0
-764 -65 0
-764 -86 0
-764 -87 0
-764 -88 0
-764 -89 0
-764 -106 0
-764 -107 0
-764 -108 0
-764 -109 0
-765 146 0
-765 151 0
-765 156 0
-765 -2 -7 0
-765 -66 0
-765 -67 0
-765 -68 0
-765 -69 0
-765 -86 0
-765 -87 0
-765 -88 0
-765 -89 0
-765 -90 0
-765 -91 0
-765 -92 0
-765 -93 0
-765 -106 0
-765 -107 0
-765 -108 0
-765 -109 0
-765 -110 0
-765 -111 0
-765 -112 0
-765 -113 0
-766 146 0
-766 152 0
-766 156 0
-766 -3 -7 0
-766 -70 0
-766 -71 0
-766 -72 0
-766 -73 0
-766 -90 0
-766 -91 0
-766 -92 0
-766 -93 0
-766 -94 0
-766 -95 0
-766 -96 0
-766 -97 0
-766 -106 0
-766 -107 0
-766 -108 0
-766 -109 0
-766 -110 0
-766 -111 0
-766 -112 0
-766 -113 0
-766 -114 0
-766 -115 0
-766 -116 0
-766 -117 0
-767 146 0
-767 153 0
-767 156 0
-767 -4 -7 0
-767 -74 0
-767 -75 0
-767 -76 0
-767 -77 0
-767 -94 0
-767 -95 0
-767 -96 0
-767 -97 0
-767 -98 0
-767 -99 0
-767 -100 0
-767 -101 0
-767 -110 0
-767 -111 0
-767 -112 0
-767 -113 0
-767 -114 0
-767 -115 0
-767 -116 0
-767 -117 0
-767 -118 0
-767 -119 0
-767 -120 0
-767 -121 0
-768 146 0
-768 154 0
-768 156 0
-768 -5 -7 0
-768 -78 0
-768 -79 0
-768 -80 0
-768 -81 0
-768 -98 0
-768 -99 0
-768 -100 0
-768 -101 0
-768 -102 0
-768 -103 0
-768 -104 0
-768 -105 0
-768 -114 0
-768 -115 0
-768 -116 0
-768 -117 0
-768 -118 0
-768 -119 0
-768 -120 0
-768 -121 0
-769 146 0
-769 155 0
-769 156 0
-769 -6 -7 0
-769 -82 0
-769 -83 0
-769 -84 0
-769 -85 0
-769 -102 0
-769 -103 0
-769 -104 0
-769 -105 0
-769 -118 0
-769 -119 0
-769 -120 0
-769 -121 0
-770 147 0
-770 160 0
-770 -2 0
-770 -3 0
-770 -4 0
-770 -5 0
-770 -6 0
-770 -10 0
-770 -7 167 0
-770 -7 -11 -18 0
-770 -7 -39 0
-770 -7 -40 0
-770 -7 -41 0
-770 -7 -87 0
-770 -7 -88 0
-770 -7 -89 0
-770 -7 -107 0
-770 -7 -108 0
-770 -7 -109 0
-770 -8 168 0
-770 -8 -11 -19 0
-770 -8 -40 0
-770 -8 -41 0
-770 -8 -88 0
-770 -8 -89 0
-770 -8 -108 0
-770 -8 -109 0
-770 -9 169 0
-770 -9 -11 -20 0
-770 -9 -41 0
-770 -9 -89 0
-770 -9 -109 0
-771 147 0
-771 161 0
-771 -1 0
-771 -3 0
-771 -4 0
-771 -5 0
-771 -6 0
-771 -10 0
-771 -7 167 0
-771 -7 -12 -18 0
-771 -7 -43 0
-771 -7 -44 0
-771 -7 -45 0
-771 -7 -87 0
-771 -7 -88 0
-771 -7 -89 0
-771 -7 -91 0
-771 -7 -92 0
-771 -7 -93 0
-771 -7 -107 0
-771 -7 -108 0
-771 -7 -109 0
-771 -7 -111 0
-771 -7 -112 0
-771 -7 -113 0
-771 -8 168 0
-771 -8 -12 -19 0
-771 -8 -44 0
-771 -8 -45 0
-771 -8 -88 0
-771 -8 -89 0
-771 -8 -92 0
-771 -8 -93 0
-771 -8 -108 0
-771 -8 -109 0
-771 -8 -112 0
-771 -8 -113 0
-771 -9 169 0
-771 -9 -12 -20 0
-771 -9 -45 0
-771 -9 -89 0
-771 -9 -93 0
-771 -9 -109 0
-771 -9 -113 0
-772 147 0
-772 162 0
-772 -1 0
-772 -2 0
-772 -4 0
-772 -5 0
-772 -6 0
-772 -10 0
-772 -7 167 0
-772 -7 -13 -18 0
-772 -7 -47 0
-772 -7 -48 0
-772 -7 -49 0
-772 -7 -91 0
-772 -7 -92 0
-772 -7 -93 0
-772 -7 -95 0
-772 -7 -96 0
-772 -7 -97 0
-772 -7 -107 0
-772 -7 -108 0
-772 -7 -109 0
-772 -7 -111 0
-772 -7 -112 0
-772 -7 -113 0
-772 -7 -115 0
-772 -7 -116 0
-772 -7 -117 0
-772 -8 168 0
-772 -8 -13 -19 0
-772 -8 -48 0
-772 -8 -49 0
-772 -8 -92 0
-772 -8 -93 0
-772 -8 -96 0
-772 -8 -97 0
-772 -8 -108 0
-772 -8 -109 0
-772 -8 -112 0
-772 -8 -113 0
-772 -8 -116 0
-772 -8 -117 0
-772 -9 169 0
-772 -9 -13 -20 0
-772 -9 -49 0
-772 -9 -93 0
-772 -9 -97 0
-772 -9 -109 0
-772 -9 -113 0
-772 -9 -117 0
-773 147 0
-773 163 0
-773 -1 0
-773 -2 0
-773 -3 0
-773 -5 0
-773 -6 0
-773 -10 0
-773 -7 167 0
-773 -7 -14 -18 0
-773 -7 -51 0
-773 -7 -52 0
-773 -7 -53 0
-773 -7 -95 0
-773 -7 -96 0
-773 -7 -97 0
-773 -7 -99 0
-773 -7 -100 0
-773 -7 -101 0
-773 -7 -111 0
-773 -7 -112 0
-773 -7 -113 0
-773 -7 -115 0
-773 -7 -116 0
-773 -7 -117 0
-773 -7 -119 0
-773 -7 -120 0
-773 -7 -121 0
-773 -8 168 0
-773 -8 -14 -19 0
-773 -8 -52 0
-773 -8 -53 0
-773 -8 -96 0
-773 -8 -97 0
-773 -8 -100 0
-773 -8 -101 0
-773 -8 -112 0
-773 -8 -113 0
-773 -8 -116 0
-773 -8 -117 0
-773 -8 -120 0
-773 -8 -121 0
-773 -9 169 0
-773 -9 -14 -20 0
-773 -9 -53 0
-773 -9 -97 0
-773 -9 -101 0
-773 -9 -113 0
-773 -9 -117 0
-773 -9 -121 0
-774 147 0
-774 164 0
-774 -1 0
-774 -2 0
-774 -3 0
-774 -4 0
-774 -6 0
-774 -10 0
-774 -7 167 0
-774 -7 -15 -18 0
-774 -7 -55 0
-774 -7 -56 0
-774 -7 -57 0
-774 -7 -99 0
-774 -7 -100 0
-774 -7 -101 0
-774 -7 -103 0
-774 -7 -104 0
-774 -7 -105 0
-774 -7 -115 0
-774 -7 -116 0
-774 -7 -117 0
-774 -7 -119 0
-774 -7 -120 0
-774 -7 -121 0
-774 -8 168 0
-774 -8 -15 -19 0
-774 -8 -56 0
-774 -8 -57 0
-774 -8 -100 0
-774 -8 -101 0
-774 -8 -104 0
-774 -8 -105 0
-774 -8 -116 0
-774 -8 -117 0
-774 -8 -120 0
-774 -8 -121 0
-774 -9 169 0
-774 -9 -15 -20 0
-774 -9 -57 0
-774 -9 -101 0
-774 -9 -105 0
-774 -9 -117 0
-774 -9 -121 0
-775 147 0
-775 165 0
-775 -1 0
-775 -2 0
-775 -3 0
-775 -4 0
-775 -5 0
-775 -10 0
-775 -7 167 0
-775 -7 -16 -18 0
-775 -7 -59 0
-775 -7 -60 0
-775 -7 -61 0
-775 -7 -103 0
-775 -7 -104 0
-775 -7 -105 0
-775 -7 -119 0
-775 -7 -120 0
-775 -7 -121 0
-775 -8 168 0
-775 -8 -16 -19 0
-775 -8 -60 0
-775 -8 -61 0
-775 -8 -104 0
-775 -8 -105 0
-775 -8 -120 0
-775 -8 -121 0
-775 -9 169 0
-775 -9 -16 -20 0
-775 -9 -61 0
-775 -9 -105 0
-775 -9 -121 0
-776 147 0
-776 160 0
-776 -22 0
-776 -23 0
-776 -24 0
-776 -25 0
-776 -29 0
-776 -26 167 0
-776 -26 -11 -18 0
-776 -26 -39 0
-776 -26 -40 0
-776 -26 -41 0
-776 -26 -87 0
-776 -26 -88 0
-776 -26 -89 0
-776 -26 -107 0
-776 -26 -108 0
-776 -26 -109 0
-776 -27 168 0
-776 -27 -11 -19 0
-776 -27 -40 0
-776 -27 -41 0
-776 -27 -88 0
-776 -27 -89 0
-776 -27 -108 0
-776 -27 -109 0
-776 -28 169 0
-776 -28 -11 -20 0
-776 -28 -41 0
-776 -28 -89 0
-776 -28 -109 0
-777 147 0
-777 161 0
-777 -23 0
-777 -24 0
-777 -25 0
-777 -29 0
-777 -26 167 0
-777 -26 -12 -18 0
-777 -26 -43 0
-777 -26 -44 0
-777 -26 -45 0
-777 -26 -87 0
-777 -26 -88 0
-777 -26 -89 0
-777 -26 -91 0
-777 -26 -92 0
-777 -26 -93 0
-777 -26 -107 0
-777 -26 -108 0
-777 -26 -109 0
-777 -26 -111 0
-777 -26 -112 0
-777 -26 -113 0
-777 -27 168 0
-777 -27 -12 -19 0
-777 -27 -44 0
-777 -27 -45 0
-777 -27 -88 0
-777 -27 -89 0
-777 -27 -92 0
-777 -27 -93 0
-777 -27 -108 0
-777 -27 -109 0
-777 -27 -112 0
-777 -27 -113 0
-777 -28 169 0
-777 -28 -12 -20 0
-777 -28 -45 0
-777 -28 -89 0
-777 -28 -93 0
-777 -28 -109 0
-777 -28 -113 0
-778 147 0
-778 162 0
-778 -21 0
-778 -24 0
-778 -25 0
-778 -29 0
-778 -26 167 0
-778 -26 -13 -18 0
-778 -26 -47 0
-778 -26 -48 0
-778 -26 -49 0
-778 -26 -91 0
-778 -26 -92 0
-778 -26 -93 0
-778 -26 -95 0
-778 -26 -96 0
-778 -26 -97 0
-778 -26 -107 0
-778 -26 -108 0
-778 -26 -109 0
-778 -26 -111 0
-778 -26 -112 0
-778 -26 -113 0
-778 -26 -115 0
-778 -26 -116 0
-778 -26 -117 0
-778 -27 168 0
-778 -27 -13 -19 0
-778 -27 -48 0
-778 -27 -49 0
-778 -27 -92 0
-778 -27 -93 0
-778 -27 -96 0
-778 -27 -97 0
-778 -27 -108 0
-778 -27 -109 0
-778 -27 -112 0
-778 -27 -113 0
-778 -27 -116 0
-778 -27 -117 0
-778 -28 169 0
-778 -28 -13 -20 0
-778 -28 -49 0
-778 -28 -93 0
-778 -28 -97 0
-778 -28 -109 0
-778 -28 -113 0
-778 -28 -117 0
-779 147 0
-779 163 0
-779 -21 0
-779 -22 0
-779 -25 0
-779 -29 0
-779 -26 167 0
-779 -26 -14 -18 0
-779 -26 -51 0
-779 -26 -52 0
-779 -26 -53 0
-779 -26 -95 0
-779 -26 -96 0
-779 -26 -97 0
-779 -26 -99 0
-779 -26 -100 0
-779 -26 -101 0
-779 -26 -111 0
-779 -26 -112 0
-779 -26 -113 0
-779 -26 -115 0
-779 -26 -116 0
-779 -26 -117 0
-779 -26 -119 0
-779 -26 -120 0
-779 -26 -121 0
-779 -27 168 0
-779 -27 -14 -19 0
-779 -27 -52 0
-779 -27 -53 0
-779 -27 -96 0
-779 -27 -97 0
-779 -27 -100 0
-779 -27 -101 0
-779 -27 -112 0
-779 -27 -113 0
-779 -27 -116 0
-779 -27 -117 0
-779 -27 -120 0
-779 -27 -121 0
-779 -28 169 0
-779 -28 -14 -20 0
-779 -28 -53 0
-779 -28 -97 0
-779 -28 -101 0
-779 -28 -113 0
-779 -28 -117 0
-779 -28 -121 0
-780 147 0
-780 164 0
-780 -21 0
-780 -22 0
-780 -23 0
-780 -29 0
-780 -26 167 0
-780 -26 -15 -18 0
-780 -26 -55 0
-780 -26 -56 0
-780 -26 -57 0
-780 -26 -99 0
-780 -26 -100 0
-780 -26 -101 0
-780 -26 -103 0
-780 -26 -104 0
-780 -26 -105 0
-780 -26 -115 0
-780 -26 -116 0
-780 -26 -117 0
-780 -26 -119 0
-780 -26 -120 0
-780 -26 -121 0
-780 -27 168 0
-780 -27 -15 -19 0
-780 -27 -56 0
-780 -27 -57 0
-780 -27 -100 0
-780 -27 -101 0
-780 -27 -104 0
-780 -27 -105 0
-780 -27 -116 0
-780 -27 -117 0
-780 -27 -120 0
-780 -27 -121 0
-780 -28 169 0
-780 -28 -15 -20 0
-780 -28 -57 0
-780 -28 -101 0
-780 -28 -105 0
-780 -28 -117 0
-780 -28 -121 0
-781 147 0
-781 165 0
-781 -21 0
-781 -22 0
-781 -23 0
-781 -24 0
-781 -29 0
-781 -26 167 0
-781 -26 -16 -18 0
-781 -26 -59 0
-781 -26 -60 0
-781 -26 -61 0
-781 -26 -103 0
-781 -26 -104 0
-781 -26 -105 0
-781 -26 -119 0
-781 -26 -120 0
-781 -26 -121 0
-781 -27 168 0
-781 -27 -16 -19 0
-781 -27 -60 0
-781 -27 -61 0
-781 -27 -104 0
-781 -27 -105 0
-781 -27 -120 0
-781 -27 -121 0
-781 -28 169 0
-781 -28 -16 -20 0
-781 -28 -61 0
-781 -28 -105 0
-781 -28 -121 0
-782 147 0
-782 160 0
-782 -31 0
-782 -32 0
-782 -33 0
-782 -37 0
-782 -34 167 0
-782 -34 -11 -18 0
-782 -34 -39 0
-782 -34 -40 0
-782 -34 -41 0
-782 -34 -87 0
-782 -34 -88 0
-782 -34 -89 0
-782 -34 -107 0
-782 -34 -108 0
-782 -34 -109 0
-782 -35 168 0
-782 -35 -11 -19 0
-782 -35 -40 0
-782 -35 -41 0
-782 -35 -88 0
-782 -35 -89 0
-782 -35 -108 0
-782 -35 -109 0
-782 -36 169 0
-782 -36 -11 -20 0
-782 -36 -41 0
-782 -36 -89 0
-782 -36 -109 0
-783 147 0
-783 161 0
-783 -32 0
-783 -33 0
-783 -37 0
-783 -34 167 0
-783 -34 -12 -18 0
-783 -34 -43 0
-783 -34 -44 0
-783 -34 -45 0
-783 -34 -87 0
-783 -34 -88 0
-783 -34 -89 0
-783 -34 -91 0
-783 -34 -92 0
-783 -34 -93 0
-783 -34 -107 0
-783 -34 -108 0
-783 -34 -109 0
-783 -34 -111 0
-783 -34 -112 0
-783 -34 -113 0
-783 -35 168 0
-783 -35 -12 -19 0
-783 -35 -44 0
-783 -35 -45 0
-783 -35 -88 0
-783 -35 -89 0
-783 -35 -92 0
-783 -35 -93 0
-783 -35 -108 0
-783 -35 -109 0
-783 -35 -112 0
-783 -35 -113 0
-783 -36 169 0
-783 -36 -12 -20 0
-783 -36 -45 0
-783 -36 -89 0
-783 -36 -93 0
-783 -36 -109 0
-783 -36 -113 0
-784 147 0
-784 162 0
-784 -33 0
-784 -37 0
-784 -34 167 0
-784 -34 -13 -18 0
-784 -34 -47 0
-784 -34 -48 0
-784 -34 -49 0
-784 -34 -91 0
-784 -34 -92 0
-784 -34 -93 0
-784 -34 -95 0
-784 -34 -96 0
-784 -34 -97 0
-784 -34 -107 0
-784 -34 -108 0
-784 -34 -109 0
-784 -34 -111 0
-784 -34 -112 0
-784 -34 -113 0
-784 -34 -115 0
-784 -34 -116 0
-784 -34 -117 0
-784 -35 168 0
-784 -35 -13 -19 0
-784 -35 -48 0
-784 -35 -49 0
-784 -35 -92 0
-784 -35 -93 0
-784 -35 -96 0
-784 -35 -97 0
-784 -35 -108 0
-784 -35 -109 0
-784 -35 -112 0
-784 -35 -113 0
-784 -35 -116 0
-784 -35 -117 0
-784 -36 169 0
-784 -36 -13 -20 0
-784 -36 -49 0
-784 -36 -93 0
-784 -36 -97 0
-784 -36 -109 0
-784 -36 -113 0
-784 -36 -117 0
-785 147 0
-785 163 0
-785 -30 0
-785 -37 0
-785 -34 167 0
-785 -34 -14 -18 0
-785 -34 -51 0
-785 -34 -52 0
-785 -34 -53 0
-785 -34 -95 0
-785 -34 -96 0
-785 -34 -97 0
-785 -34 -99 0
-785 -34 -100 0
-785 -34 -101 0
-785 -34 -111 0
-785 -34 -112 0
-785 -34 -113 0
-785 -34 -115 0
-785 -34 -116 0
-785 -34 -117 0
-785 -34 -119 0
-785 -34 -120 0
-785 -34 -121 0
-785 -35 168 0
-785 -35 -14 -19 0
-785 -35 -52 0
-785 -35 -53 0
-785 -35 -96 0
-785 -35 -97 0
-785 -35 -100 0
-785 -35 -101 0
-785 -35 -112 0
-785 -35 -113 0
-785 -35 -116 0
-785 -35 -117 0
-785 -35 -120 0
-785 -35 -121 0
-785 -36 169 0
-785 -36 -14 -20 0
-785 -36 -53 0
-785 -36 -97 0
-785 -36 -101 0
-785 -36 -113 0
-785 -36 -117 0
-785 -36 -121 0
-786 147 0
-786 164 0
-786 -30 0
-786 -31 0
-786 -37 0
-786 -34 167 0
-786 -34 -15 -18 0
-786 -34 -55 0
-786 -34 -56 0
-786 -34 -57 0
-786 -34 -99 0
-786 -34 -100 0
-786 -34 -101 0
-786 -34 -103 0
-786 -34 -104 0
-786 -34 -105 0
-786 -34 -115 0
-786 -34 -116 0
-786 -34 -117 0
-786 -34 -119 0
-786 -34 -120 0
-786 -34 -121 0
-786 -35 168 0
-786 -35 -15 -19 0
-786 -35 -56 0
-786 -35 -57 0
-786 -35 -100 0
-786 -35 -101 0
-786 -35 -104 0
-786 -35 -105 0
-786 -35 -116 0
-786 -35 -117 0
-786 -35 -120 0
-786 -35 -121 0
-786 -36 169 0
-786 -36 -15 -20 0
-786 -36 -57 0
-786 -36 -101 0
-786 -36 -105 0
-786 -36 -117 0
-786 -36 -121 0
-787 147 0
-787 165 0
-787 -30 0
-787 -31 0
-787 -32 0
-787 -37 0
-787 -34 167 0
-787 -34 -16 -18 0
-787 -34 -59 0
-787 -34 -60 0
-787 -34 -61 0
-787 -34 -103 0
-787 -34 -104 0
-787 -34 -105 0
-787 -34 -119 0
-787 -34 -120 0
-787 -34 -121 0
-787 -35 168 0
-787 -35 -16 -19 0
-787 -35 -60 0
-787 -35 -61 0
-787 -35 -104 0
-787 -35 -105 0
-787 -35 -120 0
-787 -35 -121 0
-787 -36 169 0
-787 -36 -16 -20 0
-787 -36 -61 0
-787 -36 -105 0
-787 -36 -121 0
-788 147 0
-788 160 0
-788 166 0
-788 -11 -17 0
-788 -38 0
-788 -39 0
-788 -40 0
-788 -41 0
-788 -86 0
-788 -87 0
-788 -88 0
-788 -89 0
-788 -106 0
-788 -107 0
-788 -108 0
-788 -109 0
-789 147 0
-789 161 0
-789 166 0
-789 -12 -17 0
-789 -42 0
-789 -43 0
-789 -44 0
-789 -45 0
-789 -86 0
-789 -87 0
-789 -88 0
-789 -89 0
-789 -90 0
-789 -91 0
-789 -92 0
-789 -93 0
-789 -106 0
-789 -107 0
-789 -108 0
-789 -109 0
-789 -110 0
-789 -111 0
-789 -112 0
-789 -113 0
-790 147 0
-790 162 0
-790 166 0
-790 -13 -17 0
-790 -46 0
-790 -47 0
-790 -48 0
-790 -49 0
-790 -90 0
-790 -91 0
-790 -92 0
-790 -93 0
-790 -94 0
-790 -95 0
-790 -96 0
-790 -97 0
-790 -106 0
-790 -107 0
-790 -108 0
-790 -109 0
-790 -110 0
-790 -111 0
-790 -112 0
-790 -113 0
-790 -114 0
-790 -115 0
-790 -116 0
-790 -117 0
-791 147 0
-791 163 0
-791 166 0
-791 -14 -17 0
-791 -50 0
-791 -51 0
-791 -52 0
-791 -53 0
-791 -94 0
-791 -95 0
-791 -96 0
-791 -97 0
-791 -98 0
-791 -99 0
-791 -100 0
-791 -101 0
-791 -110 0
-791 -111 0
-791 -112 0
-791 -113 0
-791 -114 0
-791 -115 0
-791 -116 0
-791 -117 0
-791 -118 0
-791 -119 0
-791 -120 0
-791 -121 0
-792 147 0
-792 164 0
-792 166 0
-792 -15 -17 0
-792 -54 0
-792 -55 0
-792 -56 0
-792 -57 0
-792 -98 0
-792 -99 0
-792 -100 0
-792 -101 0
-792 -102 0
-792 -103 0
-792 -104 0
-792 -105 0
-792 -114 0
-792 -115 0
-792 -116 0
-792 -117 0
-792 -118 0
-792 -119 0
-792 -120 0
-792 -121 0
-793 147 0
-793 165 0
-793 166 0
-793 -16 -17 0
-793 -58 0
-793 -59 0
-793 -60 0
-793 -61 0
-793 -102 0
-793 -103 0
-793 -104 0
-793 -105 0
-793 -118 0
-793 -119 0
-793 -120 0
-793 -121 0
-794 148 0
-794 170 0
-794 -3 0
-794 -4 0
-794 -5 0
-794 -6 0
-794 -10 0
-794 -7 176 0
-794 -7 -21 -27 0
-794 -7 -39 0
-794 -7 -40 0
-794 -7 -41 0
-794 -7 -43 0
-794 -7 -44 0
-794 -7 -45 0
-794 -7 -63 0
-794 -7 -64 0
-794 -7 -65 0
-794 -7 -67 0
-794 -7 -68 0
-794 -7 -69 0
-794 -7 -107 0
-794 -7 -108 0
-794 -7 -109 0
-794 -7 -111 0
-794 -7 -112 0
-794 -7 -113 0
-794 -8 177 0
-794 -8 -21 -28 0
-794 -8 -40 0
-794 -8 -41 0
-794 -8 -44 0
-794 -8 -45 0
-794 -8 -64 0
-794 -8 -65 0
-794 -8 -68 0
-794 -8 -69 0
-794 -8 -108 0
-794 -8 -109 0
-794 -8 -112 0
-794 -8 -113 0
-794 -9 178 0
-794 -9 -21 -29 0
-794 -9 -41 0
-794 -9 -45 0
-794 -9 -65 0
-794 -9 -69 0
-794 -9 -109 0
-794 -9 -113 0
-795 148 0
-795 171 0
-795 -1 0
-795 -4 0
-795 -5 0
-795 -6 0
-795 -10 0
-795 -7 176 0
-795 -7 -22 -27 0
-795 -7 -43 0
-795 -7 -44 0
-795 -7 -45 0
-795 -7 -47 0
-795 -7 -48 0
-795 -7 -49 0
-795 -7 -67 0
-795 -7 -68 0
-795 -7 -69 0
-795 -7 -71 0
-795 -7 -72 0
-795 -7 -73 0
-795 -7 -107 0
-795 -7 -108 0
-795 -7 -109 0
-795 -7 -111 0
-795 -7 -112 0
-795 -7 -113 0
-795 -7 -115 0
-795 -7 -116 0
-795 -7 -117 0
-795 -8 177 0
-795 -8 -22 -28 0
-795 -8 -44 0
-795 -8 -45 0
-795 -8 -48 0
-795 -8 -49 0
-795 -8 -68 0
-795 -8 -69 0
-795 -8 -72 0
-795 -8 -73 0
-795 -8 -108 0
-795 -8 -109 0
-795 -8 -112 0
-795 -8 -113 0
-795 -8 -116 0
-795 -8 -117 0
-795 -9 178 0
-795 -9 -22 -29 0
-795 -9 -45 0
-795 -9 -49 0
-795 -9 -69 0
-795 -9 -73 0
-795 -9 -109 0
-795 -9 -113 0
-795 -9 -117 0
-796 148 0
-796 172 0
-796 -1 0
-796 -2 0
-796 -5 0
-796 -6 0
-796 -10 0
-796 -7 176 0
-796 -7 -23 -27 0
-796 -7 -47 0
-796 -7 -48 0
-796 -7 -49 0
-796 -7 -51 0
-796 -7 -52 0
-796 -7 -53 0
-796 -7 -71 0
-796 -7 -72 0
-796 -7 -73 0
-796 -7 -75 0
-796 -7 -76 0
-796 -7 -77 0
-796 -7 -107 0
-796 -7 -108 0
-796 -7 -109 0
-796 -7 -111 0
-796 -7 -112 0
-796 -7 -113 0
-796 -7 -115 0
-796 -7 -116 0
-796 -7 -117 0
-796 -7 -119 0
-796 -7 -120 0
-796 -7 -121 0
-796 -8 177 0
-796 -8 -23 -28 0
-796 -8 -48 0
-796 -8 -49 0
-796 -8 -52 0
-796 -8 -53 0
-796 -8 -72 0
-796 -8 -73 0
-796 -8 -76 0
-796 -8 -77 0
-796 -8 -108 0
-796 -8 -109 0
-796 -8 -112 0
-796 -8 -113 0
-796 -8 -116 0
-796 -8 -117 0
-796 -8 -120 0
-796 -8 -121 0
-796 -9 178 0
-796 -9 -23 -29 0
-796 -9 -49 0
-796 -9 -53 0
-796 -9 -73 0
-796 -9 -77 0
-796 -9 -109 0
-796 -9 -113 0
-796 -9 -117 0
-796 -9 -121 0
-797 148 0
-797 173 0
-797 -1 0
-797 -2 0
-797 -3 0
-797 -6 0
-797 -10 0
-797 -7 176 0
-797 -7 -24 -27 0
-797 -7 -51 0
-797 -7 -52 0
-797 -7 -53 0
-797 -7 -55 0
-797 -7 -56 0
-797 -7 -57 0
-797 -7 -75 0
-797 -7 -76 0
-797 -7 -77 0
-797 -7 -79 0
-797 -7 -80 0
-797 -7 -81 0
-797 -7 -111 0
-797 -7 -112 0
-797 -7 -113 0
-797 -7 -115 0
-797 -7 -116 0
-797 -7 -117 0
-797 -7 -119 0
-797 -7 -120 0
-797 -7 -121 0
-797 -8 177 0
-797 -8 -24 -28 0
-797 -8 -52 0
-797 -8 -53 0
-797 -8 -56 0
-797 -8 -57 0
-797 -8 -76 0
-797 -8 -77 0
-797 -8 -80 0
-797 -8 -81 0
-797 -8 -112 0
-797 -8 -113 0
-797 -8 -116 0
-797 -8 -117 0
-797 -8 -120 0
-797 -8 -121 0
-797 -9 178 0
-797 -9 -24 -29 0
-797 -9 -53 0
-797 -9 -57 0
-797 -9 -77 0
-797 -9 -81 0
-797 -9 -113 0
-797 -9 -117 0
-797 -9 -121 0
-798 148 0
-798 174 0
-798 -1 0
-798 -2 0
-798 -3 0
-798 -4 0
-798 -10 0
-798 -7 176 0
-798 -7 -25 -27 0
-798 -7 -55 0
-798 -7 -56 0
-798 -7 -57 0
-798 -7 -59 0
-798 -7 -60 0
-798 -7 -61 0
-798 -7 -79 0
-798 -7 -80 0
-798 -7 -81 0
-798 -7 -83 0
-798 -7 -84 0
-798 -7 -85 0
-798 -7 -115 0
-798 -7 -116 0
-798 -7 -117 0
-798 -7 -119 0
-798 -7 -120 0
-798 -7 -121 0
-798 -8 177 0
-798 -8 -25 -28 0
-798 -8 -56 0
-798 -8 -57 0
-798 -8 -60 0
-798 -8 -61 0
-798 -8 -80 0
-798 -8 -81 0
-798 -8 -84 0
-798 -8 -85 0
-798 -8 -116 0
-798 -8 -117 0
-798 -8 -120 0
-798 -8 -121 0
-798 -9 178 0
-798 -9 -25 -29 0
-798 -9 -57 0
-798 -9 -61 0
-798 -9 -81 0
-798 -9 -85 0
-798 -9 -117 0
-798 -9 -121 0
-799 148 0
-799 170 0
-799 -13 0
-799 -14 0
-799 -15 0
-799 -16 0
-799 -20 0
-799 -17 176 0
-799 -17 -21 -27 0
-799 -17 -39 0
-799 -17 -40 0
-799 -17 -41 0
-799 -17 -43 0
-799 -17 -44 0
-799 -17 -45 0
-799 -17 -63 0
-799 -17 -64 0
-799 -17 -65 0
-799 -17 -67 0
-799 -17 -68 0
-799 -17 -69 0
-799 -17 -107 0
-799 -17 -108 0
-799 -17 -109 0
-799 -17 -111 0
-799 -17 -112 0
-799 -17 -113 0
-799 -18 177 0
-799 -18 -21 -28 0
-799 -18 -40 0
-799 -18 -41 0
-799 -18 -44 0
-799 -18 -45 0
-799 -18 -64 0
-799 -18 -65 0
-799 -18 -68 0
-799 -18 -69 0
-799 -18 -108 0
-799 -18 -109 0
-799 -18 -112 0
-799 -18 -113 0
-799 -19 178 0
-799 -19 -21 -29 0
-799 -19 -41 0
-799 -19 -45 0
-799 -19 -65 0
-799 -19 -69 0
-799 -19 -109 0
-799 -19 -113 0
-800 148 0
-800 171 0
-800 -11 0
-800 -14 0
-800 -15 0
-800 -16 0
-800 -20 0
-800 -17 176 0
-800 -17 -22 -27 0
-800 -17 -43 0
-800 -17 -44 0
-800 -17 -45 0
-800 -17 -47 0
-800 -17 -48 0
-800 -17 -49 0
-800 -17 -67 0
-800 -17 -68 0
-800 -17 -69 0
-800 -17 -71 0
-800 -17 -72 0
-800 -17 -73 0
-800 -17 -107 0
-800 -17 -108 0
-800 -17 -109 0
-800 -17 -111 0
-800 -17 -112 0
-800 -17 -113 0
-800 -17 -115 0
-800 -17 -116 0
-800 -17 -117 0
-800 -18 177 0
-800 -18 -22 -28 0
-800 -18 -44 0
-800 -18 -45 0
-800 -18 -48 0
-800 -18 -49 0
-800 -18 -68 0
-800 -18 -69 0
-800 -18 -72 0
-800 -18 -73 0
-800 -18 -108 0
-800 -18 -109 0
-800 -18 -112 0
-800 -18 -113 0
-800 -18 -116 0
-800 -18 -117 0
-800 -19 178 0
-800 -19 -22 -29 0
-800 -19 -45 0
-800 -19 -49 0
-800 -19 -69 0
-800 -19 -73 0
-800 -19 -109 0
-800 -19 -113 0
-800 -19 -117 0
-801 148 0
-801 172 0
-801 -11 0
-801 -12 0
-801 -15 0
-801 -16 0
-801 -20 0
-801 -17 176 0
-801 -17 -23 -27 0
-801 -17 -47 0
-801 -17 -48 0
-801 -17 -49 0
-801 -17 -51 0
-801 -17 -52 0
-801 -17 -53 0
-801 -17 -71 0
-801 -17 -72 0
-801 -17 -73 0
-801 -17 -75 0
-801 -17 -76 0
-801 -17 -77 0
-801 -17 -107 0
-801 -17 -108 0
-801 -17 -109 0
-801 -17 -111 0
-801 -17 -112 0
-801 -17 -113 0
-801 -17 -115 0
-801 -17 -116 0
-801 -17 -117 0
-801 -17 -119 0
-801 -17 -120 0
-801 -17 -121 0
-801 -18 177 0
-801 -18 -23 -28 0
-801 -18 -48 0
-801 -18 -49 0
-801 -18 -52 0
-801 -18 -53 0
-801 -18 -72 0
-801 -18 -73 0
-801 -18 -76 0
-801 -18 -77 0
-801 -18 -108 0
-801 -18 -109 0
-801 -18 -112 0
-801 -18 -113 0
-801 -18 -116 0
-801 -18 -117 0
-801 -18 -120 0
-801 -18 -121 0
-801 -19 178 0
-801 -19 -23 -29 0
-801 -19 -49 0
-801 -19 -53 0
-801 -19 -73 0
-801 -19 -77 0
-801 -19 -109 0
-801 -19 -113 0
-801 -19 -117 0
-801 -19 -121 0
-802 148 0
-802 173 0
-802 -11 0
-802 -12 0
-802 -13 0
-802 -16 0
-802 -20 0
-802 -17 176 0
-802 -17 -24 -27 0
-802 -17 -51 0
-802 -17 -52 0
-802 -17 -53 0
-802 -17 -55 0
-802 -17 -56 0
-802 -17 -57 0
-802 -17 -75 0
-802 -17 -76 0
-802 -17 -77 0
-802 -17 -79 0
-802 -17 -80 0
-802 -17 -81 0
-802 -17 -111 0
-802 -17 -112 0
-802 -17 -113 0
-802 -17 -115 0
-802 -17 -116 0
-802 -17 -117 0
-802 -17 -119 0
-802 -17 -120 0
-802 -17 -121 0
-802 -18 177 0
-802 -18 -24 -28 0
-802 -18 -52 0
-802 -18 -53 0
-802 -18 -56 0
-802 -18 -57 0
-802 -18 -76 0
-802 -18 -77 0
-802 -18 -80 0
-802 -18 -81 0
-802 -18 -112 0
-802 -18 -113 0
-802 -18 -116 0
-802 -18 -117 0
-802 -18 -120 0
-802 -18 -121 0
-802 -19 178 0
-802 -19 -24 -29 0
-802 -19 -53 0
-802 -19 -57 0
-802 -19 -77 0
-802 -19 -81 0
-802 -19 -113 0
-802 -19 -117 0
-802 -19 -121 0
-803 148 0
-803 174 0
-803 -11 0
-803 -12 0
-803 -13 0
-803 -14 0
-803 -20 0
-803 -17 176 0
-803 -17 -25 -27 0
-803 -17 -55 0
-803 -17 -56 0
-803 -17 -57 0
-803 -17 -59 0
-803 -17 -60 0
-803 -17 -61 0
-803 -17 -79 0
-803 -17 -80 0
-803 -17 -81 0
-803 -17 -83 0
-803 -17 -84 0
-803 -17 -85 0
-803 -17 -115 0
-803 -17 -116 0
-803 -17 -117 0
-803 -17 -119 0
-803 -17 -120 0
-803 -17 -121 0
-803 -18 177 0
-803 -18 -25 -28 0
-803 -18 -56 0
-803 -18 -57 0
-803 -18 -60 0
-803 -18 -61 0
-803 -18 -80 0
-803 -18 -81 0
-803 -18 -84 0
-803 -18 -85 0
-803 -18 -116 0
-803 -18 -117 0
-803 -18 -120 0
-803 -18 -121 0
-803 -19 178 0
-803 -19 -25 -29 0
-803 -19 -57 0
-803 -19 -61 0
-803 -19 -81 0
-803 -19 -85 0
-803 -19 -117 0
-803 -19 -121 0
-804 148 0
-804 170 0
-804 -32 0
-804 -33 0
-804 -37 0
-804 -34 176 0
-804 -34 -21 -27 0
-804 -34 -39 0
-804 -34 -40 0
-804 -34 -41 0
-804 -34 -43 0
-804 -34 -44 0
-804 -34 -45 0
-804 -34 -63 0
-804 -34 -64 0
-804 -34 -65 0
-804 -34 -67 0
-804 -34 -68 0
-804 -34 -69 0
-804 -34 -107 0
-804 -34 -108 0
-804 -34 -109 0
-804 -34 -111 0
-804 -34 -112 0
-804 -34 -113 0
-804 -35 177 0
-804 -35 -21 -28 0
-804 -35 -40 0
-804 -35 -41 0
-804 -35 -44 0
-804 -35 -45 0
-804 -35 -64 0
-804 -35 -65 0
-804 -35 -68 0
-804 -35 -69 0
-804 -35 -108 0
-804 -35 -109 0
-804 -35 -112 0
-804 -35 -113 0
-804 -36 178 0
-804 -36 -21 -29 0
-804 -36 -41 0
-804 -36 -45 0
-804 -36 -65 0
-804 -36 -69 0
-804 -36 -109 0
-804 -36 -113 0
-805 148 0
-805 171 0
-805 -33 0
-805 -37 0
-805 -34 176 0
-805 -34 -22 -27 0
-805 -34 -43 0
-805 -34 -44 0
-805 -34 -45 0
-805 -34 -47 0
-805 -34 -48 0
-805 -34 -49 0
-805 -34 -67 0
-805 -34 -68 0
-805 -34 -69 0
-805 -34 -71 0
-805 -34 -72 0
-805 -34 -73 0
-805 -34 -107 0
-805 -34 -108 0
-805 -34 -109 0
-805 -34 -111 0
-805 -34 -112 0
-805 -34 -113 0
-805 -34 -115 0
-805 -34 -116 0
-805 -34 -117 0
-805 -35 177 0
-805 -35 -22 -28 0
-805 -35 -44 0
-805 -35 -45 0
-805 -35 -48 0
-805 -35 -49 0
-805 -35 -68 0
-805 -35 -69 0
-805 -35 -72 0
-805 -35 -73 0
-805 -35 -108 0
-805 -35 -109 0
-805 -35 -112 0
-805 -35 -113 0
-805 -35 -116 0
-805 -35 -117 0
-805 -36 178 0
-805 -36 -22 -29 0
-805 -36 -45 0
-805 -36 -49 0
-805 -36 -69 0
-805 -36 -73 0
-805 -36 -109 0
-805 -36 -113 0
-805 -36 -117 0
-806 148 0
-806 172 0
-806 -37 0
-806 -34 176 0
-806 -34 -23 -27 0
-806 -34 -47 0
-806 -34 -48 0
-806 -34 -49 0
-806 -34 -51 0
-806 -34 -52 0
-806 -34 -53 0
-806 -34 -71 0
-806 -34 -72 0
-806 -34 -73 0
-806 -34 -75 0
-806 -34 -76 0
-806 -34 -77 0
-806 -34 -107 0
-806 -34 -108 0
-806 -34 -109 0
-806 -34 -111 0
-806 -34 -112 0
-806 -34 -113 0
-806 -34 -115 0
-806 -34 -116 0
-806 -34 -117 0
-806 -34 -119 0
-806 -34 -120 0
-806 -34 -121 0
-806 -35 177 0
-806 -35 -23 -28 0
-806 -35 -48 0
-806 -35 -49 0
-806 -35 -52 0
-806 -35 -53 0
-806 -35 -72 0
-806 -35 -73 0
-806 -35 -76 0
-806 -35 -77 0
-806 -35 -108 0
-806 -35 -109 0
-806 -35 -112 0
-806 -35 -113 0
-806 -35 -116 0
-806 -35 -117 0
-806 -35 -120 0
-806 -35 -121 0
-806 -36 178 0
-806 -36 -23 -29 0
-806 -36 -49 0
-806 -36 -53 0
-806 -36 -73 0
-806 -36 -77 0
-806 -36 -109 0
-806 -36 -113 0
-806 -36 -117 0
-806 -36 -121 0
-807 148 0
-807 173 0
-807 -30 0
-807 -37 0
-807 -34 176 0
-807 -34 -24 -27 0
-807 -34 -51 0
-807 -34 -52 0
-807 -34 -53 0
-807 -34 -55 0
-807 -34 -56 0
-807 -34 -57 0
-807 -34 -75 0
-807 -34 -76 0
-807 -34 -77 0
-807 -34 -79 0
-807 -34 -80 0
-807 -34 -81 0
-807 -34 -111 0
-807 -34 -112 0
-807 -34 -113 0
-807 -34 -115 0
-807 -34 -116 0
-807 -34 -117 0
-807 -34 -119 0
-807 -34 -120 0
-807 -34 -121 0
-807 -35 177 0
-807 -35 -24 -28 0
-807 -35 -52 0
-807 -35 -53 0
-807 -35 -56 0
-807 -35 -57 0
-807 -35 -76 0
-807 -35 -77 0
-807 -35 -80 0
-807 -35 -81 0
-807 -35 -112 0
-807 -35 -113 0
-807 -35 -116 0
-807 -35 -117 0
-807 -35 -120 0
-807 -35 -121 0
-807 -36 178 0
-807 -36 -24 -29 0
-807 -36 -53 0
-807 -36 -57 0
-807 -36 -77 0
-807 -36 -81 0
-807 -36 -113 0
-807 -36 -117 0
-807 -36 -121 0
-808 148 0
-808 174 0
-808 -30 0
-808 -31 0
-808 -37 0
-808 -34 176 0
-808 -34 -25 -27 0
-808 -34 -55 0
-808 -34 -56 0
-808 -34 -57 0
-808 -34 -59 0
-808 -34 -60 0
-808 -34 -61 0
-808 -34 -79 0
-808 -34 -80 0
-808 -34 -81 0
-808 -34 -83 0
-808 -34 -84 0
-808 -34 -85 0
-808 -34 -115 0
-808 -34 -116 0
-808 -34 -117 0
-808 -34 -119 0
-808 -34 -120 0
-808 -34 -121 0
-808 -35 177 0
-808 -35 -25 -28 0
-808 -35 -56 0
-808 -35 -57 0
-808 -35 -60 0
-808 -35 -61 0
-808 -35 -80 0
-808 -35 -81 0
-808 -35 -84 0
-808 -35 -85 0
-808 -35 -116 0
-808 -35 -117 0
-808 -35 -120 0
-808 -35 -121 0
-808 -36 178 0
-808 -36 -25 -29 0
-808 -36 -57 0
-808 -36 -61 0
-808 -36 -81 0
-808 -36 -85 0
-808 -36 -117 0
-808 -36 -121 0
-809 148 0
-809 170 0
-809 175 0
-809 -21 -26 0
-809 -38 0
-809 -39 0
-809 -40 0
-809 -41 0
-809 -42 0
-809 -43 0
-809 -44 0
-809 -45 0
-809 -62 0
-809 -63 0
-809 -64 0
-809 -65 0
-809 -66 0
-809 -67 0
-809 -68 0
-809 -69 0
-809 -106 0
-809 -107 0
-809 -108 0
-809 -109 0
-809 -110 0
-809 -111 0
-809 -112 0
-809 -113 0
-810 148 0
-810 171 0
-810 175 0
-810 -22 -26 0
-810 -42 0
-810 -43 0
-810 -44 0
-810 -45 0
-810 -46 0
-810 -47 0
-810 -48 0
-810 -49 0
-810 -66 0
-810 -67 0
-810 -68 0
-810 -69 0
-810 -70 0
-810 -71 0
-810 -72 0
-810 -73 0
-810 -106 0
-810 -107 0
-810 -108 0
-810 -109 0
-810 -110 0
-810 -111 0
-810 -112 0
-810 -113 0
-810 -114 0
-810 -115 0
-810 -116 0
-810 -117 0
-811 148 0
-811 172 0
-811 175 0
-811 -23 -26 0
-811 -46 0
-811 -47 0
-811 -48 0
-811 -49 0
-811 -50 0
-811 -51 0
-811 -52 0
-811 -53 0
-811 -70 0
-811 -71 0
-811 -72 0
-811 -73 0
-811 -74 0
-811 -75 0
-811 -76 0
-811 -77 0
-811 -106 0
-811 -107 0
-811 -108 0
-811 -109 0
-811 -110 0
-811 -111 0
-811 -112 0
-811 -113 0
-811 -114 0
-811 -115 0
-811 -116 0
-811 -117 0
-811 -118 0
-811 -119 0
-811 -120 0
-811 -121 0
-812 148 0
-812 173 0
-812 175 0
-812 -24 -26 0
-812 -50 0
-812 -51 0
-812 -52 0
-812 -53 0
-812 -54 0
-812 -55 0
-812 -56 0
-812 -57 0
-812 -74 0
-812 -75 0
-812 -76 0
-812 -77 0
-812 -78 0
-812 -79 0
-812 -80 0
-812 -81 0
-812 -110 0
-812 -111 0
-812 -112 0
-812 -113 0
-812 -114 0
-812 -115 0
-812 -116 0
-812 -117 0
-812 -118 0
-812 -119 0
-812 -120 0
-812 -121 0
-813 148 0
-813 174 0
-813 175 0
-813 -25 -26 0
-813 -54 0
-813 -55 0
-813 -56 0
-813 -57 0
-813 -58 0
-813 -59 0
-813 -60 0
-813 -61 0
-813 -78 0
-813 -79 0
-813 -80 0
-813 -81 0
-813 -82 0
-813 -83 0
-813 -84 0
-813 -85 0
-813 -114 0
-813 -115 0
-813 -116 0
-813 -117 0
-813 -118 0
-813 -119 0
-813 -120 0
-813 -121 0
-814 149 0
-814 179 0
-814 -4 0
-814 -5 0
-814 -6 0
-814 -10 0
-814 -7 184 0
-814 -7 -30 -35 0
-814 -7 -39 0
-814 -7 -40 0
-814 -7 -41 0
-814 -7 -43 0
-814 -7 -44 0
-814 -7 -45 0
-814 -7 -47 0
-814 -7 -48 0
-814 -7 -49 0
-814 -7 -63 0
-814 -7 -64 0
-814 -7 -65 0
-814 -7 -67 0
-814 -7 -68 0
-814 -7 -69 0
-814 -7 -71 0
-814 -7 -72 0
-814 -7 -73 0
-814 -7 -87 0
-814 -7 -88 0
-814 -7 -89 0
-814 -7 -91 0
-814 -7 -92 0
-814 -7 -93 0
-814 -7 -95 0
-814 -7 -96 0
-814 -7 -97 0
-814 -8 185 0
-814 -8 -30 -36 0
-814 -8 -40 0
-814 -8 -41 0
-814 -8 -44 0
-814 -8 -45 0
-814 -8 -48 0
-814 -8 -49 0
-814 -8 -64 0
-814 -8 -65 0
-814 -8 -68 0
-814 -8 -69 0
-814 -8 -72 0
-814 -8 -73 0
-814 -8 -88 0
-814 -8 -89 0
-814 -8 -92 0
-814 -8 -93 0
-814 -8 -96 0
-814 -8 -97 0
-814 -9 186 0
-814 -9 -30 -37 0
-814 -9 -41 0
-814 -9 -45 0
-814 -9 -49 0
-814 -9 -65 0
-814 -9 -69 0
-814 -9 -73 0
-814 -9 -89 0
-814 -9 -93 0
-814 -9 -97 0
-815 149 0
-815 180 0
-815 -1 0
-815 -5 0
-815 -6 0
-815 -10 0
-815 -7 184 0
-815 -7 -31 -35 0
-815 -7 -43 0
-815 -7 -44 0
-815 -7 -45 0
-815 -7 -47 0
-815 -7 -48 0
-815 -7 -49 0
-815 -7 -51 0
-815 -7 -52 0
-815 -7 -53 0
-815 -7 -67 0
-815 -7 -68 0
-815 -7 -69 0
-815 -7 -71 0
-815 -7 -72 0
-815 -7 -73 0
-815 -7 -75 0
-815 -7 -76 0
-815 -7 -77 0
-815 -7 -87 0
-815 -7 -88 0
-815 -7 -89 0
-815 -7 -91 0
-815 -7 -92 0
-815 -7 -93 0
-815 -7 -95 0
-815 -7 -96 0
-815 -7 -97 0
-815 -7 -99 0
-815 -7 -100 0
-815 -7 -101 0
-815 -8 185 0
-815 -8 -31 -36 0
-815 -8 -44 0
-815 -8 -45 0
-815 -8 -48 0
-815 -8 -49 0
-815 -8 -52 0
-815 -8 -53 0
-815 -8 -68 0
-815 -8 -69 0
-815 -8 -72 0
-815 -8 -73 0
-815 -8 -76 0
-815 -8 -77 0
-815 -8 -88 0
-815 -8 -89 0
-815 -8 -92 0
-815 -8 -93 0
-815 -8 -96 0
-815 -8 -97 0
-815 -8 -100 0
-815 -8 -101 0
-815 -9 186 0
-815 -9 -31 -37 0
-815 -9 -45 0
-815 -9 -49 0
-815 -9 -53 0
-815 -9 -69 0
-815 -9 -73 0
-815 -9 -77 0
-815 -9 -89 0
-815 -9 -93 0
-815 -9 -97 0
-815 -9 -101 0
-816 149 0
-816 181 0
-816 -1 0
-816 -2 0
-816 -6 0
-816 -10 0
-816 -7 184 0
-816 -7 -32 -35 0
-816 -7 -47 0
-816 -7 -48 0
-816 -7 -49 0
-816 -7 -51 0
-816 -7 -52 0
-816 -7 -53 0
-816 -7 -55 0
-816 -7 -56 0
-816 -7 -57 0
-816 -7 -71 0
-816 -7 -72 0
-816 -7 -73 0
-816 -7 -75 0
-816 -7 -76 0
-816 -7 -77 0
-816 -7 -79 0
-816 -7 -80 0
-816 -7 -81 0
-816 -7 -91 0
-816 -7 -92 0
-816 -7 -93 0
-816 -7 -95 0
-816 -7 -96 0
-816 -7 -97 0
-816 -7 -99 0
-816 -7 -100 0
-816 -7 -101 0
-816 -7 -103 0
-816 -7 -104 0
-816 -7 -105 0
-816 -8 185 0
-816 -8 -32 -36 0
-816 -8 -48 0
-816 -8 -49 0
-816 -8 -52 0
-816 -8 -53 0
-816 -8 -56 0
-816 -8 -57 0
-816 -8 -72 0
-816 -8 -73 0
-816 -8 -76 0
-816 -8 -77 0
-816 -8 -80 0
-816 -8 -81 0
-816 -8 -92 0
-816 -8 -93 0
-816 -8 -96 0
-816 -8 -97 0
-816 -8 -100 0
-816 -8 -101 0
-816 -8 -104 0
-816 -8 -105 0
-816 -9 186 0
-816 -9 -32 -37 0
-816 -9 -49 0
-816 -9 -53 0
-816 -9 -57 0
-816 -9 -73 0
-816 -9 -77 0
-816 -9 -81 0
-816 -9 -93 0
-816 -9 -97 0
-816 -9 -101 0
-816 -9 -105 0
-817 149 0
-817 182 0
-817 -1 0
-817 -2 0
-817 -3 0
-817 -10 0
-817 -7 184 0
-817 -7 -33 -35 0
-817 -7 -51 0
-817 -7 -52 0
-817 -7 -53 0
-817 -7 -55 0
-817 -7 -56 0
-817 -7 -57 0
-817 -7 -59 0
-817 -7 -60 0
-817 -7 -61 0
-817 -7 -75 0
-817 -7 -76 0
-817 -7 -77 0
-817 -7 -79 0
-817 -7 -80 0
-817 -7 -81 0
-817 -7 -83 0
-817 -7 -84 0
-817 -7 -85 0
-817 -7 -95 0
-817 -7 -96 0
-817 -7 -97 0
-817 -7 -99 0
-817 -7 -100 0
-817 -7 -101 0
-817 -7 -103 0
-817 -7 -104 0
-817 -7 -105 0
-817 -8 185 0
-817 -8 -33 -36 0
-817 -8 -52 0
-817 -8 -53 0
-817 -8 -56 0
-817 -8 -57 0
-817 -8 -60 0
-817 -8 -61 0
-817 -8 -76 0
-817 -8 -77 0
-817 -8 -80 0
-817 -8 -81 0
-817 -8 -84 0
-817 -8 -85 0
-817 -8 -96 0
-817 -8 -97 0
-817 -8 -100 0
-817 -8 -101 0
-817 -8 -104 0
-817 -8 -105 0
-817 -9 186 0
-817 -9 -33 -37 0
-817 -9 -53 0
-817 -9 -57 0
-817 -9 -61 0
-817 -9 -77 0
-817 -9 -81 0
-817 -9 -85 0
-817 -9 -97 0
-817 -9 -101 0
-817 -9 -105 0
-818 149 0
-818 179 0
-818 -14 0
-818 -15 0
-818 -16 0
-818 -20 0
-818 -17 184 0
-818 -17 -30 -35 0
-818 -17 -39 0
-818 -17 -40 0
-818 -17 -41 0
-818 -17 -43 0
-818 -17 -44 0
-818 -17 -45 0
-818 -17 -47 0
-818 -17 -48 0
-818 -17 -49 0
-818 -17 -63 0
-818 -17 -64 0
-818 -17 -65 0
-818 -17 -67 0
-818 -17 -68 0
-818 -17 -69 0
-818 -17 -71 0
-818 -17 -72 0
-818 -17 -73 0
-818 -17 -87 0
-818 -17 -88 0
-818 -17 -89 0
-818 -17 -91 0
-818 -17 -92 0
-818 -17 -93 0
-818 -17 -95 0
-818 -17 -96 0
-818 -17 -97 0
-818 -18 185 0
-818 -18 -30 -36 0
-818 -18 -40 0
-818 -18 -41 0
-818 -18 -44 0
-818 -18 -45 0
-818 -18 -48 0
-818 -18 -49 0
-818 -18 -64 0
-818 -18 -65 0
-818 -18 -68 0
-818 -18 -69 0
-818 -18 -72 0
-818 -18 -73 0
-818 -18 -88 0
-818 -18 -89 0
-818 -18 -92 0
-818 -18 -93 0
-818 -18 -96 0
-818 -18 -97 0
-818 -19 186 0
-818 -19 -30 -37 0
-818 -19 -41 0
-818 -19 -45 0
-818 -19 -49 0
-818 -19 -65 0
-818 -19 -69 0
-818 -19 -73 0
-818 -19 -89 0
-818 -19 -93 0
-818 -19 -97 0
-819 149 0
-819 180 0
-819 -11 0
-819 -15 0
-819 -16 0
-819 -20 0
-819 -17 184 0
-819 -17 -31 -35 0
-819 -17 -43 0
-819 -17 -44 0
-819 -17 -45 0
-819 -17 -47 0
-819 -17 -48 0
-819 -17 -49 0
-819 -17 -51 0
-819 -17 -52 0
-819 -17 -53 0
-819 -17 -67 0
-819 -17 -68 0
-819 -17 -69 0
-819 -17 -71 0
-819 -17 -72 0
-819 -17 -73 0
-819 -17 -75 0
-819 -17 -76 0
-819 -17 -77 0
-819 -17 -87 0
-819 -17 -88 0
-819 -17 -89 0
-819 -17 -91 0
-819 -17 -92 0
-819 -17 -93 0
-819 -17 -95 0
-819 -17 -96 0
-819 -17 -97 0
-819 -17 -99 0
-819 -17 -100 0
-819 -17 -101 0
-819 -18 185 0
-819 -18 -31 -36 0
-819 -18 -44 0
-819 -18 -45 0
-819 -18 -48 0
-819 -18 -49 0
-819 -18 -52 0
-819 -18 -53 0
-819 -18 -68 0
-819 -18 -69 0
-819 -18 -72 0
-819 -18 -73 0
-819 -18 -76 0
-819 -18 -77 0
-819 -18 -88 0
-819 -18 -89 0
-819 -18 -92 0
-819 -18 -93 0
-819 -18 -96 0
-819 -18 -97 0
-819 -18 -100 0
-819 -18 -101 0
-819 -19 186 0
-819 -19 -31 -37 0
-819 -19 -45 0
-819 -19 -49 0
-819 -19 -53 0
-819 -19 -69 0
-819 -19 -73 0
-819 -19 -77 0
-819 -19 -89 0
-819 -19 -93 0
-819 -19 -97 0
-819 -19 -101 0
-820 149 0
-820 181 0
-820 -11 0
-820 -12 0
-820 -16 0
-820 -20 0
-820 -17 184 0
-820 -17 -32 -35 0
-820 -17 -47 0
-820 -17 -48 0
-820 -17 -49 0
-820 -17 -51 0
-820 -17 -52 0
-820 -17 -53 0
-820 -17 -55 0
-820 -17 -56 0
-820 -17 -57 0
-820 -17 -71 0
-820 -17 -72 0
-820 -17 -73 0
-820 -17 -75 0
-820 -17 -76 0
-820 -17 -77 0
-820 -17 -79 0
-820 -17 -80 0
-820 -17 -81 0
-820 -17 -91 0
-820 -17 -92 0
-820 -17 -93 0
-820 -17 -95 0
-820 -17 -96 0
-820 -17 -97 0
-820 -17 -99 0
-820 -17 -100 0
-820 -17 -101 0
-820 -17 -103 0
-820 -17 -104 0
-820 -17 -105 0
-820 -18 185 0
-820 -18 -32 -36 0
-820 -18 -48 0
-820 -18 -49 0
-820 -18 -52 0
-820 -18 -53 0
-820 -18 -56 0
-820 -18 -57 0
-820 -18 -72 0
-820 -18 -73 0
-820 -18 -76 0
-820 -18 -77 0
-820 -18 -80 0
-820 -18 -81 0
-820 -18 -92 0
-820 -18 -93 0
-820 -18 -96 0
-820 -18 -97 0
-820 -18 -100 0
-820 -18 -101 0
-820 -18 -104 0
-820 -18 -105 0
-820 -19 186 0
-820 -19 -32 -37 0
-820 -19 -49 0
-820 -19 -53 0
-820 -19 -57 0
-820 -19 -73 0
-820 -19 -77 0
-820 -19 -81 0
-820 -19 -93 0
-820 -19 -97 0
-820 -19 -101 0
-820 -19 -105 0
-821 149 0
-821 182 0
-821 -11 0
-821 -12 0
-821 -13 0
-821 -20 0
-821 -17 184 0
-821 -17 -33 -35 0
-821 -17 -51 0
-821 -17 -52 0
-821 -17 -53 0
-821 -17 -55 0
-821 -17 -56 0
-821 -17 -57 0
-821 -17 -59 0
-821 -17 -60 0
-821 -17 -61 0
-821 -17 -75 0
-821 -17 -76 0
-821 -17 -77 0
-821 -17 -79 0
-821 -17 -80 0
-821 -17 -81 0
-821 -17 -83 0
-821 -17 -84 0
-821 -17 -85 0
-821 -17 -95 0
-821 -17 -96 0
-821 -17 -97 0
-821 -17 -99 0
-821 -17 -100 0
-821 -17 -101 0
-821 -17 -103 0
-821 -17 -104 0
-821 -17 -105 0
-821 -18 185 0
-821 -18 -33 -36 0
-821 -18 -52 0
-821 -18 -53 0
-821 -18 -56 0
-821 -18 -57 0
-821 -18 -60 0
-821 -18 -61 0
-821 -18 -76 0
-821 -18 -77 0
-821 -18 -80 0
-821 -18 -81 0
-821 -18 -84 0
-821 -18 -85 0
-821 -18 -96 0
-821 -18 -97 0
-821 -18 -100 0
-821 -18 -101 0
-821 -18 -104 0
-821 -18 -105 0
-821 -19 186 0
-821 -19 -33 -37 0
-821 -19 -53 0
-821 -19 -57 0
-821 -19 -61 0
-821 -19 -77 0
-821 -19 -81 0
-821 -19 -85 0
-821 -19 -97 0
-821 -19 -101 0
-821 -19 -105 0
-822 149 0
-822 179 0
-822 -24 0
-822 -25 0
-822 -29 0
-822 -26 184 0
-822 -26 -30 -35 0
-822 -26 -39 0
-822 -26 -40 0
-822 -26 -41 0
-822 -26 -43 0
-822 -26 -44 0
-822 -26 -45 0
-822 -26 -47 0
-822 -26 -48 0
-822 -26 -49 0
-822 -26 -63 0
-822 -26 -64 0
-822 -26 -65 0
-822 -26 -67 0
-822 -26 -68 0
-822 -26 -69 0
-822 -26 -71 0
-822 -26 -72 0
-822 -26 -73 0
-822 -26 -87 0
-822 -26 -88 0
-822 -26 -89 0
-822 -26 -91 0
-822 -26 -92 0
-822 -26 -93 0
-822 -26 -95 0
-822 -26 -96 0
-822 -26 -97 0
-822 -27 185 0
-822 -27 -30 -36 0
-822 -27 -40 0
-822 -27 -41 0
-822 -27 -44 0
-822 -27 -45 0
-822 -27 -48 0
-822 -27 -49 0
-822 -27 -64 0
-822 -27 -65 0
-822 -27 -68 0
-822 -27 -69 0
-822 -27 -72 0
-822 -27 -73 0
-822 -27 -88 0
-822 -27 -89 0
-822 -27 -92 0
-822 -27 -93 0
-822 -27 -96 0
-822 -27 -97 0
-822 -28 186 0
-822 -28 -30 -37 0
-822 -28 -41 0
-822 -28 -45 0
-822 -28 -49 0
-822 -28 -65 0
-822 -28 -69 0
-822 -28 -73 0
-822 -28 -89 0
-822 -28 -93 0
-822 -28 -97 0
-823 149 0
-823 180 0
-823 -25 0
-823 -29 0
-823 -26 184 0
-823 -26 -31 -35 0
-823 -26 -43 0
-823 -26 -44 0
-823 -26 -45 0
-823 -26 -47 0
-823 -26 -48 0
-823 -26 -49 0
-823 -26 -51 0
-823 -26 -52 0
-823 -26 -53 0
-823 -26 -67 0
-823 -26 -68 0
-823 -26 -69 0
-823 -26 -71 0
-823 -26 -72 0
-823 -26 -73 0
-823 -26 -75 0
-823 -26 -76 0
-823 -26 -77 0
-823 -26 -87 0
-823 -26 -88 0
-823 -26 -89 0
-823 -26 -91 0
-823 -26 -92 0
-823 -26 -93 0
-823 -26 -95 0
-823 -26 -96 0
-823 -26 -97 0
-823 -26 -99 0
-823 -26 -100 0
-823 -26 -101 0
-823 -27 185 0
-823 -27 -31 -36 0
-823 -27 -44 0
-823 -27 -45 0
-823 -27 -48 0
-823 -27 -49 0
-823 -27 -52 0
-823 -27 -53 0
-823 -27 -68 0
-823 -27 -69 0
-823 -27 -72 0
-823 -27 -73 0
-823 -27 -76 0
-823 -27 -77 0
-823 -27 -88 0
-823 -27 -89 0
-823 -27 -92 0
-823 -27 -93 0
-823 -27 -96 0
-823 -27 -97 0
-823 -27 -100 0
-823 -27 -101 0
-823 -28 186 0
-823 -28 -31 -37 0
-823 -28 -45 0
-823 -28 -49 0
-823 -28 -53 0
-823 -28 -69 0
-823 -28 -73 0
-823 -28 -77 0
-823 -28 -89 0
-823 -28 -93 0
-823 -28 -97 0
-823 -28 -101 0
-824 149 0
-824 181 0
-824 -21 0
-824 -29 0
-824 -26 184 0
-824 -26 -32 -35 0
-824 -26 -47 0
-824 -26 -48 0
-824 -26 -49 0
-824 -26 -51 0
-824 -26 -52 0
-824 -26 -53 0
-824 -26 -55 0
-824 -26 -56 0
-824 -26 -57 0
-824 -26 -71 0
-824 -26 -72 0
-824 -26 -73 0
-824 -26 -75 0
-824 -26 -76 0
-824 -26 -77 0
-824 -26 -79 0
-824 -26 -80 0
-824 -26 -81 0
-824 -26 -91 0
-824 -26 -92 0
-824 -26 -93 0
-824 -26 -95 0
-824 -26 -96 0
-824 -26 -97 0
-824 -26 -99 0
-824 -26 -100 0
-824 -26 -101 0
-824 -26 -103 0
-824 -26 -104 0
-824 -26 -105 0
-824 -27 185 0
-824 -27 -32 -36 0
-824 -27 -48 0
-824 -27 -49 0
-824 -27 -52 0
-824 -27 -53 0
-824 -27 -56 0
-824 -27 -57 0
-824 -27 -72 0
-824 -27 -73 0
-824 -27 -76 0
-824 -27 -77 0
-824 -27 -80 0
-824 -27 -81 0
-824 -27 -92 0
-824 -27 -93 0
-824 -27 -96 0
-824 -27 -97 0
-824 -27 -100 0
-824 -27 -101 0
-824 -27 -104 0
-824 -27 -105 0
-824 -28 186 0
-824 -28 -32 -37 0
-824 -28 -49 0
-824 -28 -53 0
-824 -28 -57 0
-824 -28 -73 0
-824 -28 -77 0
-824 -28 -81 0
-824 -28 -93 0
-824 -28 -97 0
-824 -28 -101 0
-824 -28 -105 0
-825 149 0
-825 182 0
-825 -21 0
-825 -22 0
-825 -29 0
-825 -26 184 0
-825 -26 -33 -35 0
-825 -26 -51 0
-825 -26 -52 0
-825 -26 -53 0
-825 -26 -55 0
-825 -26 -56 0
-825 -26 -57 0
-825 -26 -59 0
-825 -26 -60 0
-825 -26 -61 0
-825 -26 -75 0
-825 -26 -76 0
-825 -26 -77 0
-825 -26 -79 0
-825 -26 -80 0
-825 -26 -81 0
-825 -26 -83 0
-825 -26 -84 0
-825 -26 -85 0
-825 -26 -95 0
-825 -26 -96 0
-825 -26 -97 0
-825 -26 -99 0
-825 -26 -100 0
-825 -26 -101 0
-825 -26 -103 0
-825 -26 -104 0
-825 -26 -105 0
-825 -27 185 0
-825 -27 -33 -36 0
-825 -27 -52 0
-825 -27 -53 0
-825 -27 -56 0
-825 -27 -57 0
-825 -27 -60 0
-825 -27 -61 0
-825 -27 -76 0
-825 -27 -77 0
-825 -27 -80 0
-825 -27 -81 0
-825 -27 -84 0
-825 -27 -85 0
-825 -27 -96 0
-825 -27 -97 0
-825 -27 -100 0
-825 -27 -101 0
-825 -27 -104 0
-825 -27 -105 0
-825 -28 186 0
-825 -28 -33 -37 0
-825 -28 -53 0
-825 -28 -57 0
-825 -28 -61 0
-825 -28 -77 0
-825 -28 -81 0
-825 -28 -85 0
-825 -28 -97 0
-825 -28 -101 0
-825 -28 -105 0
-826 149 0
-826 179 0
-826 183 0
-826 -30 -34 0
-826 -38 0
-826 -39 0
-826 -40 0
-826 -41 0
-826 -42 0
-826 -43 0
-826 -44 0
-826 -45 0
-826 -46 0
-826 -47 0
-826 -48 0
-826 -49 0
-826 -62 0
-826 -63 0
-826 -64 0
-826 -65 0
-826 -66 0
-826 -67 0
-826 -68 0
-826 -69 0
-826 -70 0
-826 -71 0
-826 -72 0
-826 -73 0
-826 -86 0
-826 -87 0
-826 -88 0
-826 -89 0
-826 -90 0
-826 -91 0
-826 -92 0
-826 -93 0
-826 -94 0
-826 -95 0
-826 -96 0
-826 -97 0
-827 149 0
-827 180 0
-827 183 0
-827 -31 -34 0
-827 -42 0
-827 -43 0
-827 -44 0
-827 -45 0
-827 -46 0
-827 -47 0
-827 -48 0
-827 -49 0
-827 -50 0
-827 -51 0
-827 -52 0
-827 -53 0
-827 -66 0
-827 -67 0
-827 -68 0
-827 -69 0
-827 -70 0
-827 -71 0
-827 -72 0
-827 -73 0
-827 -74 0
-827 -75 0
-827 -76 0
-827 -77 0
-827 -86 0
-827 -87 0
-827 -88 0
-827 -89 0
-827 -90 0
-827 -91 0
-827 -92 0
-827 -93 0
-827 -94 0
-827 -95 0
-827 -96 0
-827 -97 0
-827 -98 0
-827 -99 0
-827 -100 0
-827 -101 0
-828 149 0
-828 181 0
-828 183 0
-828 -32 -34 0
-828 -46 0
-828 -47 0
-828 -48 0
-828 -49 0
-828 -50 0
-828 -51 0
-828 -52 0
-828 -53 0
-828 -54 0
-828 -55 0
-828 -56 0
-828 -57 0
-828 -70 0
-828 -71 0
-828 -72 0
-828 -73 0
-828 -74 0
-828 -75 0
-828 -76 0
-828 -77 0
-828 -78 0
-828 -79 0
-828 -80 0
-828 -81 0
-828 -90 0
-828 -91 0
-828 -92 0
-828 -93 0
-828 -94 0
-828 -95 0
-828 -96 0
-828 -97 0
-828 -98 0
-828 -99 0
-828 -100 0
-828 -101 0
-828 -102 0
-828 -103 0
-828 -104 0
-828 -105 0
-829 149 0
-829 182 0
-829 183 0
-829 -33 -34 0
-829 -50 0
-829 -51 0
-829 -52 0
-829 -53 0
-829 -54 0
-829 -55 0
-829 -56 0
-829 -57 0
-829 -58 0
-829 -59 0
-829 -60 0
-829 -61 0
-829 -74 0
-829 -75 0
-829 -76 0
-829 -77 0
-829 -78 0
-829 -79 0
-829 -80 0
-829 -81 0
-829 -82 0
-829 -83 0
-829 -84 0
-829 -85 0
-829 -94 0
-829 -95 0
-829 -96 0
-829 -97 0
-829 -98 0
-829 -99 0
-829 -100 0
-829 -101 0
-829 -102 0
-829 -103 0
-829 -104 0
-829 -105 0
834 835 836 837 838 839 840 841 842 843 844 845 846 847 848 849 850 851 852 853 854 855 856 857 858 859 860 861 862 863 864 865 866 867 868 869 870 871 872 873 874 875 876 877 878 879 880 881 882 883 884 885 886 887 888 889 890 891 892 893 894 895 896 897 898 899 900 901 902 903 904 905 906 907 908 909 910 911 912 913 914 915 916 917 0
-834 -835 0
-834 -836 0
-834 -837 0
-834 -838 0
-834 -839 0
-834 -840 0
-834 -841 0
-834 -842 0
-834 -843 0
-834 -844 0
-834 -845 0
-834 -846 0
-834 -847 0
-834 -848 0
-834 -849 0
-834 -850 0
-834 -851 0
-834 -852 0
-834 -853 0
-834 -854 0
-834 -855 0
-834 -856 0
-834 -857 0
-834 -858 0
-834 -859 0
-834 -860 0
-834 -861 0
-834 -862 0
-834 -863 0
-834 -864 0
-834 -865 0
-834 -866 0
-834 -867 0
-834 -868 0
-834 -869 0
-834 -870 0
-834 -871 0
-834 -872 0
-834 -873 0
-834 -874 0
-834 -875 0
-834 -876 0
-834 -877 0
-834 -878 0
-834 -879 0
-834 -880 0
-834 -881 0
-834 -882 0
-834 -883 0
-834 -884 0
-834 -885 0
-834 -886 0
-834 -887 0
-834 -888 0
-834 -889 0
-834 -890 0
-834 -891 0
-834 -892 0
-834 -893 0
-834 -894 0
-834 -895 0
-834 -896 0
-834 -897 0
-834 -898 0
-834 -899 0
-834 -900 0
-834 -901 0
-834 -902 0
-834 -903 0
-834 -904 0
-834 -905 0
-834 -906 0
-834 -907 0
-834 -908 0
-834 -909 0
-834 -910 0
-834 -911 0
-834 -912 0
-834 -913 0
-834 -914 0
-834 -915 0
-834 -916 0
-834 -917 0
-835 -836 0
-835 -837 0
-835 -838 0
-835 -839 0
-835 -840 0
-835 -841 0
-835 -842 0
-835 -843 0
-835 -844 0
-835 -845 0
-835 -846 0
-835 -847 0
-835 -848 0
-835 -849 0
-835 -850 0
-835 -851 0
-835 -852 0
-835 -853 0
-835 -854 0
-835 -855 0
-835 -856 0
-835 -857 0
-835 -858 0
-835 -859 0
-835 -860 0
-835 -861 0
-835 -862 0
-835 -863 0
-835 -864 0
-835 -865 0
-835 -866 0
-835 -867 0
-835 -868 0
-835 -869 0
-835 -870 0
-835 -871 0
-835 -872 0
-835 -873 0
-835 -874 0
-835 -875 0
-835 -876 0
-835 -877 0
-835 -878 0
-835 -879 0
-835 -880 0
-835 -881 0
-835 -882 0
-835 -883 0
-835 -884 0
-835 -885 0
-835 -886 0
-835 -887 0
-835 -888 0
-835 -889 0
-835 -890 0
-835 -891 0
-835 -892 0
-835 -893 0
-835 -894 0
-835 -895 0
-835 -896 0
-835 -897 0
-835 -898 0
-835 -899 0
-835 -900 0
-835 -901 0
-835 -902 0
-835 -903 0
-835 -904 0
-835 -905 0
-835 -906 0
-835 -907 0
-835 -908 0
-835 -909 0
-835 -910 0
-835 -911 0
-835 -912 0
-835 -913 0
-835 -914 0
-835 -915 0
-835 -916 0
-835 -917 0
-836 -837 0
-836 -838 0
-836 -839 0
-836 -840 0
-836 -841 0
-836 -842 0
-836 -843 0
-836 -844 0
-836 -845 0
-836 -846 0
-836 -847 0
-836 -848 0
-836 -849 0
-836 -850 0
-836 -851 0
-836 -852 0
-836 -853 0
-836 -854 0
-836 -855 0
-836 -856 0
-836 -857 0
-836 -858 0
-836 -859 0
-836 -860 0
-836 -861 0
-836 -862 0
-836 -863 0
-836 -864 0
-836 -865 0
-836 -866 0
-836 -867 0
-836 -868 0
-836 -869 0
-836 -870 0
-836 -871 0
-836 -872 0
-836 -873 0
-836 -874 0
-836 -875 0
-836 -876 0
-836 -877 0
-836 -878 0
-836 -879 0
-836 -880 0
-836 -881 0
-836 -882 0
-836 -883 0
-836 -884 0
-836 -885 0
-836 -886 0
-836 -887 0
-836 -888 0
-836 -889 0
-836 -890 0
-836 -891 0
-836 -892 0
-836 -893 0
-836 -894 0
-836 -895 0
-836 -896 0
-836 -897 0
-836 -898 0
-836 -899 0
-836 -900 0
-836 -901 0
-836 -902 0
-836 -903 0
-836 -904 0
-836 -905 0
-836 -906 0
-836 -907 0
-836 -908 0
-836 -909 0
-836 -910 0
-836 -911 0
-836 -912 0
-836 -913 0
-836 -914 0
-836 -915 0
-836 -916 0
-836 -917 0
-837 -838 0
-837 -839 0
-837 -840 0
-837 -841 0
-837 -842 0
-837 -843 0
-837 -844 0
-837 -845 0
-837 -846 0
-837 -847 0
-837 -848 0
-837 -849 0
-837 -850 0
-837 -851 0
-837 -852 0
-837 -853 0
-837 -854 0
-837 -855 0
-837 -856 0
-837 -857 0
-837 -858 0
-837 -859 0
-837 -860 0
-837 -861 0
-837 -862 0
-837 -863 0
-837 -864 0
-837 -865 0
-837 -866 0
-837 -867 0
-837 -868 0
-837 -869 0
-837 -870 0
-837 -871 0
-837 -872 0
-837 -873 0
-837 -874 0
-837 -875 0
-837 -876 0
-837 -877 0
-837 -878 0
-837 -879 0
-837 -880 0
-837 -881 0
-837 -882 0
-837 -883 0
-837 -884 0
-837 -885 0
-837 -886 0
-837 -887 0
-837 -888 0
-837 -889 0
-837 -890 0
-837 -891 0
-837 -892 0
-837 -893 0
-837 -894 0
-837 -895 0
-837 -896 0
-837 -897 0
-837 -898 0
-837 -899 0
-837 -900 0
-837 -901 0
-837 -902 0
-837 -903 0
-837 -904 0
-837 -905 0
-837 -906 0
-837 -907 0
-837 -908 0
-837 -909 0
-837 -910 0
-837 -911 0
-837 -912 0
-837 -913 0
-837 -914 0
-837 -915 0
-837 -916 0
-837 -917 0
-838 -839 0
-838 -840 0
-838 -841 0
-838 -842 0
-838 -843 0
-838 -844 0
-838 -845 0
-838 -846 0
-838 -847 0
-838 -848 0
-838 -849 0
-838 -850 0
-838 -851 0
-838 -852 0
-838 -853 0
-838 -854 0
-838 -855 0
-838 -856 0
-838 -857 0
-838 -858 0
-838 -859 0
-838 -860 0
-838 -861 0
-838 -862 0
-838 -863 0
-838 -864 0
-838 -865 0
-838 -866 0
-838 -867 0
-838 -868 0
-838 -869 0
-838 -870 0
-838 -871 0
-838 -872 0
-838 -873 0
-838 -874 0
-838 -875 0
-838 -876 0
-838 -877 0
-838 -878 0
-838 -879 0
-838 -880 0
-838 -881 0
-838 -882 0
-838 -883 0
-838 -884 0
-838 -885 0
-838 -886 0
-838 -887 0
-838 -888 0
-838 -889 0
-838 -890 0
-838 -891 0
-838 -892 0
-838 -893 0
-838 -894 0
-838 -895 0
-838 -896 0
-838 -897 0
-838 -898 0
-838 -899 0
-838 -900 0
-838 -901 0
-838 -902 0
-838 -903 0
-838 -904 0
-838 -905 0
-838 -906 0
-838 -907 0
-838 -908 0
-838 -909 0
-838 -910 0
-838 -911 0
-838 -912 0
-838 -913 0
-838 -914 0
-838 -915 0
-838 -916 0
-838 -917 0
-839 -840 0
-839 -841 0
-839 -842 0
-839 -843 0
-839 -844 0
-839 -845 0
-839 -846 0
-839 -847 0
-839 -848 0
-839 -849 0
-839 -850 0
-839 -851 0
-839 -852 0
-839 -853 0
-839 -854 0
-839 -855 0
-839 -856 0
-839 -857 0
-839 -858 0
-839 -859 0
-839 -860 0
-839 -861 0
-839 -862 0
-839 -863 0
-839 -864 0
-839 -865 0
-839 -866 0
-839 -867 0
-839 -868 0
-839 -869 0
-839 -870 0
-839 -871 0
-839 -872 0
-839 -873 0
-839 -874 0
-839 -875 0
-839 -876 0
-839 -877 0
-839 -878 0
-839 -879 0
-839 -880 0
-839 -881 0
-839 -882 0
-839 -883 0
-839 -884 0
-839 -885 0
-839 -886 0
-839 -887 0
-839 -888 0
-839 -889 0
-839 -890 0
-839 -891 0
-839 -892 0
-839 -893 0
-839 -894 0
-839 -895 0
-839 -896 0
-839 -897 0
-839 -898 0
-839 -899 0
-839 -900 0
-839 -901 0
-839 -902 0
-839 -903 0
-839 -904 0
-839 -905 0
-839 -906 0
-839 -907 0
-839 -908 0
-839 -909 0
-839 -910 0
-839 -911 0
-839 -912 0
-839 -913 0
-839 -914 0
-839 -915 0
-839 -916 0
-839 -917 0
-840 -841 0
-840 -842 0
-840 -843 0
-840 -844 0
-840 -845 0
-840 -846 0
-840 -847 0
-840 -848 0
-840 -849 0
-840 -850 0
-840 -851 0
-840 -852 0
-840 -853 0
-840 -854 0
-840 -855 0
-840 -856 0
-840 -857 0
-840 -858 0
-840 -859 0
-840 -860 0
-840 -861 0
-840 -862 0
-840 -863 0
-840 -864 0
-840 -865 0
-840 -866 0
-840 -867 0
-840 -868 0
-840 -869 0
-840 -870 0
-840 -871 0
-840 -872 0
-840 -873 0
-840 -874 0
-840 -875 0
-840 -876 0
-840 -877 0
-840 -878 0
-840 -879 0
-840 -880 0
-840 -881 0
-840 -882 0
-840 -883 0
-840 -884 0
-840 -885 0
-840 -886 0
-840 -887 0
-840 -888 0
-840 -889 0
-840 -890 0
-840 -891 0
-840 -892 0
-840 -893 0
-840 -894 0
-840 -895 0
-840 -896 0
-840 -897 0
-840 -898 0
-840 -899 0
-840 -900 0
-840 -901 0
-840 -902 0
-840 -903 0
-840 -904 0
-840 -905 0
-840 -906 0
-840 -907 0
-840 -908 0
-840 -909 0
-840 -910 0
-840 -911 0
-840 -912 0
-840 -913 0
-840 -914 0
-840 -915 0
-840 -916 0
-840 -917 0
-841 -842 0
-841 -843 0
-841 -844 0
-841 -845 0
-841 -846 0
-841 -847 0
-841 -848 0
-841 -849 0
-841 -850 0
-841 -851 0
-841 -852 0
-841 -853 0
-841 -854 0
-841 -855 0
-841 -856 0
-841 -857 0
-841 -858 0
-841 -859 0
-841 -860 0
-841 -861 0
-841 -862 0
-841 -863 0
-841 -864 0
-841 -865 0
-841 -866 0
-841 -867 0
-841 -868 0
-841 -869 0
-841 -870 0
-841 -871 0
-841 -872 0
-841 -873 0
-841 -874 0
-841 -875 0
-841 -876 0
-841 -877 0
-841 -878 0
-841 -879 0
-841 -880 0
-841 -881 0
-841 -882 0
-841 -883 0
-841 -884 0
-841 -885 0
-841 -886 0
-841 -887 0
-841 -888 0
-841 -889 0
-841 -890 0
-841 -891 0
-841 -892 0
-841 -893 0
-841 -894 0
-841 -895 0
-841 -896 0
-841 -897 0
-841 -898 0
-841 -899 0
-841 -900 0
-841 -901 0
-841 -902 0
-841 -903 0
-841 -904 0
-841 -905 0
-841 -906 0
-841 -907 0
-841 -908 0
-841 -909 0
-841 -910 0
-841 -911 0
-841 -912 0
-841 -913 0
-841 -914 0
-841 -915 0
-841 -916 0
-841 -917 0
-842 -843 0
-842 -844 0
-842 -845 0
-842 -846 0
-842 -847 0
-842 -848 0
-842 -849 0
-842 -850 0
-842 -851 0
-842 -852 0
-842 -853 0
-842 -854 0
-842 -855 0
-842 -856 0
-842 -857 0
-842 -858 0
-842 -859 0
-842 -860 0
-842 -861 0
-842 -862 0
-842 -863 0
-842 -864 0
-842 -865 0
-842 -866 0
-842 -867 0
-842 -868 0
-842 -869 0
-842 -870 0
-842 -871 0
-842 -872 0
-842 -873 0
-842 -874 0
-842 -875 0
-842 -876 0
-842 -877 0
-842 -878 0
-842 -879 0
-842 -880 0
-842 -881 0
-842 -882 0
-842 -883 0
-842 -884 0
-842 -885 0
-842 -886 0
-842 -887 0
-842 -888 0
-842 -889 0
-842 -890 0
-842 -891 0
-842 -892 0
-842 -893 0
-842 -894 0
-842 -895 0
-842 -896 0
-842 -897 0
-842 -898 0
-842 -899 0
-842 -900 0
-842 -901 0
-842 -902 0
-842 -903 0
-842 -904 0
-842 -905 0
-842 -906 0
-842 -907 0
-842 -908 0
-842 -909 0
-842 -910 0
-842 -911 0
-842 -912 0
-842 -913 0
-842 -914 0
-842 -915 0
-842 -916 0
-842 -917 0
-843 -844 0
-843 -845 0
-843 -846 0
-843 -847 0
-843 -848 0
-843 -849 0
-843 -850 0
-843 -851 0
-843 -852 0
-843 -853 0
-843 -854 0
-843 -855 0
-843 -856 0
-843 -857 0
-843 -858 0
-843 -859 0
-843 -860 0
-843 -861 0
-843 -862 0
-843 -863 0
-843 -864 0
-843 -865 0
-843 -866 0
-843 -867 0
-843 -868 0
-843 -869 0
-843 -870 0
-843 -871 0
-843 -872 0
-843 -873 0
-843 -874 0
-843 -875 0
-843 -876 0
-843 -877 0
-843 -878 0
-843 -879 0
-843 -880 0
-843 -881 0
-843 -882 0
-843 -883 0
-843 -884 0
-843 -885 0
-843 -886 0
-843 -887 0
-843 -888 0
-843 -889 0
-843 -890 0
-843 -891 0
-843 -892 0
-843 -893 0
-843 -894 0
-843 -895 0
-843 -896 0
-843 -897 0
-843 -898 0
-843 -899 0
-843 -900 0
-843 -901 0
-843 -902 0
-843 -903 0
-843 -904 0
-843 -905 0
-843 -906 0
-843 -907 0
-843 -908 0
-843 -909 0
-843 -910 0
-843 -911 0
-843 -912 0
-843 -913 0
-843 -914 0
-843 -915 0
-843 -916 0
-843 -917 0
-844 -845 0
-844 -846 0
-844 -847 0
-844 -848 0
-844 -849 0
-844 -850 0
-844 -851 0
-844 -852 0
-844 -853 0
-844 -854 0
-844 -855 0
-844 -856 0
-844 -857 0
-844 -858 0
-844 -859 0
-844 -860 0
-844 -861 0
-844 -862 0
-844 -863 0
-844 -864 0
-844 -865 0
-844 -866 0
-844 -867 0
-844 -868 0
-844 -869 0
-844 -870 0
-844 -871 0
-844 -872 0
-844 -873 0
-844 -874 0
-844 -875 0
-844 -876 0
-844 -877 0
-844 -878 0
-844 -879 0
-844 -880 0
-844 -881 0
-844 -882 0
-844 -883 0
-844 -884 0
-844 -885 0
-844 -886 0
-844 -887 0
-844 -888 0
-844 -889 0
-844 -890 0
-844 -891 0
-844 -892 0
-844 -893 0
-844 -894 0
-844 -895 0
-844 -896 0
-844 -897 0
-844 -898 0
-844 -899 0
-844 -900 0
-844 -901 0
-844 -902 0
-844 -903 0
-844 -904 0
-844 -905 0
-844 -906 0
-844 -907 0
-844 -908 0
-844 -909 0
-844 -910 0
-844 -911 0
-844 -912 0
-844 -913 0
-844 -914 0
-844 -915 0
-844 -916 0
-844 -917 0
-845 -846 0
-845 -847 0
-845 -848 0
-845 -849 0
-845 -850 0
-845 -851 0
-845 -852 0
-845 -853 0
-845 -854 0
-845 -855 0
-845 -856 0
-845 -857 0
-845 -858 0
-845 -859 0
-845 -860 0
-845 -861 0
-845 -862 0
-845 -863 0
-845 -864 0
-845 -865 0
-845 -866 0
-845 -867 0
-845 -868 0
-845 -869 0
-845 -870 0
-845 -871 0
-845 -872 0
-845 -873 0
-845 -874 0
-845 -875 0
-845 -876 0
-845 -877 0
-845 -878 0
-845 -879 0
-845 -880 0
-845 -881 0
-845 -882 0
-845 -883 0
-845 -884 0
-845 -885 0
-845 -886 0
-845 -887 0
-845 -888 0
-845 -889 0
-845 -890 0
-845 -891 0
-845 -892 0
-845 -893 0
-845 -894 0
-845 -895 0
-845 -896 0
-845 -897 0
-845 -898 0
-845 -899 0
-845 -900 0
-845 -901 0
-845 -902 0
-845 -903 0
-845 -904 0
-845 -905 0
-845 -906 0
-845 -907 0
-845 -908 0
-845 -909 0
-845 -910 0
-845 -911 0
-845 -912 0
-845 -913 0
-845 -914 0
-845 -915 0
-845 -916 0
-845 -917 0
-846 -847 0
-846 -848 0
-846 -849 0
-846 -850 0
-846 -851 0
-846 -852 0
-846 -853 0
-846 -854 0
-846 -855 0
-846 -856 0
-846 -857 0
-846 -858 0
-846 -859 0
-846 -860 0
-846 -861 0
-846 -862 0
-846 -863 0
-846 -864 0
-846 -865 0
-846 -866 0
-846 -867 0
-846 -868 0
-846 -869 0
-846 -870 0
-846 -871 0
-846 -872 0
-846 -873 0
-846 -874 0
-846 -875 0
-846 -876 0
-846 -877 0
-846 -878 0
-846 -879 0
-846 -880 0
-846 -881 0
-846 -882 0
-846 -883 0
-846 -884 0
-846 -885 0
-846 -886 0
-846 -887 0
-846 -888 0
-846 -889 0
-846 -890 0
-846 -891 0
-846 -892 0
-846 -893 0
-846 -894 0
-846 -895 0
-846 -896 0
-846 -897 0
-846 -898 0
-846 -899 0
-846 -900 0
-846 -901 0
-846 -902 0
-846 -903 0
-846 -904 0
-846 -905 0
-846 -906 0
-846 -907 0
-846 -908 0
-846 -909 0
-846 -910 0
-846 -911 0
-846 -912 0
-846 -913 0
-846 -914 0
-846 -915 0
-846 -916 0
-846 -917 0
-847 -848 0
-847 -849 0
-847 -850 0
-847 -851 0
-847 -852 0
-847 -853 0
-847 -854 0
-847 -855 0
-847 -856 0
-847 -857 0
-847 -858 0
-847 -859 0
-847 -860 0
-847 -861 0
-847 -862 0
-847 -863 0
-847 -864 0
-847 -865 0
-847 -866 0
-847 -867 0
-847 -868 0
-847 -869 0
-847 -870 0
-847 -871 0
-847 -872 0
-847 -873 0
-847 -874 0
-847 -875 0
-847 -876 0
-847 -877 0
-847 -878 0
-847 -879 0
-847 -880 0
-847 -881 0
-847 -882 0
-847 -883 0
-847 -884 0
-847 -885 0
-847 -886 0
-847 -887 0
-847 -888 0
-847 -889 0
-847 -890 0
-847 -891 0
-847 -892 0
-847 -893 0
-847 -894 0
-847 -895 0
-847 -896 0
-847 -897 0
-847 -898 0
-847 -899 0
-847 -900 0
-847 -901 0
-847 -902 0
-847 -903 0
-847 -904 0
-847 -905 0
-847 -906 0
-847 -907 0
-847 -908 0
-847 -909 0
-847 -910 0
-847 -911 0
-847 -912 0
-847 -913 0
-847 -914 0
-847 -915 0
-847 -916 0
-847 -917 0
-848 -849 0
-848 -850 0
-848 -851 0
-848 -852 0
-848 -853 0
-848 -854 0
-848 -855 0
-848 -856 0
-848 -857 0
-848 -858 0
-848 -859 0
-848 -860 0
-848 -861 0
-848 -862 0
-848 -863 0
-848 -864 0
-848 -865 0
-848 -866 0
-848 -867 0
-848 -868 0
-848 -869 0
-848 -870 0
-848 -871 0
-848 -872 0
-848 -873 0
-848 -874 0
-848 -875 0
-848 -876 0
-848 -877 0
-848 -878 0
-848 -879 0
-848 -880 0
-848 -881 0
-848 -882 0
-848 -883 0
-848 -884 0
-848 -885 0
-848 -886 0
-848 -887 0
-848 -888 0
-848 -889 0
-848 -890 0
-848 -891 0
-848 -892 0
-848 -893 0
-848 -894 0
-848 -895 0
-848 -896 0
-848 -897 0
-848 -898 0
-848 -899 0
-848 -900 0
-848 -901 0
-848 -902 0
-848 -903 0
-848 -904 0
-848 -905 0
-848 -906 0
-848 -907 0
-848 -908 0
-848 -909 0
-848 -910 0
-848 -911 0
-848 -912 0
-848 -913 0
-848 -914 0
-848 -915 0
-848 -916 0
-848 -917 0
-849 -850 0
-849 -851 0
-849 -852 0
-849 -853 0
-849 -854 0
-849 -855 0
-849 -856 0
-849 -857 0
-849 -858 0
-849 -859 0
-849 -860 0
-849 -861 0
-849 -862 0
-849 -863 0
-849 -864 0
-849 -865 0
-849 -866 0
-849 -867 0
-849 -868 0
-849 -869 0
-849 -870 0
-849 -871 0
-849 -872 0
-849 -873 0
-849 -874 0
-849 -875 0
-849 -876 0
-849 -877 0
-849 -878 0
-849 -879 0
-849 -880 0
-849 -881 0
-849 -882 0
-849 -883 0
-849 -884 0
-849 -885 0
-849 -886 0
-849 -887 0
-849 -888 0
-849 -889 0
-849 -890 0
-849 -891 0
-849 -892 0
-849 -893 0
-849 -894 0
-849 -895 0
-849 -896 0
-849 -897 0
-849 -898 0
-849 -899 0
-849 -900 0
-849 -901 0
-849 -902 0
-849 -903 0
-849 -904 0
-849 -905 0
-849 -906 0
-849 -907 0
-849 -908 0
-849 -909 0
-849 -910 0
-849 -911 0
-849 -912 0
-849 -913 0
-849 -914 0
-849 -915 0
-849 -916 0
-849 -917 0
-850 -851 0
-850 -852 0
-850 -853 0
-850 -854 0
-850 -855 0
-850 -856 0
-850 -857 0
-850 -858 0
-850 -859 0
-850 -860 0
-850 -861 0
-850 -862 0
-850 -863 0
-850 -864 0
-850 -865 0
-850 -866 0
-850 -867 0
-850 -868 0
-850 -869 0
-850 -870 0
-850 -871 0
-850 -872 0
-850 -873 0
-850 -874 0
-850 -875 0
-850 -876 0
-850 -877 0
-850 -878 0
-850 -879 0
-850 -880 0
-850 -881 0
-850 -882 0
-850 -883 0
-850 -884 0
-850 -885 0
-850 -886 0
-850 -887 0
-850 -888 0
-850 -889 0
-850 -890 0
-850 -891 0
-850 -892 0
-850 -893 0
-850 -894 0
-850 -895 0
-850 -896 0
-850 -897 0
-850 -898 0
-850 -899 0
-850 -900 0
-850 -901 0
-850 -902 0
-850 -903 0
-850 -904 0
-850 -905 0
-850 -906 0
-850 -907 0
-850 -908 0
-850 -909 0
-850 -910 0
-850 -911 0
-850 -912 0
-850 -913 0
-850 -914 0
-850 -915 0
-850 -916 0
-850 -917 0
-851 -852 0
-851 -853 0
-851 -854 0
-851 -855 0
-851 -856 0
-851 -857 0
-851 -858 0
-851 -859 0
-851 -860 0
-851 -861 0
-851 -862 0
-851 -863 0
-851 -864 0
-851 -865 0
-851 -866 0
-851 -867 0
-851 -868 0
-851 -869 0
-851 -870 0
-851 -871 0
-851 -872 0
-851 -873 0
-851 -874 0
-851 -875 0
-851 -876 0
-851 -877 0
-851 -878 0
-851 -879 0
-851 -880 0
-851 -881 0
-851 -882 0
-851 -883 0
-851 -884 0
-851 -885 0
-851 -886 0
-851 -887 0
-851 -888 0
-851 -889 0
-851 -890 0
-851 -891 0
-851 -892 0
-851 -893 0
-851 -894 0
-851 -895 0
-851 -896 0
-851 -897 0
-851 -898 0
-851 -899 0
-851 -900 0
-851 -901 0
-851 -902 0
-851 -903 0
-851 -904 0
-851 -905 0
-851 -906 0
-851 -907 0
-851 -908 0
-851 -909 0
-851 -910 0
-851 -911 0
-851 -912 0
-851 -913 0
-851 -914 0
-851 -915 0
-851 -916 0
-851 -917 0
-852 -853 0
-852 -854 0
-852 -855 0
-852 -856 0
-852 -857 0
-852 -858 0
-852 -859 0
-852 -860 0
-852 -861 0
-852 -862 0
-852 -863 0
-852 -864 0
-852 -865 0
-852 -866 0
-852 -867 0
-852 -868 0
-852 -869 0
-852 -870 0
-852 -871 0
-852 -872 0
-852 -873 0
-852 -874 0
-852 -875 0
-852 -876 0
-852 -877 0
-852 -878 0
-852 -879 0
-852 -880 0
-852 -881 0
-852 -882 0
-852 -883 0
-852 -884 0
-852 -885 0
-852 -886 0
-852 -887 0
-852 -888 0
-852 -889 0
-852 -890 0
-852 -891 0
-852 -892 0
-852 -893 0
-852 -894 0
-852 -895 0
-852 -896 0
-852 -897 0
-852 -898 0
-852 -899 0
-852 -900 0
-852 -901 0
-852 -902 0
-852 -903 0
-852 -904 0
-852 -905 0
-852 -906 0
-852 -907 0
-852 -908 0
-852 -909 0
-852 -910 0
-852 -911 0
-852 -912 0
-852 -913 0
-852 -914 0
-852 -915 0
-852 -916 0
-852 -917 0
-853 -854 0
-853 -855 0
-853 -856 0
-853 -857 0
-853 -858 0
-853 -859 0
-853 -860 0
-853 -861 0
-853 -862 0
-853 -863 0
-853 -864 0
-853 -865 0
-853 -866 0
-853 -867 0
-853 -868 0
-853 -869 0
-853 -870 0
-853 -871 0
-853 -872 0
-853 -873 0
-853 -874 0
-853 -875 0
-853 -876 0
-853 -877 0
-853 -878 0
-853 -879 0
-853 -880 0
-853 -881 0
-853 -882 0
-853 -883 0
-853 -884 0
-853 -885 0
-853 -886 0
-853 -887 0
-853 -888 0
-853 -889 0
-853 -890 0
-853 -891 0
-853 -892 0
-853 -893 0
-853 -894 0
-853 -895 0
-853 -896 0
-853 -897 0
-853 -898 0
-853 -899 0
-853 -900 0
-853 -901 0
-853 -902 0
-853 -903 0
-853 -904 0
-853 -905 0
-853 -906 0
-853 -907 0
-853 -908 0
-853 -909 0
-853 -910 0
-853 -911 0
-853 -912 0
-853 -913 0
-853 -914 0
-853 -915 0
-853 -916 0
-853 -917 0
-854 -855 0
-854 -856 0
-854 -857 0
-854 -858 0
-854 -859 0
-854 -860 0
-854 -861 0
-854 -862 0
-854 -863 0
-854 -864 0
-854 -865 0
-854 -866 0
-854 -867 0
-854 -868 0
-854 -869 0
-854 -870 0
-854 -871 0
-854 -872 0
-854 -873 0
-854 -874 0
-854 -875 0
-854 -876 0
-854 -877 0
-854 -878 0
-854 -879 0
-854 -880 0
-854 -881 0
-854 -882 0
-854 -883 0
-854 -884 0
-854 -885 0
-854 -886 0
-854 -887 0
-854 -888 0
-854 -889 0
-854 -890 0
-854 -891 0
-854 -892 0
-854 -893 0
-854 -894 0
-854 -895 0
-854 -896 0
-854 -897 0
-854 -898 0
-854 -899 0
-854 -900 0
-854 -901 0
-854 -902 0
-854 -903 0
-854 -904 0
-854 -905 0
-854 -906 0
-854 -907 0
-854 -908 0
-854 -909 0
-854 -910 0
-854 -911 0
-854 -912 0
-854 -913 0
-854 -914 0
-854 -915 0
-854 -916 0
-854 -917 0
-855 -856 0
-855 -857 0
-855 -858 0
-855 -859 0
-855 -860 0
-855 -861 0
-855 -862 0
-855 -863 0
-855 -864 0
-855 -865 0
-855 -866 0
-855 -867 0
-855 -868 0
-855 -869 0
-855 -870 0
-855 -871 0
-855 -872 0
-855 -873 0
-855 -874 0
-855 -875 0
-855 -876 0
-855 -877 0
-855 -878 0
-855 -879 0
-855 -880 0
-855 -881 0
-855 -882 0
-855 -883 0
-855 -884 0
-855 -885 0
-855 -886 0
-855 -887 0
-855 -888 0
-855 -889 0
-855 -890 0
-855 -891 0
-855 -892 0
-855 -893 0
-855 -894 0
-855 -895 0
-855 -896 0
-855 -897 0
-855 -898 0
-855 -899 0
-855 -900 0
-855 -901 0
-855 -902 0
-855 -903 0
-855 -904 0
-855 -905 0
-855 -906 0
-855 -907 0
-855 -908 0
-855 -909 0
-855 -910 0
-855 -911 0
-855 -912 0
-855 -913 0
-855 -914 0
-855 -915 0
-855 -916 0
-855 -917 0
-856 -857 0
-856 -858 0
-856 -859 0
-856 -860 0
-856 -861 0
-856 -862 0
-856 -863 0
-856 -864 0
-856 -865 0
-856 -866 0
-856 -867 0
-856 -868 0
-856 -869 0
-856 -870 0
-856 -871 0
-856 -872 0
-856 -873 0
-856 -874 0
-856 -875 0
-856 -876 0
-856 -877 0
-856 -878 0
-856 -879 0
-856 -880 0
-856 -881 0
-856 -882 0
-856 -883 0
-856 -884 0
-856 -885 0
-856 -886 0
-856 -887 0
-856 -888 0
-856 -889 0
-856 -890 0
-856 -891 0
-856 -892 0
-856 -893 0
-856 -894 0
-856 -895 0
-856 -896 0
-856 -897 0
-856 -898 0
-856 -899 0
-856 -900 0
-856 -901 0
-856 -902 0
-856 -903 0
-856 -904 0
-856 -905 0
-856 -906 0
-856 -907 0
-856 -908 0
-856 -909 0
-856 -910 0
-856 -911 0
-856 -912 0
-856 -913 0
-856 -914 0
-856 -915 0
-856 -916 0
-856 -917 0
-857 -858 0
-857 -859 0
-857 -860 0
-857 -861 0
-857 -862 0
-857 -863 0
-857 -864 0
-857 -865 0
-857 -866 0
-857 -867 0
-857 -868 0
-857 -869 0
-857 -870 0
-857 -871 0
-857 -872 0
-857 -873 0
-857 -874 0
-857 -875 0
-857 -876 0
-857 -877 0
-857 -878 0
-857 -879 0
-857 -880 0
-857 -881 0
-857 -882 0
-857 -883 0
-857 -884 0
-857 -885 0
-857 -886 0
-857 -887 0
-857 -888 0
-857 -889 0
-857 -890 0
-857 -891 0
-857 -892 0
-857 -893 0
-857 -894 0
-857 -895 0
-857 -896 0
-857 -897 0
-857 -898 0
-857 -899 0
-857 -900 0
-857 -901 0
-857 -902 0
-857 -903 0
-857 -904 0
-857 -905 0
-857 -906 0
-857 -907 0
-857 -908 0
-857 -909 0
-857 -910 0
-857 -911 0
-857 -912 0
-857 -913 0
-857 -914 0
-857 -915 0
-857 -916 0
-857 -917 0
-858 -859 0
-858 -860 0
-858 -861 0
-858 -862 0
-858 -863 0
-858 -864 0
-858 -865 0
-858 -866 0
-858 -867 0
-858 -868 0
-858 -869 0
-858 -870 0
-858 -871 0
-858 -872 0
-858 -873 0
-858 -874 0
-858 -875 0
-858 -876 0
-858 -877 0
-858 -878 0
-858 -879 0
-858 -880 0
-858 -881 0
-858 -882 0
-858 -883 0
-858 -884 0
-858 -885 0
-858 -886 0
-858 -887 0
-858 -888 0
-858 -889 0
-858 -890 0
-858 -891 0
-858 -892 0
-858 -893 0
-858 -894 0
-858 -895 0
-858 -896 0
-858 -897 0
-858 -898 0
-858 -899 0
-858 -900 0
-858 -901 0
-858 -902 0
-858 -903 0
-858 -904 0
-858 -905 0
-858 -906 0
-858 -907 0
-858 -908 0
-858 -909 0
-858 -910 0
-858 -911 0
-858 -912 0
-858 -913 0
-858 -914 0
-858 -915 0
-858 -916 0
-858 -917 0
-859 -860 0
-859 -861 0
-859 -862 0
-859 -863 0
-859 -864 0
-859 -865 0
-859 -866 0
-859 -867 0
-859 -868 0
-859 -869 0
-859 -870 0
-859 -871 0
-859 -872 0
-859 -873 0
-859 -874 0
-859 -875 0
-859 -876 0
-859 -877 0
-859 -878 0
-859 -879 0
-859 -880 0
-859 -881 0
-859 -882 0
-859 -883 0
-859 -884 0
-859 -885 0
-859 -886 0
-859 -887 0
-859 -888 0
-859 -889 0
-859 -890 0
-859 -891 0
-859 -892 0
-859 -893 0
-859 -894 0
-859 -895 0
-859 -896 0
-859 -897 0
-859 -898 0
-859 -899 0
-859 -900 0
-859 -901 0
-859 -902 0
-859 -903 0
-859 -904 0
-859 -905 0
-859 -906 0
-859 -907 0
-859 -908 0
-859 -909 0
-859 -910 0
-859 -911 0
-859 -912 0
-859 -913 0
-859 -914 0
-859 -915 0
-859 -916 0
-859 -917 0
-860 -861 0
-860 -862 0
-860 -863 0
-860 -864 0
-860 -865 0
-860 -866 0
-860 -867 0
-860 -868 0
-860 -869 0
-860 -870 0
-860 -871 0
-860 -872 0
-860 -873 0
-860 -874 0
-860 -875 0
-860 -876 0
-860 -877 0
-860 -878 0
-860 -879 0
-860 -880 0
-860 -881 0
-860 -882 0
-860 -883 0
-860 -884 0
-860 -885 0
-860 -886 0
-860 -887 0
-860 -888 0
-860 -889 0
-860 -890 0
-860 -891 0
-860 -892 0
-860 -893 0
-860 -894 0
-860 -895 0
-860 -896 0
-860 -897 0
-860 -898 0
-860 -899 0
-860 -900 0
-860 -901 0
-860 -902 0
-860 -903 0
-860 -904 0
-860 -905 0
-860 -906 0
-860 -907 0
-860 -908 0
-860 -909 0
-860 -910 0
-860 -911 0
-860 -912 0
-860 -913 0
-860 -914 0
-860 -915 0
-860 -916 0
-860 -917 0
-861 -862 0
-861 -863 0
-861 -864 0
-861 -865 0
-861 -866 0
-861 -867 0
-861 -868 0
-861 -869 0
-861 -870 0
-861 -871 0
-861 -872 0
-861 -873 0
-861 -874 0
-861 -875 0
-861 -876 0
-861 -877 0
-861 -878 0
-861 -879 0
-861 -880 0
-861 -881 0
-861 -882 0
-861 -883 0
-861 -884 0
-861 -885 0
-861 -886 0
-861 -887 0
-861 -888 0
-861 -889 0
-861 -890 0
-861 -891 0
-861 -892 0
-861 -893 0
-861 -894 0
-861 -895 0
-861 -896 0
-861 -897 0
-861 -898 0
-861 -899 0
-861 -900 0
-861 -901 0
-861 -902 0
-861 -903 0
-861 -904 0
-861 -905 0
-861 -906 0
-861 -907 0
-861 -908 0
-861 -909 0
-861 -910 0
-861 -911 0
-861 -912 0
-861 -913 0
-861 -914 0
-861 -915 0
-861 -916 0
-861 -917 0
-862 -863 0
-862 -864 0
-862 -865 0
-862 -866 0
-862 -867 0
-862 -868 0
-862 -869 0
-862 -870 0
-862 -871 0
-862 -872 0
-862 -873 0
-862 -874 0
-862 -875 0
-862 -876 0
-862 -877 0
-862 -878 0
-862 -879 0
-862 -880 0
-862 -881 0
-862 -882 0
-862 -883 0
-862 -884 0
-862 -885 0
-862 -886 0
-862 -887 0
-862 -888 0
-862 -889 0
-862 -890 0
-862 -891 0
-862 -892 0
-862 -893 0
-862 -894 0
-862 -895 0
-862 -896 0
-862 -897 0
-862 -898 0
-862 -899 0
-862 -900 0
-862 -901 0
-862 -902 0
-862 -903 0
-862 -904 0
-862 -905 0
-862 -906 0
-862 -907 0
-862 -908 0
-862 -909 0
-862 -910 0
-862 -911 0
-862 -912 0
-862 -913 0
-862 -914 0
-862 -915 0
-862 -916 0
-862 -917 0
-863 -864 0
-863 -865 0
-863 -866 0
-863 -867 0
-863 -868 0
-863 -869 0
-863 -870 0
-863 -871 0
-863 -872 0
-863 -873 0
-863 -874 0
-863 -875 0
-863 -876 0
-863 -877 0
-863 -878 0
-863 -879 0
-863 -880 0
-863 -881 0
-863 -882 0
-863 -883 0
-863 -884 0
-863 -885 0
-863 -886 0
-863 -887 0
-863 -888 0
-863 -889 0
-863 -890 0
-863 -891 0
-863 -892 0
-863 -893 0
-863 -894 0
-863 -895 0
-863 -896 0
-863 -897 0
-863 -898 0
-863 -899 0
-863 -900 0
-863 -901 0
-863 -902 0
-863 -903 0
-863 -904 0
-863 -905 0
-863 -906 0
-863 -907 0
-863 -908 0
-863 -909 0
-863 -910 0
-863 -911 0
-863 -912 0
-863 -913 0
-863 -914 0
-863 -915 0
-863 -916 0
-863 -917 0
-864 -865 0
-864 -866 0
-864 -867 0
-864 -868 0
-864 -869 0
-864 -870 0
-864 -871 0
-864 -872 0
-864 -873 0
-864 -874 0
-864 -875 0
-864 -876 0
-864 -877 0
-864 -878 0
-864 -879 0
-864 -880 0
-864 -881 0
-864 -882 0
-864 -883 0
-864 -884 0
-864 -885 0
-864 -886 0
-864 -887 0
-864 -888 0
-864 -889 0
-864 -890 0
-864 -891 0
-864 -892 0
-864 -893 0
-864 -894 0
-864 -895 0
-864 -896 0
-864 -897 0
-864 -898 0
-864 -899 0
-864 -900 0
-864 -901 0
-864 -902 0
-864 -903 0
-864 -904 0
-864 -905 0
-864 -906 0
-864 -907 0
-864 -908 0
-864 -909 0
-864 -910 0
-864 -911 0
-864 -912 0
-864 -913 0
-864 -914 0
-864 -915 0
-864 -916 0
-864 -917 0
-865 -866 0
-865 -867 0
-865 -868 0
-865 -869 0
-865 -870 0
-865 -871 0
-865 -872 0
-865 -873 0
-865 -874 0
-865 -875 0
-865 -876 0
-865 -877 0
-865 -878 0
-865 -879 0
-865 -880 0
-865 -881 0
-865 -882 0
-865 -883 0
-865 -884 0
-865 -885 0
-865 -886 0
-865 -887 0
-865 -888 0
-865 -889 0
-865 -890 0
-865 -891 0
-865 -892 0
-865 -893 0
-865 -894 0
-865 -895 0
-865 -896 0
-865 -897 0
-865 -898 0
-865 -899 0
-865 -900 0
-865 -901 0
-865 -902 0
-865 -903 0
-865 -904 0
-865 -905 0
-865 -906 0
-865 -907 0
-865 -908 0
-865 -909 0
-865 -910 0
-865 -911 0
-865 -912 0
-865 -913 0
-865 -914 0
-865 -915 0
-865 -916 0
-865 -917 0
-866 -867 0
-866 -868 0
-866 -869 0
-866 -870 0
-866 -871 0
-866 -872 0
-866 -873 0
-866 -874 0
-866 -875 0
-866 -876 0
-866 -877 0
-866 -878 0
-866 -879 0
-866 -880 0
-866 -881 0
-866 -882 0
-866 -883 0
-866 -884 0
-866 -885 0
-866 -886 0
-866 -887 0
-866 -888 0
-866 -889 0
-866 -890 0
-866 -891 0
-866 -892 0
-866 -893 0
-866 -894 0
-866 -895 0
-866 -896 0
-866 -897 0
-866 -898 0
-866 -899 0
-866 -900 0
-866 -901 0
-866 -902 0
-866 -903 0
-866 -904 0
-866 -905 0
-866 -906 0
-866 -907 0
-866 -908 0
-866 -909 0
-866 -910 0
-866 -911 0
-866 -912 0
-866 -913 0
-866 -914 0
-866 -915 0
-866 -916 0
-866 -917 0
-867 -868 0
-867 -869 0
-867 -870 0
-867 -871 0
-867 -872 0
-867 -873 0
-867 -874 0
-867 -875 0
-867 -876 0
-867 -877 0
-867 -878 0
-867 -879 0
-867 -880 0
-867 -881 0
-867 -882 0
-867 -883 0
-867 -884 0
-867 -885 0
-867 -886 0
-867 -887 0
-867 -888 0
-867 -889 0
-867 -890 0
-867 -891 0
-867 -892 0
-867 -893 0
-867 -894 0
-867 -895 0
-867 -896 0
-867 -897 0
-867 -898 0
-867 -899 0
-867 -900 0
-867 -901 0
-867 -902 0
-867 -903 0
-867 -904 0
-867 -905 0
-867 -906 0
-867 -907 0
-867 -908 0
-867 -909 0
-867 -910 0
-867 -911 0
-867 -912 0
-867 -913 0
-867 -914 0
-867 -915 0
-867 -916 0
-867 -917 0
-868 -869 0
-868 -870 0
-868 -871 0
-868 -872 0
-868 -873 0
-868 -874 0
-868 -875 0
-868 -876 0
-868 -877 0
-868 -878 0
-868 -879 0
-868 -880 0
-868 -881 0
-868 -882 0
-868 -883 0
-868 -884 0
-868 -885 0
-868 -886 0
-868 -887 0
-868 -888 0
-868 -889 0
-868 -890 0
-868 -891 0
-868 -892 0
-868 -893 0
-868 -894 0
-868 -895 0
-868 -896 0
-868 -897 0
-868 -898 0
-868 -899 0
-868 -900 0
-868 -901 0
-868 -902 0
-868 -903 0
-868 -904 0
-868 -905 0
-868 -906 0
-868 -907 0
-868 -908 0
-868 -909 0
-868 -910 0
-868 -911 0
-868 -912 0
-868 -913 0
-868 -914 0
-868 -915 0
-868 -916 0
-868 -917 0
-869 -870 0
-869 -871 0
-869 -872 0
-869 -873 0
-869 -874 0
-869 -875 0
-869 -876 0
-869 -877 0
-869 -878 0
-869 -879 0
-869 -880 0
-869 -881 0
-869 -882 0
-869 -883 0
-869 -884 0
-869 -885 0
-869 -886 0
-869 -887 0
-869 -888 0
-869 -889 0
-869 -890 0
-869 -891 0
-869 -892 0
-869 -893 0
-869 -894 0
-869 -895 0
-869 -896 0
-869 -897 0
-869 -898 0
-869 -899 0
-869 -900 0
-869 -901 0
-869 -902 0
-869 -903 0
-869 -904 0
-869 -905 0
-869 -906 0
-869 -907 0
-869 -908 0
-869 -909 0
-869 -910 0
-869 -911 0
-869 -912 0
-869 -913 0
-869 -914 0
-869 -915 0
-869 -916 0
-869 -917 0
-870 -871 0
-870 -872 0
-870 -873 0
-870 -874 0
-870 -875 0
-870 -876 0
-870 -877 0
-870 -878 0
-870 -879 0
-870 -880 0
-870 -881 0
-870 -882 0
-870 -883 0
-870 -884 0
-870 -885 0
-870 -886 0
-870 -887 0
-870 -888 0
-870 -889 0
-870 -890 0
-870 -891 0
-870 -892 0
-870 -893 0
-870 -894 0
-870 -895 0
-870 -896 0
-870 -897 0
-870 -898 0
-870 -899 0
-870 -900 0
-870 -901 0
-870 -902 0
-870 -903 0
-870 -904 0
-870 -905 0
-870 -906 0
-870 -907 0
-870 -908 0
-870 -909 0
-870 -910 0
-870 -911 0
-870 -912 0
-870 -913 0
-870 -914 0
-870 -915 0
-870 -916 0
-870 -917 0
-871 -872 0
-871 -873 0
-871 -874 0
-871 -875 0
-871 -876 0
-871 -877 0
-871 -878 0
-871 -879 0
-871 -880 0
-871 -881 0
-871 -882 0
-871 -883 0
-871 -884 0
-871 -885 0
-871 -886 0
-871 -887 0
-871 -888 0
-871 -889 0
-871 -890 0
-871 -891 0
-871 -892 0
-871 -893 0
-871 -894 0
-871 -895 0
-871 -896 0
-871 -897 0
-871 -898 0
-871 -899 0
-871 -900 0
-871 -901 0
-871 -902 0
-871 -903 0
-871 -904 0
-871 -905 0
-871 -906 0
-871 -907 0
-871 -908 0
-871 -909 0
-871 -910 0
-871 -911 0
-871 -912 0
-871 -913 0
-871 -914 0
-871 -915 0
-871 -916 0
-871 -917 0
-872 -873 0
-872 -874 0
-872 -875 0
-872 -876 0
-872 -877 0
-872 -878 0
-872 -879 0
-872 -880 0
-872 -881 0
-872 -882 0
-872 -883 0
-872 -884 0
-872 -885 0
-872 -886 0
-872 -887 0
-872 -888 0
-872 -889 0
-872 -890 0
-872 -891 0
-872 -892 0
-872 -893 0
-872 -894 0
-872 -895 0
-872 -896 0
-872 -897 0
-872 -898 0
-872 -899 0
-872 -900 0
-872 -901 0
-872 -902 0
-872 -903 0
-872 -904 0
-872 -905 0
-872 -906 0
-872 -907 0
-872 -908 0
-872 -909 0
-872 -910 0
-872 -911 0
-872 -912 0
-872 -913 0
-872 -914 0
-872 -915 0
-872 -916 0
-872 -917 0
-873 -874 0
-873 -875 0
-873 -876 0
-873 -877 0
-873 -878 0
-873 -879 0
-873 -880 0
-873 -881 0
-873 -882 0
-873 -883 0
-873 -884 0
-873 -885 0
-873 -886 0
-873 -887 0
-873 -888 0
-873 -889 0
-873 -890 0
-873 -891 0
-873 -892 0
-873 -893 0
-873 -894 0
-873 -895 0
-873 -896 0
-873 -897 0
-873 -898 0
-873 -899 0
-873 -900 0
-873 -901 0
-873 -902 0
-873 -903 0
-873 -904 0
-873 -905 0
-873 -906 0
-873 -907 0
-873 -908 0
-873 -909 0
-873 -910 0
-873 -911 0
-873 -912 0
-873 -913 0
-873 -914 0
-873 -915 0
-873 -916 0
-873 -917 0
-874 -875 0
-874 -876 0
-874 -877 0
-874 -878 0
-874 -879 0
-874 -880 0
-874 -881 0
-874 -882 0
-874 -883 0
-874 -884 0
-874 -885 0
-874 -886 0
-874 -887 0
-874 -888 0
-874 -889 0
-874 -890 0
-874 -891 0
-874 -892 0
-874 -893 0
-874 -894 0
-874 -895 0
-874 -896 0
-874 -897 0
-874 -898 0
-874 -899 0
-874 -900 0
-874 -901 0
-874 -902 0
-874 -903 0
-874 -904 0
-874 -905 0
-874 -906 0
-874 -907 0
-874 -908 0
-874 -909 0
-874 -910 0
-874 -911 0
-874 -912 0
-874 -913 0
-874 -914 0
-874 -915 0
-874 -916 0
-874 -917 0
-875 -876 0
-875 -877 0
-875 -878 0
-875 -879 0
-875 -880 0
-875 -881 0
-875 -882 0
-875 -883 0
-875 -884 0
-875 -885 0
-875 -886 0
-875 -887 0
-875 -888 0
-875 -889 0
-875 -890 0
-875 -891 0
-875 -892 0
-875 -893 0
-875 -894 0
-875 -895 0
-875 -896 0
-875 -897 0
-875 -898 0
-875 -899 0
-875 -900 0
-875 -901 0
-875 -902 0
-875 -903 0
-875 -904 0
-875 -905 0
-875 -906 0
-875 -907 0
-875 -908 0
-875 -909 0
-875 -910 0
-875 -911 0
-875 -912 0
-875 -913 0
-875 -914 0
-875 -915 0
-875 -916 0
-875 -917 0
-876 -877 0
-876 -878 0
-876 -879 0
-876 -880 0
-876 -881 0
-876 -882 0
-876 -883 0
-876 -884 0
-876 -885 0
-876 -886 0
-876 -887 0
-876 -888 0
-876 -889 0
-876 -890 0
-876 -891 0
-876 -892 0
-876 -893 0
-876 -894 0
-876 -895 0
-876 -896 0
-876 -897 0
-876 -898 0
-876 -899 0
-876 -900 0
-876 -901 0
-876 -902 0
-876 -903 0
-876 -904 0
-876 -905 0
-876 -906 0
-876 -907 0
-876 -908 0
-876 -909 0
-876 -910 0
-876 -911 0
-876 -912 0
-876 -913 0
-876 -914 0
-876 -915 0
-876 -916 0
-876 -917 0
-877 -878 0
-877 -879 0
-877 -880 0
-877 -881 0
-877 -882 0
-877 -883 0
-877 -884 0
-877 -885 0
-877 -886 0
-877 -887 0
-877 -888 0
-877 -889 0
-877 -890 0
-877 -891 0
-877 -892 0
-877 -893 0
-877 -894 0
-877 -895 0
-877 -896 0
-877 -897 0
-877 -898 0
-877 -899 0
-877 -900 0
-877 -901 0
-877 -902 0
-877 -903 0
-877 -904 0
-877 -905 0
-877 -906 0
-877 -907 0
-877 -908 0
-877 -909 0
-877 -910 0
-877 -911 0
-877 -912 0
-877 -913 0
-877 -914 0
-877 -915 0
-877 -916 0
-877 -917 0
-878 -879 0
-878 -880 0
-878 -881 0
-878 -882 0
-878 -883 0
-878 -884 0
-878 -885 0
-878 -886 0
-878 -887 0
-878 -888 0
-878 -889 0
-878 -890 0
-878 -891 0
-878 -892 0
-878 -893 0
-878 -894 0
-878 -895 0
-878 -896 0
-878 -897 0
-878 -898 0
-878 -899 0
-878 -900 0
-878 -901 0
-878 -902 0
-878 -903 0
-878 -904 0
-878 -905 0
-878 -906 0
-878 -907 0
-878 -908 0
-878 -909 0
-878 -910 0
-878 -911 0
-878 -912 0
-878 -913 0
-878 -914 0
-878 -915 0
-878 -916 0
-878 -917 0
-879 -880 0
-879 -881 0
-879 -882 0
-879 -883 0
-879 -884 0
-879 -885 0
-879 -886 0
-879 -887 0
-879 -888 0
-879 -889 0
-879 -890 0
-879 -891 0
-879 -892 0
-879 -893 0
-879 -894 0
-879 -895 0
-879 -896 0
-879 -897 0
-879 -898 0
-879 -899 0
-879 -900 0
-879 -901 0
-879 -902 0
-879 -903 0
-879 -904 0
-879 -905 0
-879 -906 0
-879 -907 0
-879 -908 0
-879 -909 0
-879 -910 0
-879 -911 0
-879 -912 0
-879 -913 0
-879 -914 0
-879 -915 0
-879 -916 0
-879 -917 0
-880 -881 0
-880 -882 0
-880 -883 0
-880 -884 0
-880 -885 0
-880 -886 0
-880 -887 0
-880 -888 0
-880 -889 0
-880 -890 0
-880 -891 0
-880 -892 0
-880 -893 0
-880 -894 0
-880 -895 0
-880 -896 0
-880 -897 0
-880 -898 0
-880 -899 0
-880 -900 0
-880 -901 0
-880 -902 0
-880 -903 0
-880 -904 0
-880 -905 0
-880 -906 0
-880 -907 0
-880 -908 0
-880 -909 0
-880 -910 0
-880 -911 0
-880 -912 0
-880 -913 0
-880 -914 0
-880 -915 0
-880 -916 0
-880 -917 0
-881 -882 0
-881 -883 0
-881 -884 0
-881 -885 0
-881 -886 0
-881 -887 0
-881 -888 0
-881 -889 0
-881 -890 0
-881 -891 0
-881 -892 0
-881 -893 0
-881 -894 0
-881 -895 0
-881 -896 0
-881 -897 0
-881 -898 0
-881 -899 0
-881 -900 0
-881 -901 0
-881 -902 0
-881 -903 0
-881 -904 0
-881 -905 0
-881 -906 0
-881 -907 0
-881 -908 0
-881 -909 0
-881 -910 0
-881 -911 0
-881 -912 0
-881 -913 0
-881 -914 0
-881 -915 0
-881 -916 0
-881 -917 0
-882 -883 0
-882 -884 0
-882 -885 0
-882 -886 0
-882 -887 0
-882 -888 0
-882 -889 0
-882 -890 0
-882 -891 0
-882 -892 0
-882 -893 0
-882 -894 0
-882 -895 0
-882 -896 0
-882 -897 0
-882 -898 0
-882 -899 0
-882 -900 0
-882 -901 0
-882 -902 0
-882 -903 0
-882 -904 0
-882 -905 0
-882 -906 0
-882 -907 0
-882 -908 0
-882 -909 0
-882 -910 0
-882 -911 0
-882 -912 0
-882 -913 0
-882 -914 0
-882 -915 0
-882 -916 0
-882 -917 0
-883 -884 0
-883 -885 0
-883 -886 0
-883 -887 0
-883 -888 0
-883 -889 0
-883 -890 0
-883 -891 0
-883 -892 0
-883 -893 0
-883 -894 0
-883 -895 0
-883 -896 0
-883 -897 0
-883 -898 0
-883 -899 0
-883 -900 0
-883 -901 0
-883 -902 0
-883 -903 0
-883 -904 0
-883 -905 0
-883 -906 0
-883 -907 0
-883 -908 0
-883 -909 0
-883 -910 0
-883 -911 0
-883 -912 0
-883 -913 0
-883 -914 0
-883 -915 0
-883 -916 0
-883 -917 0
-884 -885 0
-884 -886 0
-884 -887 0
-884 -888 0
-884 -889 0
-884 -890 0
-884 -891 0
-884 -892 0
-884 -893 0
-884 -894 0
-884 -895 0
-884 -896 0
-884 -897 0
-884 -898 0
-884 -899 0
-884 -900 0
-884 -901 0
-884 -902 0
-884 -903 0
-884 -904 0
-884 -905 0
-884 -906 0
-884 -907 0
-884 -908 0
-884 -909 0
-884 -910 0
-884 -911 0
-884 -912 0
-884 -913 0
-884 -914 0
-884 -915 0
-884 -916 0
-884 -917 0
-885 -886 0
-885 -887 0
-885 -888 0
-885 -889 0
-885 -890 0
-885 -891 0
-885 -892 0
-885 -893 0
-885 -894 0
-885 -895 0
-885 -896 0
-885 -897 0
-885 -898 0
-885 -899 0
-885 -900 0
-885 -901 0
-885 -902 0
-885 -903 0
-885 -904 0
-885 -905 0
-885 -906 0
-885 -907 0
-885 -908 0
-885 -909 0
-885 -910 0
-885 -911 0
-885 -912 0
-885 -913 0
-885 -914 0
-885 -915 0
-885 -916 0
-885 -917 0
-886 -887 0
-886 -888 0
-886 -889 0
-886 -890 0
-886 -891 0
-886 -892 0
-886 -893 0
-886 -894 0
-886 -895 0
-886 -896 0
-886 -897 0
-886 -898 0
-886 -899 0
-886 -900 0
-886 -901 0
-886 -902 0
-886 -903 0
-886 -904 0
-886 -905 0
-886 -906 0
-886 -907 0
-886 -908 0
-886 -909 0
-886 -910 0
-886 -911 0
-886 -912 0
-886 -913 0
-886 -914 0
-886 -915 0
-886 -916 0
-886 -917 0
-887 -888 0
-887 -889 0
-887 -890 0
-887 -891 0
-887 -892 0
-887 -893 0
-887 -894 0
-887 -895 0
-887 -896 0
-887 -897 0
-887 -898 0
-887 -899 0
-887 -900 0
-887 -901 0
-887 -902 0
-887 -903 0
-887 -904 0
-887 -905 0
-887 -906 0
-887 -907 0
-887 -908 0
-887 -909 0
-887 -910 0
-887 -911 0
-887 -912 0
-887 -913 0
-887 -914 0
-887 -915 0
-887 -916 0
-887 -917 0
-888 -889 0
-888 -890 0
-888 -891 0
-888 -892 0
-888 -893 0
-888 -894 0
-888 -895 0
-888 -896 0
-888 -897 0
-888 -898 0
-888 -899 0
-888 -900 0
-888 -901 0
-888 -902 0
-888 -903 0
-888 -904 0
-888 -905 0
-888 -906 0
-888 -907 0
-888 -908 0
-888 -909 0
-888 -910 0
-888 -911 0
-888 -912 0
-888 -913 0
-888 -914 0
-888 -915 0
-888 -916 0
-888 -917 0
-889 -890 0
-889 -891 0
-889 -892 0
-889 -893 0
-889 -894 0
-889 -895 0
-889 -896 0
-889 -897 0
-889 -898 0
-889 -899 0
-889 -900 0
-889 -901 0
-889 -902 0
-889 -903 0
-889 -904 0
-889 -905 0
-889 -906 0
-889 -907 0
-889 -908 0
-889 -909 0
-889 -910 0
-889 -911 0
-889 -912 0
-889 -913 0
-889 -914 0
-889 -915 0
-889 -916 0
-889 -917 0
-890 -891 0
-890 -892 0
-890 -893 0
-890 -894 0
-890 -895 0
-890 -896 0
-890 -897 0
-890 -898 0
-890 -899 0
-890 -900 0
-890 -901 0
-890 -902 0
-890 -903 0
-890 -904 0
-890 -905 0
-890 -906 0
-890 -907 0
-890 -908 0
-890 -909 0
-890 -910 0
-890 -911 0
-890 -912 0
-890 -913 0
-890 -914 0
-890 -915 0
-890 -916 0
-890 -917 0
-891 -892 0
-891 -893 0
-891 -894 0
-891 -895 0
-891 -896 0
-891 -897 0
-891 -898 0
-891 -899 0
-891 -900 0
-891 -901 0
-891 -902 0
-891 -903 0
-891 -904 0
-891 -905 0
-891 -906 0
-891 -907 0
-891 -908 0
-891 -909 0
-891 -910 0
-891 -911 0
-891 -912 0
-891 -913 0
-891 -914 0
-891 -915 0
-891 -916 0
-891 -917 0
-892 -893 0
-892 -894 0
-892 -895 0
-892 -896 0
-892 -897 0
-892 -898 0
-892 -899 0
-892 -900 0
-892 -901 0
-892 -902 0
-892 -903 0
-892 -904 0
-892 -905 0
-892 -906 0
-892 -907 0
-892 -908 0
-892 -909 0
-892 -910 0
-892 -911 0
-892 -912 0
-892 -913 0
-892 -914 0
-892 -915 0
-892 -916 0
-892 -917 0
-893 -894 0
-893 -895 0
-893 -896 0
-893 -897 0
-893 -898 0
-893 -899 0
-893 -900 0
-893 -901 0
-893 -902 0
-893 -903 0
-893 -904 0
-893 -905 0
-893 -906 0
-893 -907 0
-893 -908 0
-893 -909 0
-893 -910 0
-893 -911 0
-893 -912 0
-893 -913 0
-893 -914 0
-893 -915 0
-893 -916 0
-893 -917 0
-894 -895 0
-894 -896 0
-894 -897 0
-894 -898 0
-894 -899 0
-894 -900 0
-894 -901 0
-894 -902 0
-894 -903 0
-894 -904 0
-894 -905 0
-894 -906 0
-894 -907 0
-894 -908 0
-894 -909 0
-894 -910 0
-894 -911 0
-894 -912 0
-894 -913 0
-894 -914 0
-894 -915 0
-894 -916 0
-894 -917 0
-895 -896 0
-895 -897 0
-895 -898 0
-895 -899 0
-895 -900 0
-895 -901 0
-895 -902 0
-895 -903 0
-895 -904 0
-895 -905 0
-895 -906 0
-895 -907 0
-895 -908 0
-895 -909 0
-895 -910 0
-895 -911 0
-895 -912 0
-895 -913 0
-895 -914 0
-895 -915 0
-895 -916 0
-895 -917 0
-896 -897 0
-896 -898 0
-896 -899 0
-896 -900 0
-896 -901 0
-896 -902 0
-896 -903 0
-896 -904 0
-896 -905 0
-896 -906 0
-896 -907 0
-896 -908 0
-896 -909 0
-896 -910 0
-896 -911 0
-896 -912 0
-896 -913 0
-896 -914 0
-896 -915 0
-896 -916 0
-896 -917 0
-897 -898 0
-897 -899 0
-897 -900 0
-897 -901 0
-897 -902 0
-897 -903 0
-897 -904 0
-897 -905 0
-897 -906 0
-897 -907 0
-897 -908 0
-897 -909 0
-897 -910 0
-897 -911 0
-897 -912 0
-897 -913 0
-897 -914 0
-897 -915 0
-897 -916 0
-897 -917 0
-898 -899 0
-898 -900 0
-898 -901 0
-898 -902 0
-898 -903 0
-898 -904 0
-898 -905 0
-898 -906 0
-898 -907 0
-898 -908 0
-898 -909 0
-898 -910 0
-898 -911 0
-898 -912 0
-898 -913 0
-898 -914 0
-898 -915 0
-898 -916 0
-898 -917 0
-899 -900 0
-899 -901 0
-899 -902 0
-899 -903 0
-899 -904 0
-899 -905 0
-899 -906 0
-899 -907 0
-899 -908 0
-899 -909 0
-899 -910 0
-899 -911 0
-899 -912 0
-899 -913 0
-899 -914 0
-899 -915 0
-899 -916 0
-899 -917 0
-900 -901 0
-900 -902 0
-900 -903 0
-900 -904 0
-900 -905 0
-900 -906 0
-900 -907 0
-900 -908 0
-900 -909 0
-900 -910 0
-900 -911 0
-900 -912 0
-900 -913 0
-900 -914 0
-900 -915 0
-900 -916 0
-900 -917 0
-901 -902 0
-901 -903 0
-901 -904 0
-901 -905 0
-901 -906 0
-901 -907 0
-901 -908 0
-901 -909 0
-901 -910 0
-901 -911 0
-901 -912 0
-901 -913 0
-901 -914 0
-901 -915 0
-901 -916 0
-901 -917 0
-902 -903 0
-902 -904 0
-902 -905 0
-902 -906 0
-902 -907 0
-902 -908 0
-902 -909 0
-902 -910 0
-902 -911 0
-902 -912 0
-902 -913 0
-902 -914 0
-902 -915 0
-902 -916 0
-902 -917 0
-903 -904 0
-903 -905 0
-903 -906 0
-903 -907 0
-903 -908 0
-903 -909 0
-903 -910 0
-903 -911 0
-903 -912 0
-903 -913 0
-903 -914 0
-903 -915 0
-903 -916 0
-903 -917 0
-904 -905 0
-904 -906 0
-904 -907 0
-904 -908 0
-904 -909 0
-904 -910 0
-904 -911 0
-904 -912 0
-904 -913 0
-904 -914 0
-904 -915 0
-904 -916 0
-904 -917 0
-905 -906 0
-905 -907 0
-905 -908 0
-905 -909 0
-905 -910 0
-905 -911 0
-905 -912 0
-905 -913 0
-905 -914 0
-905 -915 0
-905 -916 0
-905 -917 0
-906 -907 0
-906 -908 0
-906 -909 0
-906 -910 0
-906 -911 0
-906 -912 0
-906 -913 0
-906 -914 0
-906 -915 0
-906 -916 0
-906 -917 0
-907 -908 0
-907 -909 0
-907 -910 0
-907 -911 0
-907 -912 0
-907 -913 0
-907 -914 0
-907 -915 0
-907 -916 0
-907 -917 0
-908 -909 0
-908 -910 0
-908 -911 0
-908 -912 0
-908 -913 0
-908 -914 0
-908 -915 0
-908 -916 0
-908 -917 0
-909 -910 0
-909 -911 0
-909 -912 0
-909 -913 0
-909 -914 0
-909 -915 0
-909 -916 0
-909 -917 0
-910 -911 0
-910 -912 0
-910 -913 0
-910 -914 0
-910 -915 0
-910 -916 0
-910 -917 0
-911 -912 0
-911 -913 0
-911 -914 0
-911 -915 0
-911 -916 0
-911 -917 0
-912 -913 0
-912 -914 0
-912 -915 0
-912 -916 0
-912 -917 0
-913 -914 0
-913 -915 0
-913 -916 0
-913 -917 0
-914 -915 0
-914 -916 0
-914 -917 0
-915 -916 0
-915 -917 0
-916 -917 0
-918 834 835 836 837 838 839 840 841 842 843 844 845 846 847 848 849 850 851 852 853 854 855 856 857 0
-834 918 0
-835 918 0
-836 918 0
-837 918 0
-838 918 0
-839 918 0
-840 918 0
-841 918 0
-842 918 0
-843 918 0
-844 918 0
-845 918 0
-846 918 0
-847 918 0
-848 918 0
-849 918 0
-850 918 0
-851 918 0
-852 918 0
-853 918 0
-854 918 0
-855 918 0
-856 918 0
-857 918 0
918 -150 299 0
918 150 -299 0
918 -151 300 0
918 151 -300 0
918 -152 301 0
918 152 -301 0
918 -153 302 0
918 153 -302 0
918 -154 303 0
918 154 -303 0
918 -155 304 0
918 155 -304 0
918 -156 305 0
918 156 -305 0
918 -157 306 0
918 157 -306 0
918 -158 307 0
918 158 -307 0
918 -159 308 0
918 159 -308 0
-919 858 859 860 861 862 863 864 865 866 867 868 869 870 871 872 873 874 875 876 877 878 879 880 881 0
-858 919 0
-859 919 0
-860 919 0
-861 919 0
-862 919 0
-863 919 0
-864 919 0
-865 919 0
-866 919 0
-867 919 0
-868 919 0
-869 919 0
-870 919 0
-871 919 0
-872 919 0
-873 919 0
-874 919 0
-875 919 0
-876 919 0
-877 919 0
-878 919 0
-879 919 0
-880 919 0
-881 919 0
919 -160 309 0
919 160 -309 0
919 -161 310 0
919 161 -310 0
919 -162 311 0
919 162 -311 0
919 -163 312 0
919 163 -312 0
919 -164 313 0
919 164 -313 0
919 -165 314 0
919 165 -314 0
919 -166 315 0
919 166 -315 0
919 -167 316 0
919 167 -316 0
919 -168 317 0
919 168 -317 0
919 -169 318 0
919 169 -318 0
-920 882 883 884 885 886 887 888 889 890 891 892 893 894 895 896 897 898 899 900 901 0
-882 920 0
-883 920 0
-884 920 0
-885 920 0
-886 920 0
-887 920 0
-888 920 0
-889 920 0
-890 920 0
-891 920 0
-892 920 0
-893 920 0
-894 920 0
-895 920 0
-896 920 0
-897 920 0
-898 920 0
-899 920 0
-900 920 0
-901 920 0
920 -170 319 0
920 170 -319 0
920 -171 320 0
920 171 -320 0
920 -172 321 0
920 172 -321 0
920 -173 322 0
920 173 -322 0
920 -174 323 0
920 174 -323 0
920 -175 324 0
920 175 -324 0
920 -176 325 0
920 176 -325 0
920 -177 326 0
920 177 -326 0
920 -178 327 0
920 178 -327 0
-921 902 903 904 905 906 907 908 909 910 911 912 913 914 915 916 917 0
-902 921 0
-903 921 0
-904 921 0
-905 921 0
-906 921 0
-907 921 0
-908 921 0
-909 921 0
-910 921 0
-911 921 0
-912 921 0
-913 921 0
-914 921 0
-915 921 0
-916 921 0
-917 921 0
921 -179 328 0
921 179 -328 0
921 -180 329 0
921 180 -329 0
921 -181 330 0
921 181 -330 0
921 -182 331 0
921 182 -331 0
921 -183 332 0
921 183 -332 0
921 -184 333 0
921 184 -333 0
921 -185 334 0
921 185 -334 0
921 -186 335 0
921 186 -335 0
-834 295 0
-834 299 0
-834 -161 0
-834 -162 0
-834 -163 0
-834 -164 0
-834 -165 0
-834 -169 0
-834 -166 306 0
-834 -166 -150 -157 0
-834 -166 -212 0
-834 -166 -213 0
-834 -166 -214 0
-834 -166 -236 0
-834 -166 -237 0
-834 -166 -238 0
-834 -166 -256 0
-834 -166 -257 0
-834 -166 -258 0
-834 -167 307 0
-834 -167 -150 -158 0
-834 -167 -213 0
-834 -167 -214 0
-834 -167 -237 0
-834 -167 -238 0
-834 -167 -257 0
-834 -167 -258 0
-834 -168 308 0
-834 -168 -150 -159 0
-834 -168 -214 0
-834 -168 -238 0
-834 -168 -258 0
-835 295 0
-835 300 0
-835 -160 0
-835 -162 0
-835 -163 0
-835 -164 0
-835 -165 0
-835 -169 0
-835 -166 306 0
-835 -166 -151 -157 0
-835 -166 -216 0
-835 -166 -217 0
-835 -166 -218 0
-835 -166 -236 0
-835 -166 -237 0
-835 -166 -238 0
-835 -166 -240 0
-835 -166 -241 0
-835 -166 -242 0
-835 -166 -256 0
-835 -166 -257 0
-835 -166 -258 0
-835 -166 -260 0
-835 -166 -261 0
-835 -166 -262 0
-835 -167 307 0
-835 -167 -151 -158 0
-835 -167 -217 0
-835 -167 -218 0
-835 -167 -237 0
-835 -167 -238 0
-835 -167 -241 0
-835 -167 -242 0
-835 -167 -257 0
-835 -167 -258 0
-835 -167 -261 0
-835 -167 -262 0
-835 -168 308 0
-835 -168 -151 -159 0
-835 -168 -218 0
-835 -168 -238 0
-835 -168 -242 0
-835 -168 -258 0
-835 -168 -262 0
-836 295 0
-836 301 0
-836 -160 0
-836 -161 0
-836 -163 0
-836 -164 0
-836 -165 0
-836 -169 0
-836 -166 306 0
-836 -166 -152 -157 0
-836 -166 -220 0
-836 -166 -221 0
-836 -166 -222 0
-836 -166 -240 0
-836 -166 -241 0
-836 -166 -242 0
-836 -166 -244 0
-836 -166 -245 0
-836 -166 -246 0
-836 -166 -256 0
-836 -166 -257 0
-836 -166 -258 0
-836 -166 -260 0
-836 -166 -261 0
-836 -166 -262 0
-836 -166 -264 0
-836 -166 -265 0
-836 -166 -266 0
-836 -167 307 0
-836 -167 -152 -158 0
-836 -167 -221 0
-836 -167 -222 0
-836 -167 -241 0
-836 -167 -242 0
-836 -167 -245 0
-836 -167 -246 0
-836 -167 -257 0
-836 -167 -258 0
-836 -167 -261 0
-836 -167 -262 0
-836 -167 -265 0
-836 -167 -266 0
-836 -168 308 0
-836 -168 -152 -159 0
-836 -168 -222 0
-836 -168 -242 0
-836 -168 -246 0
-836 -168 -258 0
-836 -168 -262 0
-836 -168 -266 0
-837 295 0
-837 302 0
-837 -160 0
-837 -161 0
-837 -162 0
-837 -164 0
-837 -165 0
-837 -169 0
-837 -166 306 0
-837 -166 -153 -157 0
-837 -166 -224 0
-837 -166 -225 0
-837 -166 -226 0
-837 -166 -244 0
-837 -166 -245 0
-837 -166 -246 0
-837 -166 -248 0
-837 -166 -249 0
-837 -166 -250 0
-837 -166 -260 0
-837 -166 -261 0
-837 -166 -262 0
-837 -166 -264 0
-837 -166 -265 0
-837 -166 -266 0
-837 -166 -268 0
-837 -166 -269 0
-837 -166 -270 0
-837 -167 307 0
-837 -167 -153 -158 0
-837 -167 -225 0
-837 -167 -226 0
-837 -167 -245 0
-837 -167 -246 0
-837 -167 -249 0
-837 -167 -250 0
-837 -167 -261 0
-837 -167 -262 0
-837 -167 -265 0
-837 -167 -266 0
-837 -167 -269 0
-837 -167 -270 0
-837 -168 308 0
-837 -168 -153 -159 0
-837 -168 -226 0
-837 -168 -246 0
-837 -168 -250 0
-837 -168 -262 0
-837 -168 -266 0
-837 -168 -270 0
-838 295 0
-838 303 0
-838 -160 0
-838 -161 0
-838 -162 0
-838 -163 0
-838 -165 0
-838 -169 0
-838 -166 306 0
-838 -166 -154 -157 0
-838 -166 -228 0
-838 -166 -229 0
-838 -166 -230 0
-838 -166 -248 0
-838 -166 -249 0
-838 -166 -250 0
-838 -166 -252 0
-838 -166 -253 0
-838 -166 -254 0
-838 -166 -264 0
-838 -166 -265 0
-838 -166 -266 0
-838 -166 -268 0
-838 -166 -269 0
-838 -166 -270 0
-838 -167 307 0
-838 -167 -154 -158 0
-838 -167 -229 0
-838 -167 -230 0
-838 -167 -249 0
-838 -167 -250 0
-838 -167 -253 0
-838 -167 -254 0
-838 -167 -265 0
-838 -167 -266 0
-838 -167 -269 0
-838 -167 -270 0
-838 -168 308 0
-838 -168 -154 -159 0
-838 -168 -230 0
-838 -168 -250 0
-838 -168 -254 0
-838 -168 -266 0
-838 -168 -270 0
-839 295 0
-839 304 0
-839 -160 0
-839 -161 0
-839 -162 0
-839 -163 0
-839 -164 0
-839 -169 0
-839 -166 306 0
-839 -166 -155 -157 0
-839 -166 -232 0
-839 -166 -233 0
-839 -166 -234 0
-839 -166 -252 0
-839 -166 -253 0
-839 -166 -254 0
-839 -166 -268 0
-839 -166 -269 0
-839 -166 -270 0
-839 -167 307 0
-839 -167 -155 -158 0
-839 -167 -233 0
-839 -167 -234 0
-839 -167 -253 0
-839 -167 -254 0
-839 -167 -269 0
-839 -167 -270 0
-839 -168 308 0
-839 -168 -155 -159 0
-839 -168 -234 0
-839 -168 -254 0
-839 -168 -270 0
-840 295 0
-840 299 0
-840 -171 0
-840 -172 0
-840 -173 0
-840 -174 0
-840 -178 0
-840 -175 306 0
-840 -175 -150 -157 0
-840 -175 -212 0
-840 -175 -213 0
-840 -175 -214 0
-840 -175 -236 0
-840 -175 -237 0
-840 -175 -238 0
-840 -175 -256 0
-840 -175 -257 0
-840 -175 -258 0
-840 -176 307 0
-840 -176 -150 -158 0
-840 -176 -213 0
-840 -176 -214 0
-840 -176 -237 0
-840 -176 -238 0
-840 -176 -257 0
-840 -176 -258 0
-840 -177 308 0
-840 -177 -150 -159 0
-840 -177 -214 0
-840 -177 -238 0
-840 -177 -258 0
-841 295 0
-841 300 0
-841 -172 0
-841 -173 0
-841 -174 0
-841 -178 0
-841 -175 306 0
-841 -175 -151 -157 0
-841 -175 -216 0
-841 -175 -217 0
-841 -175 -218 0
-841 -175 -236 0
-841 -175 -237 0
-841 -175 -238 0
-841 -175 -240 0
-841 -175 -241 0
-841 -175 -242 0
-841 -175 -256 0
-841 -175 -257 0
-841 -175 -258 0
-841 -175 -260 0
-841 -175 -261 0
-841 -175 -262 0
-841 -176 307 0
-841 -176 -151 -158 0
-841 -176 -217 0
-841 -176 -218 0
-841 -176 -237 0
-841 -176 -238 0
-841 -176 -241 0
-841 -176 -242 0
-841 -176 -257 0
-841 -176 -258 0
-841 -176 -261 0
-841 -176 -262 0
-841 -177 308 0
-841 -177 -151 -159 0
-841 -177 -218 0
-841 -177 -238 0
-841 -177 -242 0
-841 -177 -258 0
-841 -177 -262 0
-842 295 0
-842 301 0
-842 -170 0
-842 -173 0
-842 -174 0
-842 -178 0
-842 -175 306 0
-842 -175 -152 -157 0
-842 -175 -220 0
-842 -175 -221 0
-842 -175 -222 0
-842 -175 -240 0
-842 -175 -241 0
-842 -175 -242 0
-842 -175 -244 0
-842 -175 -245 0
-842 -175 -246 0
-842 -175 -256 0
-842 -175 -257 0
-842 -175 -258 0
-842 -175 -260 0
-842 -175 -261 0
-842 -175 -262 0
-842 -175 -264 0
-842 -175 -265 0
-842 -175 -266 0
-842 -176 307 0
-842 -176 -152 -158 0
-842 -176 -221 0
-842 -176 -222 0
-842 -176 -241 0
-842 -176 -242 0
-842 -176 -245 0
-842 -176 -246 0
-842 -176 -257 0
-842 -176 -258 0
-842 -176 -261 0
-842 -176 -262 0
-842 -176 -265 0
-842 -176 -266 0
-842 -177 308 0
-842 -177 -152 -159 0
-842 -177 -222 0
-842 -177 -242 0
-842 -177 -246 0
-842 -177 -258 0
-842 -177 -262 0
-842 -177 -266 0
-843 295 0
-843 302 0
-843 -170 0
-843 -171 0
-843 -174 0
-843 -178 0
-843 -175 306 0
-843 -175 -153 -157 0
-843 -175 -224 0
-843 -175 -225 0
-843 -175 -226 0
-843 -175 -244 0
-843 -175 -245 0
-843 -175 -246 0
-843 -175 -248 0
-843 -175 -249 0
-843 -175 -250 0
-843 -175 -260 0
-843 -175 -261 0
-843 -175 -262 0
-843 -175 -264 0
-843 -175 -265 0
-843 -175 -266 0
-843 -175 -268 0
-843 -175 -269 0
-843 -175 -270 0
-843 -176 307 0
-843 -176 -153 -158 0
-843 -176 -225 0
-843 -176 -226 0
-843 -176 -245 0
-843 -176 -246 0
-843 -176 -249 0
-843 -176 -250 0
-843 -176 -261 0
-843 -176 -262 0
-843 -176 -265 0
-843 -176 -266 0
-843 -176 -269 0
-843 -176 -270 0
-843 -177 308 0
-843 -177 -153 -159 0
-843 -177 -226 0
-843 -177 -246 0
-843 -177 -250 0
-843 -177 -262 0
-843 -177 -266 0
-843 -177 -270 0
-844 295 0
-844 303 0
-844 -170 0
-844 -171 0
-844 -172 0
-844 -178 0
-844 -175 306 0
-844 -175 -154 -157 0
-844 -175 -228 0
-844 -175 -229 0
-844 -175 -230 0
-844 -175 -248 0
-844 -175 -249 0
-844 -175 -250 0
-844 -175 -252 0
-844 -175 -253 0
-844 -175 -254 0
-844 -175 -264 0
-844 -175 -265 0
-844 -175 -266 0
-844 -175 -268 0
-844 -175 -269 0
-844 -175 -270 0
-844 -176 307 0
-844 -176 -154 -158 0
-844 -176 -229 0
-844 -176 -230 0
-844 -176 -249 0
-844 -176 -250 0
-844 -176 -253 0
-844 -176 -254 0
-844 -176 -265 0
-844 -176 -266 0
-844 -176 -269 0
-844 -176 -270 0
-844 -177 308 0
-844 -177 -154 -159 0
-844 -177 -230 0
-844 -177 -250 0
-844 -177 -254 0
-844 -177 -266 0
-844 -177 -270 0
-845 295 0
-845 304 0
-845 -170 0
-845 -171 0
-845 -172 0
-845 -173 0
-845 -178 0
-845 -175 306 0
-845 -175 -155 -157 0
-845 -175 -232 0
-845 -175 -233 0
-845 -175 -234 0
-845 -175 -252 0
-845 -175 -253 0
-845 -175 -254 0
-845 -175 -268 0
-845 -175 -269 0
-845 -175 -270 0
-845 -176 307 0
-845 -176 -155 -158 0
-845 -176 -233 0
-845 -176 -234 0
-845 -176 -253 0
-845 -176 -254 0
-845 -176 -269 0
-845 -176 -270 0
-845 -177 308 0
-845 -177 -155 -159 0
-845 -177 -234 0
-845 -177 -254 0
-845 -177 -270 0
-846 295 0
-846 299 0
-846 -180 0
-846 -181 0
-846 -182 0
-846 -186 0
-846 -183 306 0
-846 -183 -150 -157 0
-846 -183 -212 0
-846 -183 -213 0
-846 -183 -214 0
-846 -183 -236 0
-846 -183 -237 0
-846 -183 -238 0
-846 -183 -256 0
-846 -183 -257 0
-846 -183 -258 0
-846 -184 307 0
-846 -184 -150 -158 0
-846 -184 -213 0
-846 -184 -214 0
-846 -184 -237 0
-846 -184 -238 0
-846 -184 -257 0
-846 -184 -258 0
-846 -185 308 0
-846 -185 -150 -159 0
-846 -185 -214 0
-846 -185 -238 0
-846 -185 -258 0
-847 295 0
-847 300 0
-847 -181 0
-847 -182 0
-847 -186 0
-847 -183 306 0
-847 -183 -151 -157 0
-847 -183 -216 0
-847 -183 -217 0
-847 -183 -218 0
-847 -183 -236 0
-847 -183 -237 0
-847 -183 -238 0
-847 -183 -240 0
-847 -183 -241 0
-847 -183 -242 0
-847 -183 -256 0
-847 -183 -257 0
-847 -183 -258 0
-847 -183 -260 0
-847 -183 -261 0
-847 -183 -262 0
-847 -184 307 0
-847 -184 -151 -158 0
-847 -184 -217 0
-847 -184 -218 0
-847 -184 -237 0
-847 -184 -238 0
-847 -184 -241 0
-847 -184 -242 0
-847 -184 -257 0
-847 -184 -258 0
-847 -184 -261 0
-847 -184 -262 0
-847 -185 308 0
-847 -185 -151 -159 0
-847 -185 -218 0
-847 -185 -238 0
-847 -185 -242 0
-847 -185 -258 0
-847 -185 -262 0
-848 295 0
-848 301 0
-848 -182 0
-848 -186 0
-848 -183 306 0
-848 -183 -152 -157 0
-848 -183 -220 0
-848 -183 -221 0
-848 -183 -222 0
-848 -183 -240 0
-848 -183 -241 0
-848 -183 -242 0
-848 -183 -244 0
-848 -183 -245 0
-848 -183 -246 0
-848 -183 -256 0
-848 -183 -257 0
-848 -183 -258 0
-848 -183 -260 0
-848 -183 -261 0
-848 -183 -262 0
-848 -183 -264 0
-848 -183 -265 0
-848 -183 -266 0
-848 -184 307 0
-848 -184 -152 -158 0
-848 -184 -221 0
-848 -184 -222 0
-848 -184 -241 0
-848 -184 -242 0
-848 -184 -245 0
-848 -184 -246 0
-848 -184 -257 0
-848 -184 -258 0
-848 -184 -261 0
-848 -184 -262 0
-848 -184 -265 0
-848 -184 -266 0
-848 -185 308 0
-848 -185 -152 -159 0
-848 -185 -222 0
-848 -185 -242 0
-848 -185 -246 0
-848 -185 -258 0
-848 -185 -262 0
-848 -185 -266 0
-849 295 0
-849 302 0
-849 -179 0
-849 -186 0
-849 -183 306 0
-849 -183 -153 -157 0
-849 -183 -224 0
-849 -183 -225 0
-849 -183 -226 0
-849 -183 -244 0
-849 -183 -245 0
-849 -183 -246 0
-849 -183 -248 0
-849 -183 -249 0
-849 -183 -250 0
-849 -183 -260 0
-849 -183 -261 0
-849 -183 -262 0
-849 -183 -264 0
-849 -183 -265 0
-849 -183 -266 0
-849 -183 -268 0
-849 -183 -269 0
-849 -183 -270 0
-849 -184 307 0
-849 -184 -153 -158 0
-849 -184 -225 0
-849 -184 -226 0
-849 -184 -245 0
-849 -184 -246 0
-849 -184 -249 0
-849 -184 -250 0
-849 -184 -261 0
-849 -184 -262 0
-849 -184 -265 0
-849 -184 -266 0
-849 -184 -269 0
-849 -184 -270 0
-849 -185 308 0
-849 -185 -153 -159 0
-849 -185 -226 0
-849 -185 -246 0
-849 -185 -250 0
-849 -185 -262 0
-849 -185 -266 0
-849 -185 -270 0
-850 295 0
-850 303 0
-850 -179 0
-850 -180 0
-850 -186 0
-850 -183 306 0
-850 -183 -154 -157 0
-850 -183 -228 0
-850 -183 -229 0
-850 -183 -230 0
-850 -183 -248 0
-850 -183 -249 0
-850 -183 -250 0
-850 -183 -252 0
-850 -183 -253 0
-850 -183 -254 0
-850 -183 -264 0
-850 -183 -265 0
-850 -183 -266 0
-850 -183 -268 0
-850 -183 -269 0
-850 -183 -270 0
-850 -184 307 0
-850 -184 -154 -158 0
-850 -184 -229 0
-850 -184 -230 0
-850 -184 -249 0
-850 -184 -250 0
-850 -184 -253 0
-850 -184 -254 0
-850 -184 -265 0
-850 -184 -266 0
-850 -184 -269 0
-850 -184 -270 0
-850 -185 308 0
-850 -185 -154 -159 0
-850 -185 -230 0
-850 -185 -250 0
-850 -185 -254 0
-850 -185 -266 0
-850 -185 -270 0
-851 295 0
-851 304 0
-851 -179 0
-851 -180 0
-851 -181 0
-851 -186 0
-851 -183 306 0
-851 -183 -155 -157 0
-851 -183 -232 0
-851 -183 -233 0
-851 -183 -234 0
-851 -183 -252 0
-851 -183 -253 0
-851 -183 -254 0
-851 -183 -268 0
-851 -183 -269 0
-851 -183 -270 0
-851 -184 307 0
-851 -184 -155 -158 0
-851 -184 -233 0
-851 -184 -234 0
-851 -184 -253 0
-851 -184 -254 0
-851 -184 -269 0
-851 -184 -270 0
-851 -185 308 0
-851 -185 -155 -159 0
-851 -185 -234 0
-851 -185 -254 0
-851 -185 -270 0
-852 295 0
-852 299 0
-852 305 0
-852 -150 -156 0
-852 -211 0
-852 -212 0
-852 -213 0
-852 -214 0
-852 -235 0
-852 -236 0
-852 -237 0
-852 -238 0
-852 -255 0
-852 -256 0
-852 -257 0
-852 -258 0
-853 295 0
-853 300 0
-853 305 0
-853 -151 -156 0
-853 -215 0
-853 -216 0
-853 -217 0
-853 -218 0
-853 -235 0
-853 -236 0
-853 -237 0
-853 -238 0
-853 -239 0
-853 -240 0
-853 -241 0
-853 -242 0
-853 -255 0
-853 -256 0
-853 -257 0
-853 -258 0
-853 -259 0
-853 -260 0
-853 -261 0
-853 -262 0
-854 295 0
-854 301 0
-854 305 0
-854 -152 -156 0
-854 -219 0
-854 -220 0
-854 -221 0
-854 -222 0
-854 -239 0
-854 -240 0
-854 -241 0
-854 -242 0
-854 -243 0
-854 -244 0
-854 -245 0
-854 -246 0
-854 -255 0
-854 -256 0
-854 -257 0
-854 -258 0
-854 -259 0
-854 -260 0
-854 -261 0
-854 -262 0
-854 -263 0
-854 -264 0
-854 -265 0
-854 -266 0
-855 295 0
-855 302 0
-855 305 0
-855 -153 -156 0
-855 -223 0
-855 -224 0
-855 -225 0
-855 -226 0
-855 -243 0
-855 -244 0
-855 -245 0
-855 -246 0
-855 -247 0
-855 -248 0
-855 -249 0
-855 -250 0
-855 -259 0
-855 -260 0
-855 -261 0
-855 -262 0
-855 -263 0
-855 -264 0
-855 -265 0
-855 -266 0
-855 -267 0
-855 -268 0
-855 -269 0
-855 -270 0
-856 295 0
-856 303 0
-856 305 0
-856 -154 -156 0
-856 -227 0
-856 -228 0
-856 -229 0
-856 -230 0
-856 -247 0
-856 -248 0
-856 -249 0
-856 -250 0
-856 -251 0
-856 -252 0
-856 -253 0
-856 -254 0
-856 -263 0
-856 -264 0
-856 -265 0
-856 -266 0
-856 -267 0
-856 -268 0
-856 -269 0
-856 -270 0
-857 295 0
-857 304 0
-857 305 0
-857 -155 -156 0
-857 -231 0
-857 -232 0
-857 -233 0
-857 -234 0
-857 -251 0
-857 -252 0
-857 -253 0
-857 -254 0
-857 -267 0
-857 -268 0
-857 -269 0
-857 -270 0
-858 296 0
-858 309 0
-858 -151 0
-858 -152 0
-858 -153 0
-858 -154 0
-858 -155 0
-858 -159 0
-858 -156 316 0
-858 -156 -160 -167 0
-858 -156 -188 0
-858 -156 -189 0
-858 -156 -190 0
-858 -156 -236 0
-858 -156 -237 0
-858 -156 -238 0
-858 -156 -256 0
-858 -156 -257 0
-858 -156 -258 0
-858 -157 317 0
-858 -157 -160 -168 0
-858 -157 -189 0
-858 -157 -190 0
-858 -157 -237 0
-858 -157 -238 0
-858 -157 -257 0
-858 -157 -258 0
-858 -158 318 0
-858 -158 -160 -169 0
-858 -158 -190 0
-858 -158 -238 0
-858 -158 -258 0
-859 296 0
-859 310 0
-859 -150 0
-859 -152 0
-859 -153 0
-859 -154 0
-859 -155 0
-859 -159 0
-859 -156 316 0
-859 -156 -161 -167 0
-859 -156 -192 0
-859 -156 -193 0
-859 -156 -194 0
-859 -156 -236 0
-859 -156 -237 0
-859 -156 -238 0
-859 -156 -240 0
-859 -156 -241 0
-859 -156 -242 0
-859 -156 -256 0
-859 -156 -257 0
-859 -156 -258 0
-859 -156 -260 0
-859 -156 -261 0
-859 -156 -262 0
-859 -157 317 0
-859 -157 -161 -168 0
-859 -157 -193 0
-859 -157 -194 0
-859 -157 -237 0
-859 -157 -238 0
-859 -157 -241 0
-859 -157 -242 0
-859 -157 -257 0
-859 -157 -258 0
-859 -157 -261 0
-859 -157 -262 0
-859 -158 318 0
-859 -158 -161 -169 0
-859 -158 -194 0
-859 -158 -238 0
-859 -158 -242 0
-859 -158 -258 0
-859 -158 -262 0
-860 296 0
-860 311 0
-860 -150 0
-860 -151 0
-860 -153 0
-860 -154 0
-860 -155 0
-860 -159 0
-860 -156 316 0
-860 -156 -162 -167 0
-860 -156 -196 0
-860 -156 -197 0
-860 -156 -198 0
-860 -156 -240 0
-860 -156 -241 0
-860 -156 -242 0
-860 -156 -244 0
-860 -156 -245 0
-860 -156 -246 0
-860 -156 -256 0
-860 -156 -257 0
-860 -156 -258 0
-860 -156 -260 0
-860 -156 -261 0
-860 -156 -262 0
-860 -156 -264 0
-860 -156 -265 0
-860 -156 -266 0
-860 -157 317 0
-860 -157 -162 -168 0
-860 -157 -197 0
-860 -157 -198 0
-860 -157 -241 0
-860 -157 -242 0
-860 -157 -245 0
-860 -157 -246 0
-860 -157 -257 0
-860 -157 -258 0
-860 -157 -261 0
-860 -157 -262 0
-860 -157 -265 0
-860 -157 -266 0
-860 -158 318 0
-860 -158 -162 -169 0
-860 -158 -198 0
-860 -158 -242 0
-860 -158 -246 0
-860 -158 -258 0
-860 -158 -262 0
-860 -158 -266 0
-861 296 0
-861 312 0
-861 -150 0
-861 -151 0
-861 -152 0
-861 -154 0
-861 -155 0
-861 -159 0
-861 -156 316 0
-861 -156 -163 -167 0
-861 -156 -200 0
-861 -156 -201 0
-861 -156 -202 0
-861 -156 -244 0
-861 -156 -245 0
-861 -156 -246 0
-861 -156 -248 0
-861 -156 -249 0
-861 -156 -250 0
-861 -156 -260 0
-861 -156 -261 0
-861 -156 -262 0
-861 -156 -264 0
-861 -156 -265 0
-861 -156 -266 0
-861 -156 -268 0
-861 -156 -269 0
-861 -156 -270 0
-861 -157 317 0
-861 -157 -163 -168 0
-861 -157 -201 0
-861 -157 -202 0
-861 -157 -245 0
-861 -157 -246 0
-861 -157 -249 0
-861 -157 -250 0
-861 -157 -261 0
-861 -157 -262 0
-861 -157 -265 0
-861 -157 -266 0
-861 -157 -269 0
-861 -157 -270 0
-861 -158 318 0
-861 -158 -163 -169 0
-861 -158 -202 0
-861 -158 -246 0
-861 -158 -250 0
-861 -158 -262 0
-861 -158 -266 0
-861 -158 -270 0
-862 296 0
-862 313 0
-862 -150 0
-862 -151 0
-862 -152 0
-862 -153 0
-862 -155 0
-862 -159 0
-862 -156 316 0
-862 -156 -164 -167 0
-862 -156 -204 0
-862 -156 -205 0
-862 -156 -206 0
-862 -156 -248 0
-862 -156 -249 0
-862 -156 -250 0
-862 -156 -252 0
-862 -156 -253 0
-862 -156 -254 0
-862 -156 -264 0
-862 -156 -265 0
-862 -156 -266 0
-862 -156 -268 0
-862 -156 -269 0
-862 -156 -270 0
-862 -157 317 0
-862 -157 -164 -168 0
-862 -157 -205 0
-862 -157 -206 0
-862 -157 -249 0
-862 -157 -250 0
-862 -157 -253 0
-862 -157 -254 0
-862 -157 -265 0
-862 -157 -266 0
-862 -157 -269 0
-862 -157 -270 0
-862 -158 318 0
-862 -158 -164 -169 0
-862 -158 -206 0
-862 -158 -250 0
-862 -158 -254 0
-862 -158 -266 0
-862 -158 -270 0
-863 296 0
-863 314 0
-863 -150 0
-863 -151 0
-863 -152 0
-863 -153 0
-863 -154 0
-863 -159 0
-863 -156 316 0
-863 -156 -165 -167 0
-863 -156 -208 0
-863 -156 -209 0
-863 -156 -210 0
-863 -156 -252 0
-863 -156 -253 0
-863 -156 -254 0
-863 -156 -268 0
-863 -156 -269 0
-863 -156 -270 0
-863 -157 317 0
-863 -157 -165 -168 0
-863 -157 -209 0
-863 -157 -210 0
-863 -157 -253 0
-863 -157 -254 0
-863 -157 -269 0
-863 -157 -270 0
-863 -158 318 0
-863 -158 -165 -169 0
-863 -158 -210 0
-863 -158 -254 0
-863 -158 -270 0
-864 296 0
-864 309 0
-864 -171 0
-864 -172 0
-864 -173 0
-864 -174 0
-864 -178 0
-864 -175 316 0
-864 -175 -160 -167 0
-864 -175 -188 0
-864 -175 -189 0
-864 -175 -190 0
-864 -175 -236 0
-864 -175 -237 0
-864 -175 -238 0
-864 -175 -256 0
-864 -175 -257 0
-864 -175 -258 0
-864 -176 317 0
-864 -176 -160 -168 0
-864 -176 -189 0
-864 -176 -190 0
-864 -176 -237 0
-864 -176 -238 0
-864 -176 -257 0
-864 -176 -258 0
-864 -177 318 0
-864 -177 -160 -169 0
-864 -177 -190 0
-864 -177 -238 0
-864 -177 -258 0
-865 296 0
-865 310 0
-865 -172 0
-865 -173 0
-865 -174 0
-865 -178 0
-865 -175 316 0
-865 -175 -161 -167 0
-865 -175 -192 0
-865 -175 -193 0
-865 -175 -194 0
-865 -175 -236 0
-865 -175 -237 0
-865 -175 -238 0
-865 -175 -240 0
-865 -175 -241 0
-865 -175 -242 0
-865 -175 -256 0
-865 -175 -257 0
-865 -175 -258 0
-865 -175 -260 0
-865 -175 -261 0
-865 -175 -262 0
-865 -176 317 0
-865 -176 -161 -168 0
-865 -176 -193 0
-865 -176 -194 0
-865 -176 -237 0
-865 -176 -238 0
-865 -176 -241 0
-865 -176 -242 0
-865 -176 -257 0
-865 -176 -258 0
-865 -176 -261 0
-865 -176 -262 0
-865 -177 318 0
-865 -177 -161 -169 0
-865 -177 -194 0
-865 -177 -238 0
-865 -177 -242 0
-865 -177 -258 0
-865 -177 -262 0
-866 296 0
-866 311 0
-866 -170 0
-866 -173 0
-866 -174 0
-866 -178 0
-866 -175 316 0
-866 -175 -162 -167 0
-866 -175 -196 0
-866 -175 -197 0
-866 -175 -198 0
-866 -175 -240 0
-866 -175 -241 0
-866 -175 -242 0
-866 -175 -244 0
-866 -175 -245 0
-866 -175 -246 0
-866 -175 -256 0
-866 -175 -257 0
-866 -175 -258 0
-866 -175 -260 0
-866 -175 -261 0
-866 -175 -262 0
-866 -175 -264 0
-866 -175 -265 0
-866 -175 -266 0
-866 -176 317 0
-866 -176 -162 -168 0
-866 -176 -197 0
-866 -176 -198 0
-866 -176 -241 0
-866 -176 -242 0
-866 -176 -245 0
-866 -176 -246 0
-866 -176 -257 0
-866 -176 -258 0
-866 -176 -261 0
-866 -176 -262 0
-866 -176 -265 0
-866 -176 -266 0
-866 -177 318 0
-866 -177 -162 -169 0
-866 -177 -198 0
-866 -177 -242 0
-866 -177 -246 0
-866 -177 -258 0
-866 -177 -262 0
-866 -177 -266 0
-867 296 0
-867 312 0
-867 -170 0
-867 -171 0
-867 -174 0
-867 -178 0
-867 -175 316 0
-867 -175 -163 -167 0
-867 -175 -200 0
-867 -175 -201 0
-867 -175 -202 0
-867 -175 -244 0
-867 -175 -245 0
-867 -175 -246 0
-867 -175 -248 0
-867 -175 -249 0
-867 -175 -250 0
-867 -175 -260 0
-867 -175 -261 0
-867 -175 -262 0
-867 -175 -264 0
-867 -175 -265 0
-867 -175 -266 0
-867 -175 -268 0
-867 -175 -269 0
-867 -175 -270 0
-867 -176 317 0
-867 -176 -163 -168 0
-867 -176 -201 0
-867 -176 -202 0
-867 -176 -245 0
-867 -176 -246 0
-867 -176 -249 0
-867 -176 -250 0
-867 -176 -261 0
-867 -176 -262 0
-867 -176 -265 0
-867 -176 -266 0
-867 -176 -269 0
-867 -176 -270 0
-867 -177 318 0
-867 -177 -163 -169 0
-867 -177 -202 0
-867 -177 -246 0
-867 -177 -250 0
-867 -177 -262 0
-867 -177 -266 0
-867 -177 -270 0
-868 296 0
-868 313 0
-868 -170 0
-868 -171 0
-868 -172 0
-868 -178 0
-868 -175 316 0
-868 -175 -164 -167 0
-868 -175 -204 0
-868 -175 -205 0
-868 -175 -206 0
-868 -175 -248 0
-868 -175 -249 0
-868 -175 -250 0
-868 -175 -252 0
-868 -175 -253 0
-868 -175 -254 0
-868 -175 -264 0
-868 -175 -265 0
-868 -175 -266 0
-868 -175 -268 0
-868 -175 -269 0
-868 -175 -270 0
-868 -176 317 0
-868 -176 -164 -168 0
-868 -176 -205 0
-868 -176 -206 0
-868 -176 -249 0
-868 -176 -250 0
-868 -176 -253 0
-868 -176 -254 0
-868 -176 -265 0
-868 -176 -266 0
-868 -176 -269 0
-868 -176 -270 0
-868 -177 318 0
-868 -177 -164 -169 0
-868 -177 -206 0
-868 -177 -250 0
-868 -177 -254 0
-868 -177 -266 0
-868 -177 -270 0
-869 296 0
-869 314 0
-869 -170 0
-869 -171 0
-869 -172 0
-869 -173 0
-869 -178 0
-869 -175 316 0
-869 -175 -165 -167 0
-869 -175 -208 0
-869 -175 -209 0
-869 -175 -210 0
-869 -175 -252 0
-869 -175 -253 0
-869 -175 -254 0
-869 -175 -268 0
-869 -175 -269 0
-869 -175 -270 0
-869 -176 317 0
-869 -176 -165 -168 0
-869 -176 -209 0
-869 -176 -210 0
-869 -176 -253 0
-869 -176 -254 0
-869 -176 -269 0
-869 -176 -270 0
-869 -177 318 0
-869 -177 -165 -169 0
-869 -177 -210 0
-869 -177 -254 0
-869 -177 -270 0
-870 296 0
-870 309 0
-870 -180 0
-870 -181 0
-870 -182 0
-870 -186 0
-870 -183 316 0
-870 -183 -160 -167 0
-870 -183 -188 0
-870 -183 -189 0
-870 -183 -190 0
-870 -183 -236 0
-870 -183 -237 0
-870 -183 -238 0
-870 -183 -256 0
-870 -183 -257 0
-870 -183 -258 0
-870 -184 317 0
-870 -184 -160 -168 0
-870 -184 -189 0
-870 -184 -190 0
-870 -184 -237 0
-870 -184 -238 0
-870 -184 -257 0
-870 -184 -258 0
-870 -185 318 0
-870 -185 -160 -169 0
-870 -185 -190 0
-870 -185 -238 0
-870 -185 -258 0
-871 296 0
-871 310 0
-871 -181 0
-871 -182 0
-871 -186 0
-871 -183 316 0
-871 -183 -161 -167 0
-871 -183 -192 0
-871 -183 -193 0
-871 -183 -194 0
-871 -183 -236 0
-871 -183 -237 0
-871 -183 -238 0
-871 -183 -240 0
-871 -183 -241 0
-871 -183 -242 0
-871 -183 -256 0
-871 -183 -257 0
-871 -183 -258 0
-871 -183 -260 0
-871 -183 -261 0
-871 -183 -262 0
-871 -184 317 0
-871 -184 -161 -168 0
-871 -184 -193 0
-871 -184 -194 0
-871 -184 -237 0
-871 -184 -238 0
-871 -184 -241 0
-871 -184 -242 0
-871 -184 -257 0
-871 -184 -258 0
-871 -184 -261 0
-871 -184 -262 0
-871 -185 318 0
-871 -185 -161 -169 0
-871 -185 -194 0
-871 -185 -238 0
-871 -185 -242 0
-871 -185 -258 0
-871 -185 -262 0
-872 296 0
-872 311 0
-872 -182 0
-872 -186 0
-872 -183 316 0
-872 -183 -162 -167 0
-872 -183 -196 0
-872 -183 -197 0
-872 -183 -198 0
-872 -183 -240 0
-872 -183 -241 0
-872 -183 -242 0
-872 -183 -244 0
-872 -183 -245 0
-872 -183 -246 0
-872 -183 -256 0
-872 -183 -257 0
-872 -183 -258 0
-872 -183 -260 0
-872 -183 -261 0
-872 -183 -262 0
-872 -183 -264 0
-872 -183 -265 0
-872 -183 -266 0
-872 -184 317 0
-872 -184 -162 -168 0
-872 -184 -197 0
-872 -184 -198 0
-872 -184 -241 0
-872 -184 -242 0
-872 -184 -245 0
-872 -184 -246 0
-872 -184 -257 0
-872 -184 -258 0
-872 -184 -261 0
-872 -184 -262 0
-872 -184 -265 0
-872 -184 -266 0
-872 -185 318 0
-872 -185 -162 -169 0
-872 -185 -198 0
-872 -185 -242 0
-872 -185 -246 0
-872 -185 -258 0
-872 -185 -262 0
-872 -185 -266 0
-873 296 0
-873 312 0
-873 -179 0
-873 -186 0
-873 -183 316 0
-873 -183 -163 -167 0
-873 -183 -200 0
-873 -183 -201 0
-873 -183 -202 0
-873 -183 -244 0
-873 -183 -245 0
-873 -183 -246 0
-873 -183 -248 0
-873 -183 -249 0
-873 -183 -250 0
-873 -183 -260 0
-873 -183 -261 0
-873 -183 -262 0
-873 -183 -264 0
-873 -183 -265 0
-873 -183 -266 0
-873 -183 -268 0
-873 -183 -269 0
-873 -183 -270 0
-873 -184 317 0
-873 -184 -163 -168 0
-873 -184 -201 0
-873 -184 -202 0
-873 -184 -245 0
-873 -184 -246 0
-873 -184 -249 0
-873 -184 -250 0
-873 -184 -261 0
-873 -184 -262 0
-873 -184 -265 0
-873 -184 -266 0
-873 -184 -269 0
-873 -184 -270 0
-873 -185 318 0
-873 -185 -163 -169 0
-873 -185 -202 0
-873 -185 -246 0
-873 -185 -250 0
-873 -185 -262 0
-873 -185 -266 0
-873 -185 -270 0
-874 296 0
-874 313 0
-874 -179 0
-874 -180 0
-874 -186 0
-874 -183 316 0
-874 -183 -164 -167 0
-874 -183 -204 0
-874 -183 -205 0
-874 -183 -206 0
-874 -183 -248 0
-874 -183 -249 0
-874 -183 -250 0
-874 -183 -252 0
-874 -183 -253 0
-874 -183 -254 0
-874 -183 -264 0
-874 -183 -265 0
-874 -183 -266 0
-874 -183 -268 0
-874 -183 -269 0
-874 -183 -270 0
-874 -184 317 0
-874 -184 -164 -168 0
-874 -184 -205 0
-874 -184 -206 0
-874 -184 -249 0
-874 -184 -250 0
-874 -184 -253 0
-874 -184 -254 0
-874 -184 -265 0
-874 -184 -266 0
-874 -184 -269 0
-874 -184 -270 0
-874 -185 318 0
-874 -185 -164 -169 0
-874 -185 -206 0
-874 -185 -250 0
-874 -185 -254 0
-874 -185 -266 0
-874 -185 -270 0
-875 296 0
-875 314 0
-875 -179 0
-875 -180 0
-875 -181 0
-875 -186 0
-875 -183 316 0
-875 -183 -165 -167 0
-875 -183 -208 0
-875 -183 -209 0
-875 -183 -210 0
-875 -183 -252 0
-875 -183 -253 0
-875 -183 -254 0
-875 -183 -268 0
-875 -183 -269 0
-875 -183 -270 0
-875 -184 317 0
-875 -184 -165 -168 0
-875 -184 -209 0
-875 -184 -210 0
-875 -184 -253 0
-875 -184 -254 0
-875 -184 -269 0
-875 -184 -270 0
-875 -185 318 0
-875 -185 -165 -169 0
-875 -185 -210 0
-875 -185 -254 0
-875 -185 -270 0
-876 296 0
-876 309 0
-876 315 0
-876 -160 -166 0
-876 -187 0
-876 -188 0
-876 -189 0
-876 -190 0
-876 -235 0
-876 -236 0
-876 -237 0
-876 -238 0
-876 -255 0
-876 -256 0
-876 -257 0
-876 -258 0
-877 296 0
-877 310 0
-877 315 0
-877 -161 -166 0
-877 -191 0
-877 -192 0
-877 -193 0
-877 -194 0
-877 -235 0
-877 -236 0
-877 -237 0
-877 -238 0
-877 -239 0
-877 -240 0
-877 -241 0
-877 -242 0
-877 -255 0
-877 -256 0
-877 -257 0
-877 -258 0
-877 -259 0
-877 -260 0
-877 -261 0
-877 -262 0
-878 296 0
-878 311 0
-878 315 0
-878 -162 -166 0
-878 -195 0
-878 -196 0
-878 -197 0
-878 -198 0
-878 -239 0
-878 -240 0
-878 -241 0
-878 -242 0
-878 -243 0
-878 -244 0
-878 -245 0
-878 -246 0
-878 -255 0
-878 -256 0
-878 -257 0
-878 -258 0
-878 -259 0
-878 -260 0
-878 -261 0
-878 -262 0
-878 -263 0
-878 -264 0
-878 -265 0
-878 -266 0
-879 296 0
-879 312 0
-879 315 0
-879 -163 -166 0
-879 -199 0
-879 -200 0
-879 -201 0
-879 -202 0
-879 -243 0
-879 -244 0
-879 -245 0
-879 -246 0
-879 -247 0
-879 -248 0
-879 -249 0
-879 -250 0
-879 -259 0
-879 -260 0
-879 -261 0
-879 -262 0
-879 -263 0
-879 -264 0
-879 -265 0
-879 -266 0
-879 -267 0
-879 -268 0
-879 -269 0
-879 -270 0
-880 296 0
-880 313 0
-880 315 0
-880 -164 -166 0
-880 -203 0
-880 -204 0
-880 -205 0
-880 -206 0
-880 -247 0
-880 -248 0
-880 -249 0
-880 -250 0
-880 -251 0
-880 -252 0
-880 -253 0
-880 -254 0
-880 -263 0
-880 -264 0
-880 -265 0
-880 -266 0
-880 -267 0
-880 -268 0
-880 -269 0
-880 -270 0
-881 296 0
-881 314 0
-881 315 0
-881 -165 -166 0
-881 -207 0
-881 -208 0
-881 -209 0
-881 -210 0
-881 -251 0
-881 -252 0
-881 -253 0
-881 -254 0
-881 -267 0
-881 -268 0
-881 -269 0
-881 -270 0
-882 297 0
-882 319 0
-882 -152 0
-882 -153 0
-882 -154 0
-882 -155 0
-882 -159 0
-882 -156 325 0
-882 -156 -170 -176 0
-882 -156 -188 0
-882 -156 -189 0
-882 -156 -190 0
-882 -156 -192 0
-882 -156 -193 0
-882 -156 -194 0
-882 -156 -212 0
-882 -156 -213 0
-882 -156 -214 0
-882 -156 -216 0
-882 -156 -217 0
-882 -156 -218 0
-882 -156 -256 0
-882 -156 -257 0
-882 -156 -258 0
-882 -156 -260 0
-882 -156 -261 0
-882 -156 -262 0
-882 -157 326 0
-882 -157 -170 -177 0
-882 -157 -189 0
-882 -157 -190 0
-882 -157 -193 0
-882 -157 -194 0
-882 -157 -213 0
-882 -157 -214 0
-882 -157 -217 0
-882 -157 -218 0
-882 -157 -257 0
-882 -157 -258 0
-882 -157 -261 0
-882 -157 -262 0
-882 -158 327 0
-882 -158 -170 -178 0
-882 -158 -190 0
-882 -158 -194 0
-882 -158 -214 0
-882 -158 -218 0
-882 -158 -258 0
-882 -158 -262 0
-883 297 0
-883 320 0
-883 -150 0
-883 -153 0
-883 -154 0
-883 -155 0
-883 -159 0
-883 -156 325 0
-883 -156 -171 -176 0
-883 -156 -192 0
-883 -156 -193 0
-883 -156 -194 0
-883 -156 -196 0
-883 -156 -197 0
-883 -156 -198 0
-883 -156 -216 0
-883 -156 -217 0
-883 -156 -218 0
-883 -156 -220 0
-883 -156 -221 0
-883 -156 -222 0
-883 -156 -256 0
-883 -156 -257 0
-883 -156 -258 0
-883 -156 -260 0
-883 -156 -261 0
-883 -156 -262 0
-883 -156 -264 0
-883 -156 -265 0
-883 -156 -266 0
-883 -157 326 0
-883 -157 -171 -177 0
-883 -157 -193 0
-883 -157 -194 0
-883 -157 -197 0
-883 -157 -198 0
-883 -157 -217 0
-883 -157 -218 0
-883 -157 -221 0
-883 -157 -222 0
-883 -157 -257 0
-883 -157 -258 0
-883 -157 -261 0
-883 -157 -262 0
-883 -157 -265 0
-883 -157 -266 0
-883 -158 327 0
-883 -158 -171 -178 0
-883 -158 -194 0
-883 -158 -198 0
-883 -158 -218 0
-883 -158 -222 0
-883 -158 -258 0
-883 -158 -262 0
-883 -158 -266 0
-884 297 0
-884 321 0
-884 -150 0
-884 -151 0
-884 -154 0
-884 -155 0
-884 -159 0
-884 -156 325 0
-884 -156 -172 -176 0
-884 -156 -196 0
-884 -156 -197 0
-884 -156 -198 0
-884 -156 -200 0
-884 -156 -201 0
-884 -156 -202 0
-884 -156 -220 0
-884 -156 -221 0
-884 -156 -222 0
-884 -156 -224 0
-884 -156 -225 0
-884 -156 -226 0
-884 -156 -256 0
-884 -156 -257 0
-884 -156 -258 0
-884 -156 -260 0
-884 -156 -261 0
-884 -156 -262 0
-884 -156 -264 0
-884 -156 -265 0
-884 -156 -266 0
-884 -156 -268 0
-884 -156 -269 0
-884 -156 -270 0
-884 -157 326 0
-884 -157 -172 -177 0
-884 -157 -197 0
-884 -157 -198 0
-884 -157 -201 0
-884 -157 -202 0
-884 -157 -221 0
-884 -157 -222 0
-884 -157 -225 0
-884 -157 -226 0
-884 -157 -257 0
-884 -157 -258 0
-884 -157 -261 0
-884 -157 -262 0
-884 -157 -265 0
-884 -157 -266 0
-884 -157 -269 0
-884 -157 -270 0
-884 -158 327 0
-884 -158 -172 -178 0
-884 -158 -198 0
-884 -158 -202 0
-884 -158 -222 0
-884 -158 -226 0
-884 -158 -258 0
-884 -158 -262 0
-884 -158 -266 0
-884 -158 -270 0
-885 297 0
-885 322 0
-885 -150 0
-885 -151 0
-885 -152 0
-885 -155 0
-885 -159 0
-885 -156 325 0
-885 -156 -173 -176 0
-885 -156 -200 0
-885 -156 -201 0
-885 -156 -202 0
-885 -156 -204 0
-885 -156 -205 0
-885 -156 -206 0
-885 -156 -224 0
-885 -156 -225 0
-885 -156 -226 0
-885 -156 -228 0
-885 -156 -229 0
-885 -156 -230 0
-885 -156 -260 0
-885 -156 -261 0
-885 -156 -262 0
-885 -156 -264 0
-885 -156 -265 0
-885 -156 -266 0
-885 -156 -268 0
-885 -156 -269 0
-885 -156 -270 0
-885 -157 326 0
-885 -157 -173 -177 0
-885 -157 -201 0
-885 -157 -202 0
-885 -157 -205 0
-885 -157 -206 0
-885 -157 -225 0
-885 -157 -226 0
-885 -157 -229 0
-885 -157 -230 0
-885 -157 -261 0
-885 -157 -262 0
-885 -157 -265 0
-885 -157 -266 0
-885 -157 -269 0
-885 -157 -270 0
-885 -158 327 0
-885 -158 -173 -178 0
-885 -158 -202 0
-885 -158 -206 0
-885 -158 -226 0
-885 -158 -230 0
-885 -158 -262 0
-885 -158 -266 0
-885 -158 -270 0
-886 297 0
-886 323 0
-886 -150 0
-886 -151 0
-886 -152 0
-886 -153 0
-886 -159 0
-886 -156 325 0
-886 -156 -174 -176 0
-886 -156 -204 0
-886 -156 -205 0
-886 -156 -206 0
-886 -156 -208 0
-886 -156 -209 0
-886 -156 -210 0
-886 -156 -228 0
-886 -156 -229 0
-886 -156 -230 0
-886 -156 -232 0
-886 -156 -233 0
-886 -156 -234 0
-886 -156 -264 0
-886 -156 -265 0
-886 -156 -266 0
-886 -156 -268 0
-886 -156 -269 0
-886 -156 -270 0
-886 -157 326 0
-886 -157 -174 -177 0
-886 -157 -205 0
-886 -157 -206 0
-886 -157 -209 0
-886 -157 -210 0
-886 -157 -229 0
-886 -157 -230 0
-886 -157 -233 0
-886 -157 -234 0
-886 -157 -265 0
-886 -157 -266 0
-886 -157 -269 0
-886 -157 -270 0
-886 -158 327 0
-886 -158 -174 -178 0
-886 -158 -206 0
-886 -158 -210 0
-886 -158 -230 0
-886 -158 -234 0
-886 -158 -266 0
-886 -158 -270 0
-887 297 0
-887 319 0
-887 -162 0
-887 -163 0
-887 -164 0
-887 -165 0
-887 -169 0
-887 -166 325 0
-887 -166 -170 -176 0
-887 -166 -188 0
-887 -166 -189 0
-887 -166 -190 0
-887 -166 -192 0
-887 -166 -193 0
-887 -166 -194 0
-887 -166 -212 0
-887 -166 -213 0
-887 -166 -214 0
-887 -166 -216 0
-887 -166 -217 0
-887 -166 -218 0
-887 -166 -256 0
-887 -166 -257 0
-887 -166 -258 0
-887 -166 -260 0
-887 -166 -261 0
-887 -166 -262 0
-887 -167 326 0
-887 -167 -170 -177 0
-887 -167 -189 0
-887 -167 -190 0
-887 -167 -193 0
-887 -167 -194 0
-887 -167 -213 0
-887 -167 -214 0
-887 -167 -217 0
-887 -167 -218 0
-887 -167 -257 0
-887 -167 -258 0
-887 -167 -261 0
-887 -167 -262 0
-887 -168 327 0
-887 -168 -170 -178 0
-887 -168 -190 0
-887 -168 -194 0
-887 -168 -214 0
-887 -168 -218 0
-887 -168 -258 0
-887 -168 -262 0
-888 297 0
-888 320 0
-888 -160 0
-888 -163 0
-888 -164 0
-888 -165 0
-888 -169 0
-888 -166 325 0
-888 -166 -171 -176 0
-888 -166 -192 0
-888 -166 -193 0
-888 -166 -194 0
-888 -166 -196 0
-888 -166 -197 0
-888 -166 -198 0
-888 -166 -216 0
-888 -166 -217 0
-888 -166 -218 0
-888 -166 -220 0
-888 -166 -221 0
-888 -166 -222 0
-888 -166 -256 0
-888 -166 -257 0
-888 -166 -258 0
-888 -166 -260 0
-888 -166 -261 0
-888 -166 -262 0
-888 -166 -264 0
-888 -166 -265 0
-888 -166 -266 0
-888 -167 326 0
-888 -167 -171 -177 0
-888 -167 -193 0
-888 -167 -194 0
-888 -167 -197 0
-888 -167 -198 0
-888 -167 -217 0
-888 -167 -218 0
-888 -167 -221 0
-888 -167 -222 0
-888 -167 -257 0
-888 -167 -258 0
-888 -167 -261 0
-888 -167 -262 0
-888 -167 -265 0
-888 -167 -266 0
-888 -168 327 0
-888 -168 -171 -178 0
-888 -168 -194 0
-888 -168 -198 0
-888 -168 -218 0
-888 -168 -222 0
-888 -168 -258 0
-888 -168 -262 0
-888 -168 -266 0
-889 297 0
-889 321 0
-889 -160 0
-889 -161 0
-889 -164 0
-889 -165 0
-889 -169 0
-889 -166 325 0
-889 -166 -172 -176 0
-889 -166 -196 0
-889 -166 -197 0
-889 -166 -198 0
-889 -166 -200 0
-889 -166 -201 0
-889 -166 -202 0
-889 -166 -220 0
-889 -166 -221 0
-889 -166 -222 0
-889 -166 -224 0
-889 -166 -225 0
-889 -166 -226 0
-889 -166 -256 0
-889 -166 -257 0
-889 -166 -258 0
-889 -166 -260 0
-889 -166 -261 0
-889 -166 -262 0
-889 -166 -264 0
-889 -166 -265 0
-889 -166 -266 0
-889 -166 -268 0
-889 -166 -269 0
-889 -166 -270 0
-889 -167 326 0
-889 -167 -172 -177 0
-889 -167 -197 0
-889 -167 -198 0
-889 -167 -201 0
-889 -167 -202 0
-889 -167 -221 0
-889 -167 -222 0
-889 -167 -225 0
-889 -167 -226 0
-889 -167 -257 0
-889 -167 -258 0
-889 -167 -261 0
-889 -167 -262 0
-889 -167 -265 0
-889 -167 -266 0
-889 -167 -269 0
-889 -167 -270 0
-889 -168 327 0
-889 -168 -172 -178 0
-889 -168 -198 0
-889 -168 -202 0
-889 -168 -222 0
-889 -168 -226 0
-889 -168 -258 0
-889 -168 -262 0
-889 -168 -266 0
-889 -168 -270 0
-890 297 0
-890 322 0
-890 -160 0
-890 -161 0
-890 -162 0
-890 -165 0
-890 -169 0
-890 -166 325 0
-890 -166 -173 -176 0
-890 -166 -200 0
-890 -166 -201 0
-890 -166 -202 0
-890 -166 -204 0
-890 -166 -205 0
-890 -166 -206 0
-890 -166 -224 0
-890 -166 -225 0
-890 -166 -226 0
-890 -166 -228 0
-890 -166 -229 0
-890 -166 -230 0
-890 -166 -260 0
-890 -166 -261 0
-890 -166 -262 0
-890 -166 -264 0
-890 -166 -265 0
-890 -166 -266 0
-890 -166 -268 0
-890 -166 -269 0
-890 -166 -270 0
-890 -167 326 0
-890 -167 -173 -177 0
-890 -167 -201 0
-890 -167 -202 0
-890 -167 -205 0
-890 -167 -206 0
-890 -167 -225 0
-890 -167 -226 0
-890 -167 -229 0
-890 -167 -230 0
-890 -167 -261 0
-890 -167 -262 0
-890 -167 -265 0
-890 -167 -266 0
-890 -167 -269 0
-890 -167 -270 0
-890 -168 327 0
-890 -168 -173 -178 0
-890 -168 -202 0
-890 -168 -206 0
-890 -168 -226 0
-890 -168 -230 0
-890 -168 -262 0
-890 -168 -266 0
-890 -168 -270 0
-891 297 0
-891 323 0
-891 -160 0
-891 -161 0
-891 -162 0
-891 -163 0
-891 -169 0
-891 -166 325 0
-891 -166 -174 -176 0
-891 -166 -204 0
-891 -166 -205 0
-891 -166 -206 0
-891 -166 -208 0
-891 -166 -209 0
-891 -166 -210 0
-891 -166 -228 0
-891 -166 -229 0
-891 -166 -230 0
-891 -166 -232 0
-891 -166 -233 0
-891 -166 -234 0
-891 -166 -264 0
-891 -166 -265 0
-891 -166 -266 0
-891 -166 -268 0
-891 -166 -269 0
-891 -166 -270 0
-891 -167 326 0
-891 -167 -174 -177 0
-891 -167 -205 0
-891 -167 -206 0
-891 -167 -209 0
-891 -167 -210 0
-891 -167 -229 0
-891 -167 -230 0
-891 -167 -233 0
-891 -167 -234 0
-891 -167 -265 0
-891 -167 -266 0
-891 -167 -269 0
-891 -167 -270 0
-891 -168 327 0
-891 -168 -174 -178 0
-891 -168 -206 0
-891 -168 -210 0
-891 -168 -230 0
-891 -168 -234 0
-891 -168 -266 0
-891 -168 -270 0
-892 297 0
-892 319 0
-892 -181 0
-892 -182 0
-892 -186 0
-892 -183 325 0
-892 -183 -170 -176 0
-892 -183 -188 0
-892 -183 -189 0
-892 -183 -190 0
-892 -183 -192 0
-892 -183 -193 0
-892 -183 -194 0
-892 -183 -212 0
-892 -183 -213 0
-892 -183 -214 0
-892 -183 -216 0
-892 -183 -217 0
-892 -183 -218 0
-892 -183 -256 0
-892 -183 -257 0
-892 -183 -258 0
-892 -183 -260 0
-892 -183 -261 0
-892 -183 -262 0
-892 -184 326 0
-892 -184 -170 -177 0
-892 -184 -189 0
-892 -184 -190 0
-892 -184 -193 0
-892 -184 -194 0
-892 -184 -213 0
-892 -184 -214 0
-892 -184 -217 0
-892 -184 -218 0
-892 -184 -257 0
-892 -184 -258 0
-892 -184 -261 0
-892 -184 -262 0
-892 -185 327 0
-892 -185 -170 -178 0
-892 -185 -190 0
-892 -185 -194 0
-892 -185 -214 0
-892 -185 -218 0
-892 -185 -258 0
-892 -185 -262 0
-893 297 0
-893 320 0
-893 -182 0
-893 -186 0
-893 -183 325 0
-893 -183 -171 -176 0
-893 -183 -192 0
-893 -183 -193 0
-893 -183 -194 0
-893 -183 -196 0
-893 -183 -197 0
-893 -183 -198 0
-893 -183 -216 0
-893 -183 -217 0
-893 -183 -218 0
-893 -183 -220 0
-893 -183 -221 0
-893 -183 -222 0
-893 -183 -256 0
-893 -183 -257 0
-893 -183 -258 0
-893 -183 -260 0
-893 -183 -261 0
-893 -183 -262 0
-893 -183 -264 0
-893 -183 -265 0
-893 -183 -266 0
-893 -184 326 0
-893 -184 -171 -177 0
-893 -184 -193 0
-893 -184 -194 0
-893 -184 -197 0
-893 -184 -198 0
-893 -184 -217 0
-893 -184 -218 0
-893 -184 -221 0
-893 -184 -222 0
-893 -184 -257 0
-893 -184 -258 0
-893 -184 -261 0
-893 -184 -262 0
-893 -184 -265 0
-893 -184 -266 0
-893 -185 327 0
-893 -185 -171 -178 0
-893 -185 -194 0
-893 -185 -198 0
-893 -185 -218 0
-893 -185 -222 0
-893 -185 -258 0
-893 -185 -262 0
-893 -185 -266 0
-894 297 0
-894 321 0
-894 -186 0
-894 -183 325 0
-894 -183 -172 -176 0
-894 -183 -196 0
-894 -183 -197 0
-894 -183 -198 0
-894 -183 -200 0
-894 -183 -201 0
-894 -183 -202 0
-894 -183 -220 0
-894 -183 -221 0
-894 -183 -222 0
-894 -183 -224 0
-894 -183 -225 0
-894 -183 -226 0
-894 -183 -256 0
-894 -183 -257 0
-894 -183 -258 0
-894 -183 -260 0
-894 -183 -261 0
-894 -183 -262 0
-894 -183 -264 0
-894 -183 -265 0
-894 -183 -266 0
-894 -183 -268 0
-894 -183 -269 0
-894 -183 -270 0
-894 -184 326 0
-894 -184 -172 -177 0
-894 -184 -197 0
-894 -184 -198 0
-894 -184 -201 0
-894 -184 -202 0
-894 -184 -221 0
-894 -184 -222 0
-894 -184 -225 0
-894 -184 -226 0
-894 -184 -257 0
-894 -184 -258 0
-894 -184 -261 0
-894 -184 -262 0
-894 -184 -265 0
-894 -184 -266 0
-894 -184 -269 0
-894 -184 -270 0
-894 -185 327 0
-894 -185 -172 -178 0
-894 -185 -198 0
-894 -185 -202 0
-894 -185 -222 0
-894 -185 -226 0
-894 -185 -258 0
-894 -185 -262 0
-894 -185 -266 0
-894 -185 -270 0
-895 297 0
-895 322 0
-895 -179 0
-895 -186 0
-895 -183 325 0
-895 -183 -173 -176 0
-895 -183 -200 0
-895 -183 -201 0
-895 -183 -202 0
-895 -183 -204 0
-895 -183 -205 0
-895 -183 -206 0
-895 -183 -224 0
-895 -183 -225 0
-895 -183 -226 0
-895 -183 -228 0
-895 -183 -229 0
-895 -183 -230 0
-895 -183 -260 0
-895 -183 -261 0
-895 -183 -262 0
-895 -183 -264 0
-895 -183 -265 0
-895 -183 -266 0
-895 -183 -268 0
-895 -183 -269 0
-895 -183 -270 0
-895 -184 326 0
-895 -184 -173 -177 0
-895 -184 -201 0
-895 -184 -202 0
-895 -184 -205 0
-895 -184 -206 0
-895 -184 -225 0
-895 -184 -226 0
-895 -184 -229 0
-895 -184 -230 0
-895 -184 -261 0
-895 -184 -262 0
-895 -184 -265 0
-895 -184 -266 0
-895 -184 -269 0
-895 -184 -270 0
-895 -185 327 0
-895 -185 -173 -178 0
-895 -185 -202 0
-895 -185 -206 0
-895 -185 -226 0
-895 -185 -230 0
-895 -185 -262 0
-895 -185 -266 0
-895 -185 -270 0
-896 297 0
-896 323 0
-896 -179 0
-896 -180 0
-896 -186 0
-896 -183 325 0
-896 -183 -174 -176 0
-896 -183 -204 0
-896 -183 -205 0
-896 -183 -206 0
-896 -183 -208 0
-896 -183 -209 0
-896 -183 -210 0
-896 -183 -228 0
-896 -183 -229 0
-896 -183 -230 0
-896 -183 -232 0
-896 -183 -233 0
-896 -183 -234 0
-896 -183 -264 0
-896 -183 -265 0
-896 -183 -266 0
-896 -183 -268 0
-896 -183 -269 0
-896 -183 -270 0
-896 -184 326 0
-896 -184 -174 -177 0
-896 -184 -205 0
-896 -184 -206 0
-896 -184 -209 0
-896 -184 -210 0
-896 -184 -229 0
-896 -184 -230 0
-896 -184 -233 0
-896 -184 -234 0
-896 -184 -265 0
-896 -184 -266 0
-896 -184 -269 0
-896 -184 -270 0
-896 -185 327 0
-896 -185 -174 -178 0
-896 -185 -206 0
-896 -185 -210 0
-896 -185 -230 0
-896 -185 -234 0
-896 -185 -266 0
-896 -185 -270 0
-897 297 0
-897 319 0
-897 324 0
-897 -170 -175 0
-897 -187 0
-897 -188 0
-897 -189 0
-897 -190 0
-897 -191 0
-897 -192 0
-897 -193 0
-897 -194 0
-897 -211 0
-897 -212 0
-897 -213 0
-897 -214 0
-897 -215 0
-897 -216 0
-897 -217 0
-897 -218 0
-897 -255 0
-897 -256 0
-897 -257 0
-897 -258 0
-897 -259 0
-897 -260 0
-897 -261 0
-897 -262 0
-898 297 0
-898 320 0
-898 324 0
-898 -171 -175 0
-898 -191 0
-898 -192 0
-898 -193 0
-898 -194 0
-898 -195 0
-898 -196 0
-898 -197 0
-898 -198 0
-898 -215 0
-898 -216 0
-898 -217 0
-898 -218 0
-898 -219 0
-898 -220 0
-898 -221 0
-898 -222 0
-898 -255 0
-898 -256 0
-898 -257 0
-898 -258 0
-898 -259 0
-898 -260 0
-898 -261 0
-898 -262 0
-898 -263 0
-898 -264 0
-898 -265 0
-898 -266 0
-899 297 0
-899 321 0
-899 324 0
-899 -172 -175 0
-899 -195 0
-899 -196 0
-899 -197 0
-899 -198 0
-899 -199 0
-899 -200 0
-899 -201 0
-899 -202 0
-899 -219 0
-899 -220 0
-899 -221 0
-899 -222 0
-899 -223 0
-899 -224 0
-899 -225 0
-899 -226 0
-899 -255 0
-899 -256 0
-899 -257 0
-899 -258 0
-899 -259 0
-899 -260 0
-899 -261 0
-899 -262 0
-899 -263 0
-899 -264 0
-899 -265 0
-899 -266 0
-899 -267 0
-899 -268 0
-899 -269 0
-899 -270 0
-900 297 0
-900 322 0
-900 324 0
-900 -173 -175 0
-900 -199 0
-900 -200 0
-900 -201 0
-900 -202 0
-900 -203 0
-900 -204 0
-900 -205 0
-900 -206 0
-900 -223 0
-900 -224 0
-900 -225 0
-900 -226 0
-900 -227 0
-900 -228 0
-900 -229 0
-900 -230 0
-900 -259 0
-900 -260 0
-900 -261 0
-900 -262 0
-900 -263 0
-900 -264 0
-900 -265 0
-900 -266 0
-900 -267 0
-900 -268 0
-900 -269 0
-900 -270 0
-901 297 0
-901 323 0
-901 324 0
-901 -174 -175 0
-901 -203 0
-901 -204 0
-901 -205 0
-901 -206 0
-901 -207 0
-901 -208 0
-901 -209 0
-901 -210 0
-901 -227 0
-901 -228 0
-901 -229 0
-901 -230 0
-901 -231 0
-901 -232 0
-901 -233 0
-901 -234 0
-901 -263 0
-901 -264 0
-901 -265 0
-901 -266 0
-901 -267 0
-901 -268 0
-901 -269 0
-901 -270 0
-902 298 0
-902 328 0
-902 -153 0
-902 -154 0
-902 -155 0
-902 -159 0
-902 -156 333 0
-902 -156 -179 -184 0
-902 -156 -188 0
-902 -156 -189 0
-902 -156 -190 0
-902 -156 -192 0
-902 -156 -193 0
-902 -156 -194 0
-902 -156 -196 0
-902 -156 -197 0
-902 -156 -198 0
-902 -156 -212 0
-902 -156 -213 0
-902 -156 -214 0
-902 -156 -216 0
-902 -156 -217 0
-902 -156 -218 0
-902 -156 -220 0
-902 -156 -221 0
-902 -156 -222 0
-902 -156 -236 0
-902 -156 -237 0
-902 -156 -238 0
-902 -156 -240 0
-902 -156 -241 0
-902 -156 -242 0
-902 -156 -244 0
-902 -156 -245 0
-902 -156 -246 0
-902 -157 334 0
-902 -157 -179 -185 0
-902 -157 -189 0
-902 -157 -190 0
-902 -157 -193 0
-902 -157 -194 0
-902 -157 -197 0
-902 -157 -198 0
-902 -157 -213 0
-902 -157 -214 0
-902 -157 -217 0
-902 -157 -218 0
-902 -157 -221 0
-902 -157 -222 0
-902 -157 -237 0
-902 -157 -238 0
-902 -157 -241 0
-902 -157 -242 0
-902 -157 -245 0
-902 -157 -246 0
-902 -158 335 0
-902 -158 -179 -186 0
-902 -158 -190 0
-902 -158 -194 0
-902 -158 -198 0
-902 -158 -214 0
-902 -158 -218 0
-902 -158 -222 0
-902 -158 -238 0
-902 -158 -242 0
-902 -158 -246 0
-903 298 0
-903 329 0
-903 -150 0
-903 -154 0
-903 -155 0
-903 -159 0
-903 -156 333 0
-903 -156 -180 -184 0
-903 -156 -192 0
-903 -156 -193 0
-903 -156 -194 0
-903 -156 -196 0
-903 -156 -197 0
-903 -156 -198 0
-903 -156 -200 0
-903 -156 -201 0
-903 -156 -202 0
-903 -156 -216 0
-903 -156 -217 0
-903 -156 -218 0
-903 -156 -220 0
-903 -156 -221 0
-903 -156 -222 0
-903 -156 -224 0
-903 -156 -225 0
-903 -156 -226 0
-903 -156 -236 0
-903 -156 -237 0
-903 -156 -238 0
-903 -156 -240 0
-903 -156 -241 0
-903 -156 -242 0
-903 -156 -244 0
-903 -156 -245 0
-903 -156 -246 0
-903 -156 -248 0
-903 -156 -249 0
-903 -156 -250 0
-903 -157 334 0
-903 -157 -180 -185 0
-903 -157 -193 0
-903 -157 -194 0
-903 -157 -197 0
-903 -157 -198 0
-903 -157 -201 0
-903 -157 -202 0
-903 -157 -217 0
-903 -157 -218 0
-903 -157 -221 0
-903 -157 -222 0
-903 -157 -225 0
-903 -157 -226 0
-903 -157 -237 0
-903 -157 -238 0
-903 -157 -241 0
-903 -157 -242 0
-903 -157 -245 0
-903 -157 -246 0
-903 -157 -249 0
-903 -157 -250 0
-903 -158 335 0
-903 -158 -180 -186 0
-903 -158 -194 0
-903 -158 -198 0
-903 -158 -202 0
-903 -158 -218 0
-903 -158 -222 0
-903 -158 -226 0
-903 -158 -238 0
-903 -158 -242 0
-903 -158 -246 0
-903 -158 -250 0
-904 298 0
-904 330 0
-904 -150 0
-904 -151 0
-904 -155 0
-904 -159 0
-904 -156 333 0
-904 -156 -181 -184 0
-904 -156 -196 0
-904 -156 -197 0
-904 -156 -198 0
-904 -156 -200 0
-904 -156 -201 0
-904 -156 -202 0
-904 -156 -204 0
-904 -156 -205 0
-904 -156 -206 0
-904 -156 -220 0
-904 -156 -221 0
-904 -156 -222 0
-904 -156 -224 0
-904 -156 -225 0
-904 -156 -226 0
-904 -156 -228 0
-904 -156 -229 0
-904 -156 -230 0
-904 -156 -240 0
-904 -156 -241 0
-904 -156 -242 0
-904 -156 -244 0
-904 -156 -245 0
-904 -156 -246 0
-904 -156 -248 0
-904 -156 -249 0
-904 -156 -250 0
-904 -156 -252 0
-904 -156 -253 0
-904 -156 -254 0
-904 -157 334 0
-904 -157 -181 -185 0
-904 -157 -197 0
-904 -157 -198 0
-904 -157 -201 0
-904 -157 -202 0
-904 -157 -205 0
-904 -157 -206 0
-904 -157 -221 0
-904 -157 -222 0
-904 -157 -225 0
-904 -157 -226 0
-904 -157 -229 0
-904 -157 -230 0
-904 -157 -241 0
-904 -157 -242 0
-904 -157 -245 0
-904 -157 -246 0
-904 -157 -249 0
-904 -157 -250 0
-904 -157 -253 0
-904 -157 -254 0
-904 -158 335 0
-904 -158 -181 -186 0
-904 -158 -198 0
-904 -158 -202 0
-904 -158 -206 0
-904 -158 -222 0
-904 -158 -226 0
-904 -158 -230 0
-904 -158 -242 0
-904 -158 -246 0
-904 -158 -250 0
-904 -158 -254 0
-905 298 0
-905 331 0
-905 -150 0
-905 -151 0
-905 -152 0
-905 -159 0
-905 -156 333 0
-905 -156 -182 -184 0
-905 -156 -200 0
-905 -156 -201 0
-905 -156 -202 0
-905 -156 -204 0
-905 -156 -205 0
-905 -156 -206 0
-905 -156 -208 0
-905 -156 -209 0
-905 -156 -210 0
-905 -156 -224 0
-905 -156 -225 0
-905 -156 -226 0
-905 -156 -228 0
-905 -156 -229 0
-905 -156 -230 0
-905 -156 -232 0
-905 -156 -233 0
-905 -156 -234 0
-905 -156 -244 0
-905 -156 -245 0
-905 -156 -246 0
-905 -156 -248 0
-905 -156 -249 0
-905 -156 -250 0
-905 -156 -252 0
-905 -156 -253 0
-905 -156 -254 0
-905 -157 334 0
-905 -157 -182 -185 0
-905 -157 -201 0
-905 -157 -202 0
-905 -157 -205 0
-905 -157 -206 0
-905 -157 -209 0
-905 -157 -210 0
-905 -157 -225 0
-905 -157 -226 0
-905 -157 -229 0
-905 -157 -230 0
-905 -157 -233 0
-905 -157 -234 0
-905 -157 -245 0
-905 -157 -246 0
-905 -157 -249 0
-905 -157 -250 0
-905 -157 -253 0
-905 -157 -254 0
-905 -158 335 0
-905 -158 -182 -186 0
-905 -158 -202 0
-905 -158 -206 0
-905 -158 -210 0
-905 -158 -226 0
-905 -158 -230 0
-905 -158 -234 0
-905 -158 -246 0
-905 -158 -250 0
-905 -158 -254 0
-906 298 0
-906 328 0
-906 -163 0
-906 -164 0
-906 -165 0
-906 -169 0
-906 -166 333 0
-906 -166 -179 -184 0
-906 -166 -188 0
-906 -166 -189 0
-906 -166 -190 0
-906 -166 -192 0
-906 -166 -193 0
-906 -166 -194 0
-906 -166 -196 0
-906 -166 -197 0
-906 -166 -198 0
-906 -166 -212 0
-906 -166 -213 0
-906 -166 -214 0
-906 -166 -216 0
-906 -166 -217 0
-906 -166 -218 0
-906 -166 -220 0
-906 -166 -221 0
-906 -166 -222 0
-906 -166 -236 0
-906 -166 -237 0
-906 -166 -238 0
-906 -166 -240 0
-906 -166 -241 0
-906 -166 -242 0
-906 -166 -244 0
-906 -166 -245 0
-906 -166 -246 0
-906 -167 334 0
-906 -167 -179 -185 0
-906 -167 -189 0
-906 -167 -190 0
-906 -167 -193 0
-906 -167 -194 0
-906 -167 -197 0
-906 -167 -198 0
-906 -167 -213 0
-906 -167 -214 0
-906 -167 -217 0
-906 -167 -218 0
-906 -167 -221 0
-906 -167 -222 0
-906 -167 -237 0
-906 -167 -238 0
-906 -167 -241 0
-906 -167 -242 0
-906 -167 -245 0
-906 -167 -246 0
-906 -168 335 0
-906 -168 -179 -186 0
-906 -168 -190 0
-906 -168 -194 0
-906 -168 -198 0
-906 -168 -214 0
-906 -168 -218 0
-906 -168 -222 0
-906 -168 -238 0
-906 -168 -242 0
-906 -168 -246 0
-907 298 0
-907 329 0
-907 -160 0
-907 -164 0
-907 -165 0
-907 -169 0
-907 -166 333 0
-907 -166 -180 -184 0
-907 -166 -192 0
-907 -166 -193 0
-907 -166 -194 0
-907 -166 -196 0
-907 -166 -197 0
-907 -166 -198 0
-907 -166 -200 0
-907 -166 -201 0
-907 -166 -202 0
-907 -166 -216 0
-907 -166 -217 0
-907 -166 -218 0
-907 -166 -220 0
-907 -166 -221 0
-907 -166 -222 0
-907 -166 -224 0
-907 -166 -225 0
-907 -166 -226 0
-907 -166 -236 0
-907 -166 -237 0
-907 -166 -238 0
-907 -166 -240 0
-907 -166 -241 0
-907 -166 -242 0
-907 -166 -244 0
-907 -166 -245 0
-907 -166 -246 0
-907 -166 -248 0
-907 -166 -249 0
-907 -166 -250 0
-907 -167 334 0
-907 -167 -180 -185 0
-907 -167 -193 0
-907 -167 -194 0
-907 -167 -197 0
-907 -167 -198 0
-907 -167 -201 0
-907 -167 -202 0
-907 -167 -217 0
-907 -167 -218 0
-907 -167 -221 0
-907 -167 -222 0
-907 -167 -225 0
-907 -167 -226 0
-907 -167 -237 0
-907 -167 -238 0
-907 -167 -241 0
-907 -167 -242 0
-907 -167 -245 0
-907 -167 -246 0
-907 -167 -249 0
-907 -167 -250 0
-907 -168 335 0
-907 -168 -180 -186 0
-907 -168 -194 0
-907 -168 -198 0
-907 -168 -202 0
-907 -168 -218 0
-907 -168 -222 0
-907 -168 -226 0
-907 -168 -238 0
-907 -168 -242 0
-907 -168 -246 0
-907 -168 -250 0
-908 298 0
-908 330 0
-908 -160 0
-908 -161 0
-908 -165 0
-908 -169 0
-908 -166 333 0
-908 -166 -181 -184 0
-908 -166 -196 0
-908 -166 -197 0
-908 -166 -198 0
-908 -166 -200 0
-908 -166 -201 0
-908 -166 -202 0
-908 -166 -204 0
-908 -166 -205 0
-908 -166 -206 0
-908 -166 -220 0
-908 -166 -221 0
-908 -166 -222 0
-908 -166 -224 0
-908 -166 -225 0
-908 -166 -226 0
-908 -166 -228 0
-908 -166 -229 0
-908 -166 -230 0
-908 -166 -240 0
-908 -166 -241 0
-908 -166 -242 0
-908 -166 -244 0
-908 -166 -245 0
-908 -166 -246 0
-908 -166 -248 0
-908 -166 -249 0
-908 -166 -250 0
-908 -166 -252 0
-908 -166 -253 0
-908 -166 -254 0
-908 -167 334 0
-908 -167 -181 -185 0
-908 -167 -197 0
-908 -167 -198 0
-908 -167 -201 0
-908 -167 -202 0
-908 -167 -205 0
-908 -167 -206 0
-908 -167 -221 0
-908 -167 -222 0
-908 -167 -225 0
-908 -167 -226 0
-908 -167 -229 0
-908 -167 -230 0
-908 -167 -241 0
-908 -167 -242 0
-908 -167 -245 0
-908 -167 -246 0
-908 -167 -249 0
-908 -167 -250 0
-908 -167 -253 0
-908 -167 -254 0
-908 -168 335 0
-908 -168 -181 -186 0
-908 -168 -198 0
-908 -168 -202 0
-908 -168 -206 0
-908 -168 -222 0
-908 -168 -226 0
-908 -168 -230 0
-908 -168 -242 0
-908 -168 -246 0
-908 -168 -250 0
-908 -168 -254 0
-909 298 0
-909 331 0
-909 -160 0
-909 -161 0
-909 -162 0
-909 -169 0
-909 -166 333 0
-909 -166 -182 -184 0
-909 -166 -200 0
-909 -166 -201 0
-909 -166 -202 0
-909 -166 -204 0
-909 -166 -205 0
-909 -166 -206 0
-909 -166 -208 0
-909 -166 -209 0
-909 -166 -210 0
-909 -166 -224 0
-909 -166 -225 0
-909 -166 -226 0
-909 -166 -228 0
-909 -166 -229 0
-909 -166 -230 0
-909 -166 -232 0
-909 -166 -233 0
-909 -166 -234 0
-909 -166 -244 0
-909 -166 -245 0
-909 -166 -246 0
-909 -166 -248 0
-909 -166 -249 0
-909 -166 -250 0
-909 -166 -252 0
-909 -166 -253 0
-909 -166 -254 0
-909 -167 334 0
-909 -167 -182 -185 0
-909 -167 -201 0
-909 -167 -202 0
-909 -167 -205 0
-909 -167 -206 0
-909 -167 -209 0
-909 -167 -210 0
-909 -167 -225 0
-909 -167 -226 0
-909 -167 -229 0
-909 -167 -230 0
-909 -167 -233 0
-909 -167 -234 0
-909 -167 -245 0
-909 -167 -246 0
-909 -167 -249 0
-909 -167 -250 0
-909 -167 -253 0
-909 -167 -254 0
-909 -168 335 0
-909 -168 -182 -186 0
-909 -168 -202 0
-909 -168 -206 0
-909 -168 -210 0
-909 -168 -226 0
-909 -168 -230 0
-909 -168 -234 0
-909 -168 -246 0
-909 -168 -250 0
-909 -168 -254 0
-910 298 0
-910 328 0
-910 -173 0
-910 -174 0
-910 -178 0
-910 -175 333 0
-910 -175 -179 -184 0
-910 -175 -188 0
-910 -175 -189 0
-910 -175 -190 0
-910 -175 -192 0
-910 -175 -193 0
-910 -175 -194 0
-910 -175 -196 0
-910 -175 -197 0
-910 -175 -198 0
-910 -175 -212 0
-910 -175 -213 0
-910 -175 -214 0
-910 -175 -216 0
-910 -175 -217 0
-910 -175 -218 0
-910 -175 -220 0
-910 -175 -221 0
-910 -175 -222 0
-910 -175 -236 0
-910 -175 -237 0
-910 -175 -238 0
-910 -175 -240 0
-910 -175 -241 0
-910 -175 -242 0
-910 -175 -244 0
-910 -175 -245 0
-910 -175 -246 0
-910 -176 334 0
-910 -176 -179 -185 0
-910 -176 -189 0
-910 -176 -190 0
-910 -176 -193 0
-910 -176 -194 0
-910 -176 -197 0
-910 -176 -198 0
-910 -176 -213 0
-910 -176 -214 0
-910 -176 -217 0
-910 -176 -218 0
-910 -176 -221 0
-910 -176 -222 0
-910 -176 -237 0
-910 -176 -238 0
-910 -176 -241 0
-910 -176 -242 0
-910 -176 -245 0
-910 -176 -246 0
-910 -177 335 0
-910 -177 -179 -186 0
-910 -177 -190 0
-910 -177 -194 0
-910 -177 -198 0
-910 -177 -214 0
-910 -177 -218 0
-910 -177 -222 0
-910 -177 -238 0
-910 -177 -242 0
-910 -177 -246 0
-911 298 0
-911 329 0
-911 -174 0
-911 -178 0
-911 -175 333 0
-911 -175 -180 -184 0
-911 -175 -192 0
-911 -175 -193 0
-911 -175 -194 0
-911 -175 -196 0
-911 -175 -197 0
-911 -175 -198 0
-911 -175 -200 0
-911 -175 -201 0
-911 -175 -202 0
-911 -175 -216 0
-911 -175 -217 0
-911 -175 -218 0
-911 -175 -220 0
-911 -175 -221 0
-911 -175 -222 0
-911 -175 -224 0
-911 -175 -225 0
-911 -175 -226 0
-911 -175 -236 0
-911 -175 -237 0
-911 -175 -238 0
-911 -175 -240 0
-911 -175 -241 0
-911 -175 -242 0
-911 -175 -244 0
-911 -175 -245 0
-911 -175 -246 0
-911 -175 -248 0
-911 -175 -249 0
-911 -175 -250 0
-911 -176 334 0
-911 -176 -180 -185 0
-911 -176 -193 0
-911 -176 -194 0
-911 -176 -197 0
-911 -176 -198 0
-911 -176 -201 0
-911 -176 -202 0
-911 -176 -217 0
-911 -176 -218 0
-911 -176 -221 0
-911 -176 -222 0
-911 -176 -225 0
-911 -176 -226 0
-911 -176 -237 0
-911 -176 -238 0
-911 -176 -241 0
-911 -176 -242 0
-911 -176 -245 0
-911 -176 -246 0
-911 -176 -249 0
-911 -176 -250 0
-911 -177 335 0
-911 -177 -180 -186 0
-911 -177 -194 0
-911 -177 -198 0
-911 -177 -202 0
-911 -177 -218 0
-911 -177 -222 0
-911 -177 -226 0
-911 -177 -238 0
-911 -177 -242 0
-911 -177 -246 0
-911 -177 -250 0
-912 298 0
-912 330 0
-912 -170 0
-912 -178 0
-912 -175 333 0
-912 -175 -181 -184 0
-912 -175 -196 0
-912 -175 -197 0
-912 -175 -198 0
-912 -175 -200 0
-912 -175 -201 0
-912 -175 -202 0
-912 -175 -204 0
-912 -175 -205 0
-912 -175 -206 0
-912 -175 -220 0
-912 -175 -221 0
-912 -175 -222 0
-912 -175 -224 0
-912 -175 -225 0
-912 -175 -226 0
-912 -175 -228 0
-912 -175 -229 0
-912 -175 -230 0
-912 -175 -240 0
-912 -175 -241 0
-912 -175 -242 0
-912 -175 -244 0
-912 -175 -245 0
-912 -175 -246 0
-912 -175 -248 0
-912 -175 -249 0
-912 -175 -250 0
-912 -175 -252 0
-912 -175 -253 0
-912 -175 -254 0
-912 -176 334 0
-912 -176 -181 -185 0
-912 -176 -197 0
-912 -176 -198 0
-912 -176 -201 0
-912 -176 -202 0
-912 -176 -205 0
-912 -176 -206 0
-912 -176 -221 0
-912 -176 -222 0
-912 -176 -225 0
-912 -176 -226 0
-912 -176 -229 0
-912 -176 -230 0
-912 -176 -241 0
-912 -176 -242 0
-912 -176 -245 0
-912 -176 -246 0
-912 -176 -249 0
-912 -176 -250 0
-912 -176 -253 0
-912 -176 -254 0
-912 -177 335 0
-912 -177 -181 -186 0
-912 -177 -198 0
-912 -177 -202 0
-912 -177 -206 0
-912 -177 -222 0
-912 -177 -226 0
-912 -177 -230 0
-912 -177 -242 0
-912 -177 -246 0
-912 -177 -250 0
-912 -177 -254 0
-913 298 0
-913 331 0
-913 -170 0
-913 -171 0
-913 -178 0
-913 -175 333 0
-913 -175 -182 -184 0
-913 -175 -200 0
-913 -175 -201 0
-913 -175 -202 0
-913 -175 -204 0
-913 -175 -205 0
-913 -175 -206 0
-913 -175 -208 0
-913 -175 -209 0
-913 -175 -210 0
-913 -175 -224 0
-913 -175 -225 0
-913 -175 -226 0
-913 -175 -228 0
-913 -175 -229 0
-913 -175 -230 0
-913 -175 -232 0
-913 -175 -233 0
-913 -175 -234 0
-913 -175 -244 0
-913 -175 -245 0
-913 -175 -246 0
-913 -175 -248 0
-913 -175 -249 0
-913 -175 -250 0
-913 -175 -252 0
-913 -175 -253 0
-913 -175 -254 0
-913 -176 334 0
-913 -176 -182 -185 0
-913 -176 -201 0
-913 -176 -202 0
-913 -176 -205 0
-913 -176 -206 0
-913 -176 -209 0
-913 -176 -210 0
-913 -176 -225 0
-913 -176 -226 0
-913 -176 -229 0
-913 -176 -230 0
-913 -176 -233 0
-913 -176 -234 0
-913 -176 -245 0
-913 -176 -246 0
-913 -176 -249 0
-913 -176 -250 0
-913 -176 -253 0
-913 -176 -254 0
-913 -177 335 0
-913 -177 -182 -186 0
-913 -177 -202 0
-913 -177 -206 0
-913 -177 -210 0
-913 -177 -226 0
-913 -177 -230 0
-913 -177 -234 0
-913 -177 -246 0
-913 -177 -250 0
-913 -177 -254 0
-914 298 0
-914 328 0
-914 332 0
-914 -179 -183 0
-914 -187 0
-914 -188 0
-914 -189 0
-914 -190 0
-914 -191 0
-914 -192 0
-914 -193 0
-914 -194 0
-914 -195 0
-914 -196 0
-914 -197 0
-914 -198 0
-914 -211 0
-914 -212 0
-914 -213 0
-914 -214 0
-914 -215 0
-914 -216 0
-914 -217 0
-914 -218 0
-914 -219 0
-914 -220 0
-914 -221 0
-914 -222 0
-914 -235 0
-914 -236 0
-914 -237 0
-914 -238 0
-914 -239 0
-914 -240 0
-914 -241 0
-914 -242 0
-914 -243 0
-914 -244 0
-914 -245 0
-914 -246 0
-915 298 0
-915 329 0
-915 332 0
-915 -180 -183 0
-915 -191 0
-915 -192 0
-915 -193 0
-915 -194 0
-915 -195 0
-915 -196 0
-915 -197 0
-915 -198 0
-915 -199 0
-915 -200 0
-915 -201 0
-915 -202 0
-915 -215 0
-915 -216 0
-915 -217 0
-915 -218 0
-915 -219 0
-915 -220 0
-915 -221 0
-915 -222 0
-915 -223 0
-915 -224 0
-915 -225 0
-915 -226 0
-915 -235 0
-915 -236 0
-915 -237 0
-915 -238 0
-915 -239 0
-915 -240 0
-915 -241 0
-915 -242 0
-915 -243 0
-915 -244 0
-915 -245 0
-915 -246 0
-915 -247 0
-915 -248 0
-915 -249 0
-915 -250 0
-916 298 0
-916 330 0
-916 332 0
-916 -181 -183 0
-916 -195 0
-916 -196 0
-916 -197 0
-916 -198 0
-916 -199 0
-916 -200 0
-916 -201 0
-916 -202 0
-916 -203 0
-916 -204 0
-916 -205 0
-916 -206 0
-916 -219 0
-916 -220 0
-916 -221 0
-916 -222 0
-916 -223 0
-916 -224 0
-916 -225 0
-916 -226 0
-916 -227 0
-916 -228 0
-916 -229 0
-916 -230 0
-916 -239 0
-916 -240 0
-916 -241 0
-916 -242 0
-916 -243 0
-916 -244 0
-916 -245 0
-916 -246 0
-916 -247 0
-916 -248 0
-916 -249 0
-916 -250 0
-916 -251 0
-916 -252 0
-916 -253 0
-916 -254 0
-917 298 0
-917 331 0
-917 332 0
-917 -182 -183 0
-917 -199 0
-917 -200 0
-917 -201 0
-917 -202 0
-917 -203 0
-917 -204 0
-917 -205 0
-917 -206 0
-917 -207 0
-917 -208 0
-917 -209 0
-917 -210 0
-917 -223 0
-917 -224 0
-917 -225 0
-917 -226 0
-917 -227 0
-917 -228 0
-917 -229 0
-917 -230 0
-917 -231 0
-917 -232 0
-917 -233 0
-917 -234 0
-917 -243 0
-917 -244 0
-917 -245 0
-917 -246 0
-917 -247 0
-917 -248 0
-917 -249 0
-917 -250 0
-917 -251 0
-917 -252 0
-917 -253 0
-917 -254 0
922 923 924 925 926 927 928 929 930 931 932 933 934 935 936 937 938 939 940 941 942 943 944 945 946 947 948 949 950 951 952 953 954 955 956 957 958 959 960 961 962 963 964 965 966 967 968 969 970 971 972 973 974 975 976 977 978 979 980 981 982 983 984 985 986 987 988 989 990 991 992 993 994 995 996 997 998 999 1000 1001 1002 1003 1004 1005 0
-922 -923 0
-922 -924 0
-922 -925 0
-922 -926 0
-922 -927 0
-922 -928 0
-922 -929 0
-922 -930 0
-922 -931 0
-922 -932 0
-922 -933 0
-922 -934 0
-922 -935 0
-922 -936 0
-922 -937 0
-922 -938 0
-922 -939 0
-922 -940 0
-922 -941 0
-922 -942 0
-922 -943 0
-922 -944 0
-922 -945 0
-922 -946 0
-922 -947 0
-922 -948 0
-922 -949 0
-922 -950 0
-922 -951 0
-922 -952 0
-922 -953 0
-922 -954 0
-922 -955 0
-922 -956 0
-922 -957 0
-922 -958 0
-922 -959 0
-922 -960 0
-922 -961 0
-922 -962 0
-922 -963 0
-922 -964 0
-922 -965 0
-922 -966 0
-922 -967 0
-922 -968 0
-922 -969 0
-922 -970 0
-922 -971 0
-922 -972 0
-922 -973 0
-922 -974 0
-922 -975 0
-922 -976 0
-922 -977 0
-922 -978 0
-922 -979 0
-922 -980 0
-922 -981 0
-922 -982 0
-922 -983 0
-922 -984 0
-922 -985 0
-922 -986 0
-922 -987 0
-922 -988 0
-922 -989 0
-922 -990 0
-922 -991 0
-922 -992 0
-922 -993 0
-922 -994 0
-922 -995 0
-922 -996 0
-922 -997 0
-922 -998 0
-922 -999 0
-922 -1000 0
-922 -1001 0
-922 -1002 0
-922 -1003 0
-922 -1004 0
-922 -1005 0
-923 -924 0
-923 -925 0
-923 -926 0
-923 -927 0
-923 -928 0
-923 -929 0
-923 -930 0
-923 -931 0
-923 -932 0
-923 -933 0
-923 -934 0
-923 -935 0
-923 -936 0
-923 -937 0
-923 -938 0
-923 -939 0
-923 -940 0
-923 -941 0
-923 -942 0
-923 -943 0
-923 -944 0
-923 -945 0
-923 -946 0
-923 -947 0
-923 -948 0
-923 -949 0
-923 -950 0
-923 -951 0
-923 -952 0
-923 -953 0
-923 -954 0
-923 -955 0
-923 -956 0
-923 -957 0
-923 -958 0
-923 -959 0
-923 -960 0
-923 -961 0
-923 -962 0
-923 -963 0
-923 -964 0
-923 -965 0
-923 -966 0
-923 -967 0
-923 -968 0
-923 -969 0
-923 -970 0
-923 -971 0
-923 -972 0
-923 -973 0
-923 -974 0
-923 -975 0
-923 -976 0
-923 -977 0
-923 -978 0
-923 -979 0
-923 -980 0
-923 -981 0
-923 -982 0
-923 -983 0
-923 -984 0
-923 -985 0
-923 -986 0
-923 -987 0
-923 -988 0
-923 -989 0
-923 -990 0
-923 -991 0
-923 -992 0
-923 -993 0
-923 -994 0
-923 -995 0
-923 -996 0
-923 -997 0
-923 -998 0
-923 -999 0
-923 -1000 0
-923 -1001 0
-923 -1002 0
-923 -1003 0
-923 -1004 0
-923 -1005 0
-924 -925 0
-924 -926 0
-924 -927 0
-924 -928 0
-924 -929 0
-924 -930 0
-924 -931 0
-924 -932 0
-924 -933 0
-924 -934 0
-924 -935 0
-924 -936 0
-924 -937 0
-924 -938 0
-924 -939 0
-924 -940 0
-924 -941 0
-924 -942 0
-924 -943 0
-924 -944 0
-924 -945 0
-924 -946 0
-924 -947 0
-924 -948 0
-924 -949 0
-924 -950 0
-924 -951 0
-924 -952 0
-924 -953 0
-924 -954 0
-924 -955 0
-924 -956 0
-924 -957 0
-924 -958 0
-924 -959 0
-924 -960 0
-924 -961 0
-924 -962 0
-924 -963 0
-924 -964 0
-924 -965 0
-924 -966 0
-924 -967 0
-924 -968 0
-924 -969 0
-924 -970 0
-924 -971 0
-924 -972 0
-924 -973 0
-924 -974 0
-924 -975 0
-924 -976 0
-924 -977 0
-924 -978 0
-924 -979 0
-924 -980 0
-924 -981 0
-924 -982 0
-924 -983 0
-924 -984 0
-924 -985 0
-924 -986 0
-924 -987 0
-924 -988 0
-924 -989 0
-924 -990 0
-924 -991 0
-924 -992 0
-924 -993 0
-924 -994 0
-924 -995 0
-924 -996 0
-924 -997 0
-924 -998 0
-924 -999 0
-924 -1000 0
-924 -1001 0
-924 -1002 0
-924 -1003 0
-924 -1004 0
-924 -1005 0
-925 -926 0
-925 -927 0
-925 -928 0
-925 -929 0
-925 -930 0
-925 -931 0
-925 -932 0
-925 -933 0
-925 -934 0
-925 -935 0
-925 -936 0
-925 -937 0
-925 -938 0
-925 -939 0
-925 -940 0
-925 -941 0
-925 -942 0
-925 -943 0
-925 -944 0
-925 -945 0
-925 -946 0
-925 -947 0
-925 -948 0
-925 -949 0
-925 -950 0
-925 -951 0
-925 -952 0
-925 -953 0
-925 -954 0
-925 -955 0
-925 -956 0
-925 -957 0
-925 -958 0
-925 -959 0
-925 -960 0
-925 -961 0
-925 -962 0
-925 -963 0
-925 -964 0
-925 -965 0
-925 -966 0
-925 -967 0
-925 -968 0
-925 -969 0
-925 -970 0
-925 -971 0
-925 -972 0
-925 -973 0
-925 -974 0
-925 -975 0
-925 -976 0
-925 -977 0
-925 -978 0
-925 -979 0
-925 -980 0
-925 -981 0
-925 -982 0
-925 -983 0
-925 -984 0
-925 -985 0
-925 -986 0
-925 -987 0
-925 -988 0
-925 -989 0
-925 -990 0
-925 -991 0
-925 -992 0
-925 -993 0
-925 -994 0
-925 -995 0
-925 -996 0
-925 -997 0
-925 -998 0
-925 -999 0
-925 -1000 0
-925 -1001 0
-925 -1002 0
-925 -1003 0
-925 -1004 0
-925 -1005 0
-926 -927 0
-926 -928 0
-926 -929 0
-926 -930 0
-926 -931 0
-926 -932 0
-926 -933 0
-926 -934 0
-926 -935 0
-926 -936 0
-926 -937 0
-926 -938 0
-926 -939 0
-926 -940 0
-926 -941 0
-926 -942 0
-926 -943 0
-926 -944 0
-926 -945 0
-926 -946 0
-926 -947 0
-926 -948 0
-926 -949 0
-926 -950 0
-926 -951 0
-926 -952 0
-926 -953 0
-926 -954 0
-926 -955 0
-926 -956 0
-926 -957 0
-926 -958 0
-926 -959 0
-926 -960 0
-926 -961 0
-926 -962 0
-926 -963 0
-926 -964 0
-926 -965 0
-926 -966 0
-926 -967 0
-926 -968 0
-926 -969 0
-926 -970 0
-926 -971 0
-926 -972 0
-926 -973 0
-926 -974 0
-926 -975 0
-926 -976 0
-926 -977 0
-926 -978 0
-926 -979 0
-926 -980 0
-926 -981 0
-926 -982 0
-926 -983 0
-926 -984 0
-926 -985 0
-926 -986 0
-926 -987 0
-926 -988 0
-926 -989 0
-926 -990 0
-926 -991 0
-926 -992 0
-926 -993 0
-926 -994 0
-926 -995 0
-926 -996 0
-926 -997 0
-926 -998 0
-926 -999 0
-926 -1000 0
-926 -1001 0
-926 -1002 0
-926 -1003 0
-926 -1004 0
-926 -1005 0
-927 -928 0
-927 -929 0
-927 -930 0
-927 -931 0
-927 -932 0
-927 -933 0
-927 -934 0
-927 -935 0
-927 -936 0
-927 -937 0
-927 -938 0
-927 -939 0
-927 -940 0
-927 -941 0
-927 -942 0
-927 -943 0
-927 -944 0
-927 -945 0
-927 -946 0
-927 -947 0
-927 -948 0
-927 -949 0
-927 -950 0
-927 -951 0
-927 -952 0
-927 -953 0
-927 -954 0
-927 -955 0
-927 -956 0
-927 -957 0
-927 -958 0
-927 -959 0
-927 -960 0
-927 -961 0
-927 -962 0
-927 -963 0
-927 -964 0
-927 -965 0
-927 -966 0
-927 -967 0
-927 -968 0
-927 -969 0
-927 -970 0
-927 -971 0
-927 -972 0
-927 -973 0
-927 -974 0
-927 -975 0
-927 -976 0
-927 -977 0
-927 -978 0
-927 -979 0
-927 -980 0
-927 -981 0
-927 -982 0
-927 -983 0
-927 -984 0
-927 -985 0
-927 -986 0
-927 -987 0
-927 -988 0
-927 -989 0
-927 -990 0
-927 -991 0
-927 -992 0
-927 -993 0
-927 -994 0
-927 -995 0
-927 -996 0
-927 -997 0
-927 -998 0
-927 -999 0
-927 -1000 0
-927 -1001 0
-927 -1002 0
-927 -1003 0
-927 -1004 0
-927 -1005 0
-928 -929 0
-928 -930 0
-928 -931 0
-928 -932 0
-928 -933 0
-928 -934 0
-928 -935 0
-928 -936 0
-928 -937 0
-928 -938 0
-928 -939 0
-928 -940 0
-928 -941 0
-928 -942 0
-928 -943 0
-928 -944 0
-928 -945 0
-928 -946 0
-928 -947 0
-928 -948 0
-928 -949 0
-928 -950 0
-928 -951 0
-928 -952 0
-928 -953 0
-928 -954 0
-928 -955 0
-928 -956 0
-928 -957 0
-928 -958 0
-928 -959 0
-928 -960 0
-928 -961 0
-928 -962 0
-928 -963 0
-928 -964 0
-928 -965 0
-928 -966 0
-928 -967 0
-928 -968 0
-928 -969 0
-928 -970 0
-928 -971 0
-928 -972 0
-928 -973 0
-928 -974 0
-928 -975 0
-928 -976 0
-928 -977 0
-928 -978 0
-928 -979 0
-928 -980 0
-928 -981 0
-928 -982 0
-928 -983 0
-928 -984 0
-928 -985 0
-928 -986 0
-928 -987 0
-928 -988 0
-928 -989 0
-928 -990 0
-928 -991 0
-928 -992 0
-928 -993 0
-928 -994 0
-928 -995 0
-928 -996 0
-928 -997 0
-928 -998 0
-928 -999 0
-928 -1000 0
-928 -1001 0
-928 -1002 0
-928 -1003 0
-928 -1004 0
-928 -1005 0
-929 -930 0
-929 -931 0
-929 -932 0
-929 -933 0
-929 -934 0
-929 -935 0
-929 -936 0
-929 -937 0
-929 -938 0
-929 -939 0
-929 -940 0
-929 -941 0
-929 -942 0
-929 -943 0
-929 -944 0
-929 -945 0
-929 -946 0
-929 -947 0
-929 -948 0
-929 -949 0
-929 -950 0
-929 -951 0
-929 -952 0
-929 -953 0
-929 -954 0
-929 -955 0
-929 -956 0
-929 -957 0
-929 -958 0
-929 -959 0
-929 -960 0
-929 -961 0
-929 -962 0
-929 -963 0
-929 -964 0
-929 -965 0
-929 -966 0
-929 -967 0
-929 -968 0
-929 -969 0
-929 -970 0
-929 -971 0
-929 -972 0
-929 -973 0
-929 -974 0
-929 -975 0
-929 -976 0
-929 -977 0
-929 -978 0
-929 -979 0
-929 -980 0
-929 -981 0
-929 -982 0
-929 -983 0
-929 -984 0
-929 -985 0
-929 -986 0
-929 -987 0
-929 -988 0
-929 -989 0
-929 -990 0
-929 -991 0
-929 -992 0
-929 -993 0
-929 -994 0
-929 -995 0
-929 -996 0
-929 -997 0
-929 -998 0
-929 -999 0
-929 -1000 0
-929 -1001 0
-929 -1002 0
-929 -1003 0
-929 -1004 0
-929 -1005 0
-930 -931 0
-930 -932 0
-930 -933 0
-930 -934 0
-930 -935 0
-930 -936 0
-930 -937 0
-930 -938 0
-930 -939 0
-930 -940 0
-930 -941 0
-930 -942 0
-930 -943 0
-930 -944 0
-930 -945 0
-930 -946 0
-930 -947 0
-930 -948 0
-930 -949 0
-930 -950 0
-930 -951 0
-930 -952 0
-930 -953 0
-930 -954 0
-930 -955 0
-930 -956 0
-930 -957 0
-930 -958 0
-930 -959 0
-930 -960 0
-930 -961 0
-930 -962 0
-930 -963 0
-930 -964 0
-930 -965 0
-930 -966 0
-930 -967 0
-930 -968 0
-930 -969 0
-930 -970 0
-930 -971 0
-930 -972 0
-930 -973 0
-930 -974 0
-930 -975 0
-930 -976 0
-930 -977 0
-930 -978 0
-930 -979 0
-930 -980 0
-930 -981 0
-930 -982 0
-930 -983 0
-930 -984 0
-930 -985 0
-930 -986 0
-930 -987 0
-930 -988 0
-930 -989 0
-930 -990 0
-930 -991 0
-930 -992 0
-930 -993 0
-930 -994 0
-930 -995 0
-930 -996 0
-930 -997 0
-930 -998 0
-930 -999 0
-930 -1000 0
-930 -1001 0
-930 -1002 0
-930 -1003 0
-930 -1004 0
-930 -1005 0
-931 -932 0
-931 -933 0
-931 -934 0
-931 -935 0
-931 -936 0
-931 -937 0
-931 -938 0
-931 -939 0
-931 -940 0
-931 -941 0
-931 -942 0
-931 -943 0
-931 -944 0
-931 -945 0
-931 -946 0
-931 -947 0
-931 -948 0
-931 -949 0
-931 -950 0
-931 -951 0
-931 -952 0
-931 -953 0
-931 -954 0
-931 -955 0
-931 -956 0
-931 -957 0
-931 -958 0
-931 -959 0
-931 -960 0
-931 -961 0
-931 -962 0
-931 -963 0
-931 -964 0
-931 -965 0
-931 -966 0
-931 -967 0
-931 -968 0
-931 -969 0
-931 -970 0
-931 -971 0
-931 -972 0
-931 -973 0
-931 -974 0
-931 -975 0
-931 -976 0
-931 -977 0
-931 -978 0
-931 -979 0
-931 -980 0
-931 -981 0
-931 -982 0
-931 -983 0
-931 -984 0
-931 -985 0
-931 -986 0
-931 -987 0
-931 -988 0
-931 -989 0
-931 -990 0
-931 -991 0
-931 -992 0
-931 -993 0
-931 -994 0
-931 -995 0
-931 -996 0
-931 -997 0
-931 -998 0
-931 -999 0
-931 -1000 0
-931 -1001 0
-931 -1002 0
-931 -1003 0
-931 -1004 0
-931 -1005 0
-932 -933 0
-932 -934 0
-932 -935 0
-932 -936 0
-932 -937 0
-932 -938 0
-932 -939 0
-932 -940 0
-932 -941 0
-932 -942 0
-932 -943 0
-932 -944 0
-932 -945 0
-932 -946 0
-932 -947 0
-932 -948 0
-932 -949 0
-932 -950 0
-932 -951 0
-932 -952 0
-932 -953 0
-932 -954 0
-932 -955 0
-932 -956 0
-932 -957 0
-932 -958 0
-932 -959 0
-932 -960 0
-932 -961 0
-932 -962 0
-932 -963 0
-932 -964 0
-932 -965 0
-932 -966 0
-932 -967 0
-932 -968 0
-932 -969 0
-932 -970 0
-932 -971 0
-932 -972 0
-932 -973 0
-932 -974 0
-932 -975 0
-932 -976 0
-932 -977 0
-932 -978 0
-932 -979 0
-932 -980 0
-932 -981 0
-932 -982 0
-932 -983 0
-932 -984 0
-932 -985 0
-932 -986 0
-932 -987 0
-932 -988 0
-932 -989 0
-932 -990 0
-932 -991 0
-932 -992 0
-932 -993 0
-932 -994 0
-932 -995 0
-932 -996 0
-932 -997 0
-932 -998 0
-932 -999 0
-932 -1000 0
-932 -1001 0
-932 -1002 0
-932 -1003 0
-932 -1004 0
-932 -1005 0
-933 -934 0
-933 -935 0
-933 -936 0
-933 -937 0
-933 -938 0
-933 -939 0
-933 -940 0
-933 -941 0
-933 -942 0
-933 -943 0
-933 -944 0
-933 -945 0
-933 -946 0
-933 -947 0
-933 -948 0
-933 -949 0
-933 -950 0
-933 -951 0
-933 -952 0
-933 -953 0
-933 -954 0
-933 -955 0
-933 -956 0
-933 -957 0
-933 -958 0
-933 -959 0
-933 -960 0
-933 -961 0
-933 -962 0
-933 -963 0
-933 -964 0
-933 -965 0
-933 -966 0
-933 -967 0
-933 -968 0
-933 -969 0
-933 -970 0
-933 -971 0
-933 -972 0
-933 -973 0
-933 -974 0
-933 -975 0
-933 -976 0
-933 -977 0
-933 -978 0
-933 -979 0
-933 -980 0
-933 -981 0
-933 -982 0
-933 -983 0
-933 -984 0
-933 -985 0
-933 -986 0
-933 -987 0
-933 -988 0
-933 -989 0
-933 -990 0
-933 -991 0
-933 -992 0
-933 -993 0
-933 -994 0
-933 -995 0
-933 -996 0
-933 -997 0
-933 -998 0
-933 -999 0
-933 -1000 0
-933 -1001 0
-933 -1002 0
-933 -1003 0
-933 -1004 0
-933 -1005 0
-934 -935 0
-934 -936 0
-934 -937 0
-934 -938 0
-934 -939 0
-934 -940 0
-934 -941 0
-934 -942 0
-934 -943 0
-934 -944 0
-934 -945 0
-934 -946 0
-934 -947 0
-934 -948 0
-934 -949 0
-934 -950 0
-934 -951 0
-934 -952 0
-934 -953 0
-934 -954 0
-934 -955 0
-934 -956 0
-934 -957 0
-934 -958 0
-934 -959 0
-934 -960 0
-934 -961 0
-934 -962 0
-934 -963 0
-934 -964 0
-934 -965 0
-934 -966 0
-934 -967 0
-934 -968 0
-934 -969 0
-934 -970 0
-934 -971 0
-934 -972 0
-934 -973 0
-934 -974 0
-934 -975 0
-934 -976 0
-934 -977 0
-934 -978 0
-934 -979 0
-934 -980 0
-934 -981 0
-934 -982 0
-934 -983 0
-934 -984 0
-934 -985 0
-934 -986 0
-934 -987 0
-934 -988 0
-934 -989 0
-934 -990 0
-934 -991 0
-934 -992 0
-934 -993 0
-934 -994 0
-934 -995 0
-934 -996 0
-934 -997 0
-934 -998 0
-934 -999 0
-934 -1000 0
-934 -1001 0
-934 -1002 0
-934 -1003 0
-934 -1004 0
-934 -1005 0
-935 -936 0
-935 -937 0
-935 -938 0
-935 -939 0
-935 -940 0
-935 -941 0
-935 -942 0
-935 -943 0
-935 -944 0
-935 -945 0
-935 -946 0
-935 -947 0
-935 -948 0
-935 -949 0
-935 -950 0
-935 -951 0
-935 -952 0
-935 -953 0
-935 -954 0
-935 -955 0
-935 -956 0
-935 -957 0
-935 -958 0
-935 -959 0
-935 -960 0
-935 -961 0
-935 -962 0
-935 -963 0
-935 -964 0
-935 -965 0
-935 -966 0
-935 -967 0
-935 -968 0
-935 -969 0
-935 -970 0
-935 -971 0
-935 -972 0
-935 -973 0
-935 -974 0
-935 -975 0
-935 -976 0
-935 -977 0
-935 -978 0
-935 -979 0
-935 -980 0
-935 -981 0
-935 -982 0
-935 -983 0
-935 -984 0
-935 -985 0
-935 -986 0
-935 -987 0
-935 -988 0
-935 -989 0
-935 -990 0
-935 -991 0
-935 -992 0
-935 -993 0
-935 -994 0
-935 -995 0
-935 -996 0
-935 -997 0
-935 -998 0
-935 -999 0
-935 -1000 0
-935 -1001 0
-935 -1002 0
-935 -1003 0
-935 -1004 0
-935 -1005 0
-936 -937 0
-936 -938 0
-936 -939 0
-936 -940 0
-936 -941 0
-936 -942 0
-936 -943 0
-936 -944 0
-936 -945 0
-936 -946 0
-936 -947 0
-936 -948 0
-936 -949 0
-936 -950 0
-936 -951 0
-936 -952 0
-936 -953 0
-936 -954 0
-936 -955 0
-936 -956 0
-936 -957 0
-936 -958 0
-936 -959 0
-936 -960 0
-936 -961 0
-936 -962 0
-936 -963 0
-936 -964 0
-936 -965 0
-936 -966 0
-936 -967 0
-936 -968 0
-936 -969 0
-936 -970 0
-936 -971 0
-936 -972 0
-936 -973 0
-936 -974 0
-936 -975 0
-936 -976 0
-936 -977 0
-936 -978 0
-936 -979 0
-936 -980 0
-936 -981 0
-936 -982 0
-936 -983 0
-936 -984 0
-936 -985 0
-936 -986 0
-936 -987 0
-936 -988 0
-936 -989 0
-936 -990 0
-936 -991 0
-936 -992 0
-936 -993 0
-936 -994 0
-936 -995 0
-936 -996 0
-936 -997 0
-936 -998 0
-936 -999 0
-936 -1000 0
-936 -1001 0
-936 -1002 0
-936 -1003 0
-936 -1004 0
-936 -1005 0
-937 -938 0
-937 -939 0
-937 -940 0
-937 -941 0
-937 -942 0
-937 -943 0
-937 -944 0
-937 -945 0
-937 -946 0
-937 -947 0
-937 -948 0
-937 -949 0
-937 -950 0
-937 -951 0
-937 -952 0
-937 -953 0
-937 -954 0
-937 -955 0
-937 -956 0
-937 -957 0
-937 -958 0
-937 -959 0
-937 -960 0
-937 -961 0
-937 -962 0
-937 -963 0
-937 -964 0
-937 -965 0
-937 -966 0
-937 -967 0
-937 -968 0
-937 -969 0
-937 -970 0
-937 -971 0
-937 -972 0
-937 -973 0
-937 -974 0
-937 -975 0
-937 -976 0
-937 -977 0
-937 -978 0
-937 -979 0
-937 -980 0
-937 -981 0
-937 -982 0
-937 -983 0
-937 -984 0
-937 -985 0
-937 -986 0
-937 -987 0
-937 -988 0
-937 -989 0
-937 -990 0
-937 -991 0
-937 -992 0
-937 -993 0
-937 -994 0
-937 -995 0
-937 -996 0
-937 -997 0
-937 -998 0
-937 -999 0
-937 -1000 0
-937 -1001 0
-937 -1002 0
-937 -1003 0
-937 -1004 0
-937 -1005 0
-938 -939 0
-938 -940 0
-938 -941 0
-938 -942 0
-938 -943 0
-938 -944 0
-938 -945 0
-938 -946 0
-938 -947 0
-938 -948 0
-938 -949 0
-938 -950 0
-938 -951 0
-938 -952 0
-938 -953 0
-938 -954 0
-938 -955 0
-938 -956 0
-938 -957 0
-938 -958 0
-938 -959 0
-938 -960 0
-938 -961 0
-938 -962 0
-938 -963 0
-938 -964 0
-938 -965 0
-938 -966 0
-938 -967 0
-938 -968 0
-938 -969 0
-938 -970 0
-938 -971 0
-938 -972 0
-938 -973 0
-938 -974 0
-938 -975 0
-938 -976 0
-938 -977 0
-938 -978 0
-938 -979 0
-938 -980 0
-938 -981 0
-938 -982 0
-938 -983 0
-938 -984 0
-938 -985 0
-938 -986 0
-938 -987 0
-938 -988 0
-938 -989 0
-938 -990 0
-938 -991 0
-938 -992 0
-938 -993 0
-938 -994 0
-938 -995 0
-938 -996 0
-938 -997 0
-938 -998 0
-938 -999 0
-938 -1000 0
-938 -1001 0
-938 -1002 0
-938 -1003 0
-938 -1004 0
-938 -1005 0
-939 -940 0
-939 -941 0
-939 -942 0
-939 -943 0
-939 -944 0
-939 -945 0
-939 -946 0
-939 -947 0
-939 -948 0
-939 -949 0
-939 -950 0
-939 -951 0
-939 -952 0
-939 -953 0
-939 -954 0
-939 -955 0
-939 -956 0
-939 -957 0
-939 -958 0
-939 -959 0
-939 -960 0
-939 -961 0
-939 -962 0
-939 -963 0
-939 -964 0
-939 -965 0
-939 -966 0
-939 -967 0
-939 -968 0
-939 -969 0
-939 -970 0
-939 -971 0
-939 -972 0
-939 -973 0
-939 -974 0
-939 -975 0
-939 -976 0
-939 -977 0
-939 -978 0
-939 -979 0
-939 -980 0
-939 -981 0
-939 -982 0
-939 -983 0
-939 -984 0
-939 -985 0
-939 -986 0
-939 -987 0
-939 -988 0
-939 -989 0
-939 -990 0
-939 -991 0
-939 -992 0
-939 -993 0
-939 -994 0
-939 -995 0
-939 -996 0
-939 -997 0
-939 -998 0
-939 -999 0
-939 -1000 0
-939 -1001 0
-939 -1002 0
-939 -1003 0
-939 -1004 0
-939 -1005 0
-940 -941 0
-940 -942 0
-940 -943 0
-940 -944 0
-940 -945 0
-940 -946 0
-940 -947 0
-940 -948 0
-940 -949 0
-940 -950 0
-940 -951 0
-940 -952 0
-940 -953 0
-940 -954 0
-940 -955 0
-940 -956 0
-940 -957 0
-940 -958 0
-940 -959 0
-940 -960 0
-940 -961 0
-940 -962 0
-940 -963 0
-940 -964 0
-940 -965 0
-940 -966 0
-940 -967 0
-940 -968 0
-940 -969 0
-940 -970 0
-940 -971 0
-940 -972 0
-940 -973 0
-940 -974 0
-940 -975 0
-940 -976 0
-940 -977 0
-940 -978 0
-940 -979 0
-940 -980 0
-940 -981 0
-940 -982 0
-940 -983 0
-940 -984 0
-940 -985 0
-940 -986 0
-940 -987 0
-940 -988 0
-940 -989 0
-940 -990 0
-940 -991 0
-940 -992 0
-940 -993 0
-940 -994 0
-940 -995 0
-940 -996 0
-940 -997 0
-940 -998 0
-940 -999 0
-940 -1000 0
-940 -1001 0
-940 -1002 0
-940 -1003 0
-940 -1004 0
-940 -1005 0
-941 -942 0
-941 -943 0
-941 -944 0
-941 -945 0
-941 -946 0
-941 -947 0
-941 -948 0
-941 -949 0
-941 -950 0
-941 -951 0
-941 -952 0
-941 -953 0
-941 -954 0
-941 -955 0
-941 -956 0
-941 -957 0
-941 -958 0
-941 -959 0
-941 -960 0
-941 -961 0
-941 -962 0
-941 -963 0
-941 -964 0
-941 -965 0
-941 -966 0
-941 -967 0
-941 -968 0
-941 -969 0
-941 -970 0
-941 -971 0
-941 -972 0
-941 -973 0
-941 -974 0
-941 -975 0
-941 -976 0
-941 -977 0
-941 -978 0
-941 -979 0
-941 -980 0
-941 -981 0
-941 -982 0
-941 -983 0
-941 -984 0
-941 -985 0
-941 -986 0
-941 -987 0
-941 -988 0
-941 -989 0
-941 -990 0
-941 -991 0
-941 -992 0
-941 -993 0
-941 -994 0
-941 -995 0
-941 -996 0
-941 -997 0
-941 -998 0
-941 -999 0
-941 -1000 0
-941 -1001 0
-941 -1002 0
-941 -1003 0
-941 -1004 0
-941 -1005 0
-942 -943 0
-942 -944 0
-942 -945 0
-942 -946 0
-942 -947 0
-942 -948 0
-942 -949 0
-942 -950 0
-942 -951 0
-942 -952 0
-942 -953 0
-942 -954 0
-942 -955 0
-942 -956 0
-942 -957 0
-942 -958 0
-942 -959 0
-942 -960 0
-942 -961 0
-942 -962 0
-942 -963 0
-942 -964 0
-942 -965 0
-942 -966 0
-942 -967 0
-942 -968 0
-942 -969 0
-942 -970 0
-942 -971 0
-942 -972 0
-942 -973 0
-942 -974 0
-942 -975 0
-942 -976 0
-942 -977 0
-942 -978 0
-942 -979 0
-942 -980 0
-942 -981 0
-942 -982 0
-942 -983 0
-942 -984 0
-942 -985 0
-942 -986 0
-942 -987 0
-942 -988 0
-942 -989 0
-942 -990 0
-942 -991 0
-942 -992 0
-942 -993 0
-942 -994 0
-942 -995 0
-942 -996 0
-942 -997 0
-942 -998 0
-942 -999 0
-942 -1000 0
-942 -1001 0
-942 -1002 0
-942 -1003 0
-942 -1004 0
-942 -1005 0
-943 -944 0
-943 -945 0
-943 -946 0
-943 -947 0
-943 -948 0
-943 -949 0
-943 -950 0
-943 -951 0
-943 -952 0
-943 -953 0
-943 -954 0
-943 -955 0
-943 -956 0
-943 -957 0
-943 -958 0
-943 -959 0
-943 -960 0
-943 -961 0
-943 -962 0
-943 -963 0
-943 -964 0
-943 -965 0
-943 -966 0
-943 -967 0
-943 -968 0
-943 -969 0
-943 -970 0
-943 -971 0
-943 -972 0
-943 -973 0
-943 -974 0
-943 -975 0
-943 -976 0
-943 -977 0
-943 -978 0
-943 -979 0
-943 -980 0
-943 -981 0
-943 -982 0
-943 -983 0
-943 -984 0
-943 -985 0
-943 -986 0
-943 -987 0
-943 -988 0
-943 -989 0
-943 -990 0
-943 -991 0
-943 -992 0
-943 -993 0
-943 -994 0
-943 -995 0
-943 -996 0
-943 -997 0
-943 -998 0
-943 -999 0
-943 -1000 0
-943 -1001 0
-943 -1002 0
-943 -1003 0
-943 -1004 0
-943 -1005 0
-944 -945 0
-944 -946 0
-944 -947 0
-944 -948 0
-944 -949 0
-944 -950 0
-944 -951 0
-944 -952 0
-944 -953 0
-944 -954 0
-944 -955 0
-944 -956 0
-944 -957 0
-944 -958 0
-944 -959 0
-944 -960 0
-944 -961 0
-944 -962 0
-944 -963 0
-944 -964 0
-944 -965 0
-944 -966 0
-944 -967 0
-944 -968 0
-944 -969 0
-944 -970 0
-944 -971 0
-944 -972 0
-944 -973 0
-944 -974 0
-944 -975 0
-944 -976 0
-944 -977 0
-944 -978 0
-944 -979 0
-944 -980 0
-944 -981 0
-944 -982 0
-944 -983 0
-944 -984 0
-944 -985 0
-944 -986 0
-944 -987 0
-944 -988 0
-944 -989 0
-944 -990 0
-944 -991 0
-944 -992 0
-944 -993 0
-944 -994 0
-944 -995 0
-944 -996 0
-944 -997 0
-944 -998 0
-944 -999 0
-944 -1000 0
-944 -1001 0
-944 -1002 0
-944 -1003 0
-944 -1004 0
-944 -1005 0
-945 -946 0
-945 -947 0
-945 -948 0
-945 -949 0
-945 -950 0
-945 -951 0
-945 -952 0
-945 -953 0
-945 -954 0
-945 -955 0
-945 -956 0
-945 -957 0
-945 -958 0
-945 -959 0
-945 -960 0
-945 -961 0
-945 -962 0
-945 -963 0
-945 -964 0
-945 -965 0
-945 -966 0
-945 -967 0
-945 -968 0
-945 -969 0
-945 -970 0
-945 -971 0
-945 -972 0
-945 -973 0
-945 -974 0
-945 -975 0
-945 -976 0
-945 -977 0
-945 -978 0
-945 -979 0
-945 -980 0
-945 -981 0
-945 -982 0
-945 -983 0
-945 -984 0
-945 -985 0
-945 -986 0
-945 -987 0
-945 -988 0
-945 -989 0
-945 -990 0
-945 -991 0
-945 -992 0
-945 -993 0
-945 -994 0
-945 -995 0
-945 -996 0
-945 -997 0
-945 -998 0
-945 -999 0
-945 -1000 0
-945 -1001 0
-945 -1002 0
-945 -1003 0
-945 -1004 0
-945 -1005 0
-946 -947 0
-946 -948 0
-946 -949 0
-946 -950 0
-946 -951 0
-946 -952 0
-946 -953 0
-946 -954 0
-946 -955 0
-946 -956 0
-946 -957 0
-946 -958 0
-946 -959 0
-946 -960 0
-946 -961 0
-946 -962 0
-946 -963 0
-946 -964 0
-946 -965 0
-946 -966 0
-946 -967 0
-946 -968 0
-946 -969 0
-946 -970 0
-946 -971 0
-946 -972 0
-946 -973 0
-946 -974 0
-946 -975 0
-946 -976 0
-946 -977 0
-946 -978 0
-946 -979 0
-946 -980 0
-946 -981 0
-946 -982 0
-946 -983 0
-946 -984 0
-946 -985 0
-946 -986 0
-946 -987 0
-946 -988 0
-946 -989 0
-946 -990 0
-946 -991 0
-946 -992 0
-946 -993 0
-946 -994 0
-946 -995 0
-946 -996 0
-946 -997 0
-946 -998 0
-946 -999 0
-946 -1000 0
-946 -1001 0
-946 -1002 0
-946 -1003 0
-946 -1004 0
-946 -1005 0
-947 -948 0
-947 -949 0
-947 -950 0
-947 -951 0
-947 -952 0
-947 -953 0
-947 -954 0
-947 -955 0
-947 -956 0
-947 -957 0
-947 -958 0
-947 -959 0
-947 -960 0
-947 -961 0
-947 -962 0
-947 -963 0
-947 -964 0
-947 -965 0
-947 -966 0
-947 -967 0
-947 -968 0
-947 -969 0
-947 -970 0
-947 -971 0
-947 -972 0
-947 -973 0
-947 -974 0
-947 -975 0
-947 -976 0
-947 -977 0
-947 -978 0
-947 -979 0
-947 -980 0
-947 -981 0
-947 -982 0
-947 -983 0
-947 -984 0
-947 -985 0
-947 -986 0
-947 -987 0
-947 -988 0
-947 -989 0
-947 -990 0
-947 -991 0
-947 -992 0
-947 -993 0
-947 -994 0
-947 -995 0
-947 -996 0
-947 -997 0
-947 -998 0
-947 -999 0
-947 -1000 0
-947 -1001 0
-947 -1002 0
-947 -1003 0
-947 -1004 0
-947 -1005 0
-948 -949 0
-948 -950 0
-948 -951 0
-948 -952 0
-948 -953 0
-948 -954 0
-948 -955 0
-948 -956 0
-948 -957 0
-948 -958 0
-948 -959 0
-948 -960 0
-948 -961 0
-948 -962 0
-948 -963 0
-948 -964 0
-948 -965 0
-948 -966 0
-948 -967 0
-948 -968 0
-948 -969 0
-948 -970 0
-948 -971 0
-948 -972 0
-948 -973 0
-948 -974 0
-948 -975 0
-948 -976 0
-948 -977 0
-948 -978 0
-948 -979 0
-948 -980 0
-948 -981 0
-948 -982 0
-948 -983 0
-948 -984 0
-948 -985 0
-948 -986 0
-948 -987 0
-948 -988 0
-948 -989 0
-948 -990 0
-948 -991 0
-948 -992 0
-948 -993 0
-948 -994 0
-948 -995 0
-948 -996 0
-948 -997 0
-948 -998 0
-948 -999 0
-948 -1000 0
-948 -1001 0
-948 -1002 0
-948 -1003 0
-948 -1004 0
-948 -1005 0
-949 -950 0
-949 -951 0
-949 -952 0
-949 -953 0
-949 -954 0
-949 -955 0
-949 -956 0
-949 -957 0
-949 -958 0
-949 -959 0
-949 -960 0
-949 -961 0
-949 -962 0
-949 -963 0
-949 -964 0
-949 -965 0
-949 -966 0
-949 -967 0
-949 -968 0
-949 -969 0
-949 -970 0
-949 -971 0
-949 -972 0
-949 -973 0
-949 -974 0
-949 -975 0
-949 -976 0
-949 -977 0
-949 -978 0
-949 -979 0
-949 -980 0
-949 -981 0
-949 -982 0
-949 -983 0
-949 -984 0
-949 -985 0
-949 -986 0
-949 -987 0
-949 -988 0
-949 -989 0
-949 -990 0
-949 -991 0
-949 -992 0
-949 -993 0
-949 -994 0
-949 -995 0
-949 -996 0
-949 -997 0
-949 -998 0
-949 -999 0
-949 -1000 0
-949 -1001 0
-949 -1002 0
-949 -1003 0
-949 -1004 0
-949 -1005 0
-950 -951 0
-950 -952 0
-950 -953 0
-950 -954 0
-950 -955 0
-950 -956 0
-950 -957 0
-950 -958 0
-950 -959 0
-950 -960 0
-950 -961 0
-950 -962 0
-950 -963 0
-950 -964 0
-950 -965 0
-950 -966 0
-950 -967 0
-950 -968 0
-950 -969 0
-950 -970 0
-950 -971 0
-950 -972 0
-950 -973 0
-950 -974 0
-950 -975 0
-950 -976 0
-950 -977 0
-950 -978 0
-950 -979 0
-950 -980 0
-950 -981 0
-950 -982 0
-950 -983 0
-950 -984 0
-950 -985 0
-950 -986 0
-950 -987 0
-950 -988 0
-950 -989 0
-950 -990 0
-950 -991 0
-950 -992 0
-950 -993 0
-950 -994 0
-950 -995 0
-950 -996 0
-950 -997 0
-950 -998 0
-950 -999 0
-950 -1000 0
-950 -1001 0
-950 -1002 0
-950 -1003 0
-950 -1004 0
-950 -1005 0
-951 -952 0
-951 -953 0
-951 -954 0
-951 -955 0
-951 -956 0
-951 -957 0
-951 -958 0
-951 -959 0
-951 -960 0
-951 -961 0
-951 -962 0
-951 -963 0
-951 -964 0
-951 -965 0
-951 -966 0
-951 -967 0
-951 -968 0
-951 -969 0
-951 -970 0
-951 -971 0
-951 -972 0
-951 -973 0
-951 -974 0
-951 -975 0
-951 -976 0
-951 -977 0
-951 -978 0
-951 -979 0
-951 -980 0
-951 -981 0
-951 -982 0
-951 -983 0
-951 -984 0
-951 -985 0
-951 -986 0
-951 -987 0
-951 -988 0
-951 -989 0
-951 -990 0
-951 -991 0
-951 -992 0
-951 -993 0
-951 -994 0
-951 -995 0
-951 -996 0
-951 -997 0
-951 -998 0
-951 -999 0
-951 -1000 0
-951 -1001 0
-951 -1002 0
-951 -1003 0
-951 -1004 0
-951 -1005 0
-952 -953 0
-952 -954 0
-952 -955 0
-952 -956 0
-952 -957 0
-952 -958 0
-952 -959 0
-952 -960 0
-952 -961 0
-952 -962 0
-952 -963 0
-952 -964 0
-952 -965 0
-952 -966 0
-952 -967 0
-952 -968 0
-952 -969 0
-952 -970 0
-952 -971 0
-952 -972 0
-952 -973 0
-952 -974 0
-952 -975 0
-952 -976 0
-952 -977 0
-952 -978 0
-952 -979 0
-952 -980 0
-952 -981 0
-952 -982 0
-952 -983 0
-952 -984 0
-952 -985 0
-952 -986 0
-952 -987 0
-952 -988 0
-952 -989 0
-952 -990 0
-952 -991 0
-952 -992 0
-952 -993 0
-952 -994 0
-952 -995 0
-952 -996 0
-952 -997 0
-952 -998 0
-952 -999 0
-952 -1000 0
-952 -1001 0
-952 -1002 0
-952 -1003 0
-952 -1004 0
-952 -1005 0
-953 -954 0
-953 -955 0
-953 -956 0
-953 -957 0
-953 -958 0
-953 -959 0
-953 -960 0
-953 -961 0
-953 -962 0
-953 -963 0
-953 -964 0
-953 -965 0
-953 -966 0
-953 -967 0
-953 -968 0
-953 -969 0
-953 -970 0
-953 -971 0
-953 -972 0
-953 -973 0
-953 -974 0
-953 -975 0
-953 -976 0
-953 -977 0
-953 -978 0
-953 -979 0
-953 -980 0
-953 -981 0
-953 -982 0
-953 -983 0
-953 -984 0
-953 -985 0
-953 -986 0
-953 -987 0
-953 -988 0
-953 -989 0
-953 -990 0
-953 -991 0
-953 -992 0
-953 -993 0
-953 -994 0
-953 -995 0
-953 -996 0
-953 -997 0
-953 -998 0
-953 -999 0
-953 -1000 0
-953 -1001 0
-953 -1002 0
-953 -1003 0
-953 -1004 0
-953 -1005 0
-954 -955 0
-954 -956 0
-954 -957 0
-954 -958 0
-954 -959 0
-954 -960 0
-954 -961 0
-954 -962 0
-954 -963 0
-954 -964 0
-954 -965 0
-954 -966 0
-954 -967 0
-954 -968 0
-954 -969 0
-954 -970 0
-954 -971 0
-954 -972 0
-954 -973 0
-954 -974 0
-954 -975 0
-954 -976 0
-954 -977 0
-954 -978 0
-954 -979 0
-954 -980 0
-954 -981 0
-954 -982 0
-954 -983 0
-954 -984 0
-954 -985 0
-954 -986 0
-954 -987 0
-954 -988 0
-954 -989 0
-954 -990 0
-954 -991 0
-954 -992 0
-954 -993 0
-954 -994 0
-954 -995 0
-954 -996 0
-954 -997 0
-954 -998 0
-954 -999 0
-954 -1000 0
-954 -1001 0
-954 -1002 0
-954 -1003 0
-954 -1004 0
-954 -1005 0
-955 -956 0
-955 -957 0
-955 -958 0
-955 -959 0
-955 -960 0
-955 -961 0
-955 -962 0
-955 -963 0
-955 -964 0
-955 -965 0
-955 -966 0
-955 -967 0
-955 -968 0
-955 -969 0
-955 -970 0
-955 -971 0
-955 -972 0
-955 -973 0
-955 -974 0
-955 -975 0
-955 -976 0
-955 -977 0
-955 -978 0
-955 -979 0
-955 -980 0
-955 -981 0
-955 -982 0
-955 -983 0
-955 -984 0
-955 -985 0
-955 -986 0
-955 -987 0
-955 -988 0
-955 -989 0
-955 -990 0
-955 -991 0
-955 -992 0
-955 -993 0
-955 -994 0
-955 -995 0
-955 -996 0
-955 -997 0
-955 -998 0
-955 -999 0
-955 -1000 0
-955 -1001 0
-955 -1002 0
-955 -1003 0
-955 -1004 0
-955 -1005 0
-956 -957 0
-956 -958 0
-956 -959 0
-956 -960 0
-956 -961 0
-956 -962 0
-956 -963 0
-956 -964 0
-956 -965 0
-956 -966 0
-956 -967 0
-956 -968 0
-956 -969 0
-956 -970 0
-956 -971 0
-956 -972 0
-956 -973 0
-956 -974 0
-956 -975 0
-956 -976 0
-956 -977 0
-956 -978 0
-956 -979 0
-956 -980 0
-956 -981 0
-956 -982 0
-956 -983 0
-956 -984 0
-956 -985 0
-956 -986 0
-956 -987 0
-956 -988 0
-956 -989 0
-956 -990 0
-956 -991 0
-956 -992 0
-956 -993 0
-956 -994 0
-956 -995 0
-956 -996 0
-956 -997 0
-956 -998 0
-956 -999 0
-956 -1000 0
-956 -1001 0
-956 -1002 0
-956 -1003 0
-956 -1004 0
-956 -1005 0
-957 -958 0
-957 -959 0
-957 -960 0
-957 -961 0
-957 -962 0
-957 -963 0
-957 -964 0
-957 -965 0
-957 -966 0
-957 -967 0
-957 -968 0
-957 -969 0
-957 -970 0
-957 -971 0
-957 -972 0
-957 -973 0
-957 -974 0
-957 -975 0
-957 -976 0
-957 -977 0
-957 -978 0
-957 -979 0
-957 -980 0
-957 -981 0
-957 -982 0
-957 -983 0
-957 -984 0
-957 -985 0
-957 -986 0
-957 -987 0
-957 -988 0
-957 -989 0
-957 -990 0
-957 -991 0
-957 -992 0
-957 -993 0
-957 -994 0
-957 -995 0
-957 -996 0
-957 -997 0
-957 -998 0
-957 -999 0
-957 -1000 0
-957 -1001 0
-957 -1002 0
-957 -1003 0
-957 -1004 0
-957 -1005 0
-958 -959 0
-958 -960 0
-958 -961 0
-958 -962 0
-958 -963 0
-958 -964 0
-958 -965 0
-958 -966 0
-958 -967 0
-958 -968 0
-958 -969 0
-958 -970 0
-958 -971 0
-958 -972 0
-958 -973 0
-958 -974 0
-958 -975 0
-958 -976 0
-958 -977 0
-958 -978 0
-958 -979 0
-958 -980 0
-958 -981 0
-958 -982 0
-958 -983 0
-958 -984 0
-958 -985 0
-958 -986 0
-958 -987 0
-958 -988 0
-958 -989 0
-958 -990 0
-958 -991 0
-958 -992 0
-958 -993 0
-958 -994 0
-958 -995 0
-958 -996 0
-958 -997 0
-958 -998 0
-958 -999 0
-958 -1000 0
-958 -1001 0
-958 -1002 0
-958 -1003 0
-958 -1004 0
-958 -1005 0
-959 -960 0
-959 -961 0
-959 -962 0
-959 -963 0
-959 -964 0
-959 -965 0
-959 -966 0
-959 -967 0
-959 -968 0
-959 -969 0
-959 -970 0
-959 -971 0
-959 -972 0
-959 -973 0
-959 -974 0
-959 -975 0
-959 -976 0
-959 -977 0
-959 -978 0
-959 -979 0
-959 -980 0
-959 -981 0
-959 -982 0
-959 -983 0
-959 -984 0
-959 -985 0
-959 -986 0
-959 -987 0
-959 -988 0
-959 -989 0
-959 -990 0
-959 -991 0
-959 -992 0
-959 -993 0
-959 -994 0
-959 -995 0
-959 -996 0
-959 -997 0
-959 -998 0
-959 -999 0
-959 -1000 0
-959 -1001 0
-959 -1002 0
-959 -1003 0
-959 -1004 0
-959 -1005 0
-960 -961 0
-960 -962 0
-960 -963 0
-960 -964 0
-960 -965 0
-960 -966 0
-960 -967 0
-960 -968 0
-960 -969 0
-960 -970 0
-960 -971 0
-960 -972 0
-960 -973 0
-960 -974 0
-960 -975 0
-960 -976 0
-960 -977 0
-960 -978 0
-960 -979 0
-960 -980 0
-960 -981 0
-960 -982 0
-960 -983 0
-960 -984 0
-960 -985 0
-960 -986 0
-960 -987 0
-960 -988 0
-960 -989 0
-960 -990 0
-960 -991 0
-960 -992 0
-960 -993 0
-960 -994 0
-960 -995 0
-960 -996 0
-960 -997 0
-960 -998 0
-960 -999 0
-960 -1000 0
-960 -1001 0
-960 -1002 0
-960 -1003 0
-960 -1004 0
-960 -1005 0
-961 -962 0
-961 -963 0
-961 -964 0
-961 -965 0
-961 -966 0
-961 -967 0
-961 -968 0
-961 -969 0
-961 -970 0
-961 -971 0
-961 -972 0
-961 -973 0
-961 -974 0
-961 -975 0
-961 -976 0
-961 -977 0
-961 -978 0
-961 -979 0
-961 -980 0
-961 -981 0
-961 -982 0
-961 -983 0
-961 -984 0
-961 -985 0
-961 -986 0
-961 -987 0
-961 -988 0
-961 -989 0
-961 -990 0
-961 -991 0
-961 -992 0
-961 -993 0
-961 -994 0
-961 -995 0
-961 -996 0
-961 -997 0
-961 -998 0
-961 -999 0
-961 -1000 0
-961 -1001 0
-961 -1002 0
-961 -1003 0
-961 -1004 0
-961 -1005 0
-962 -963 0
-962 -964 0
-962 -965 0
-962 -966 0
-962 -967 0
-962 -968 0
-962 -969 0
-962 -970 0
-962 -971 0
-962 -972 0
-962 -973 0
-962 -974 0
-962 -975 0
-962 -976 0
-962 -977 0
-962 -978 0
-962 -979 0
-962 -980 0
-962 -981 0
-962 -982 0
-962 -983 0
-962 -984 0
-962 -985 0
-962 -986 0
-962 -987 0
-962 -988 0
-962 -989 0
-962 -990 0
-962 -991 0
-962 -992 0
-962 -993 0
-962 -994 0
-962 -995 0
-962 -996 0
-962 -997 0
-962 -998 0
-962 -999 0
-962 -1000 0
-962 -1001 0
-962 -1002 0
-962 -1003 0
-962 -1004 0
-962 -1005 0
-963 -964 0
-963 -965 0
-963 -966 0
-963 -967 0
-963 -968 0
-963 -969 0
-963 -970 0
-963 -971 0
-963 -972 0
-963 -973 0
-963 -974 0
-963 -975 0
-963 -976 0
-963 -977 0
-963 -978 0
-963 -979 0
-963 -980 0
-963 -981 0
-963 -982 0
-963 -983 0
-963 -984 0
-963 -985 0
-963 -986 0
-963 -987 0
-963 -988 0
-963 -989 0
-963 -990 0
-963 -991 0
-963 -992 0
-963 -993 0
-963 -994 0
-963 -995 0
-963 -996 0
-963 -997 0
-963 -998 0
-963 -999 0
-963 -1000 0
-963 -1001 0
-963 -1002 0
-963 -1003 0
-963 -1004 0
-963 -1005 0
-964 -965 0
-964 -966 0
-964 -967 0
-964 -968 0
-964 -969 0
-964 -970 0
-964 -971 0
-964 -972 0
-964 -973 0
-964 -974 0
-964 -975 0
-964 -976 0
-964 -977 0
-964 -978 0
-964 -979 0
-964 -980 0
-964 -981 0
-964 -982 0
-964 -983 0
-964 -984 0
-964 -985 0
-964 -986 0
-964 -987 0
-964 -988 0
-964 -989 0
-964 -990 0
-964 -991 0
-964 -992 0
-964 -993 0
-964 -994 0
-964 -995 0
-964 -996 0
-964 -997 0
-964 -998 0
-964 -999 0
-964 -1000 0
-964 -1001 0
-964 -1002 0
-964 -1003 0
-964 -1004 0
-964 -1005 0
-965 -966 0
-965 -967 0
-965 -968 0
-965 -969 0
-965 -970 0
-965 -971 0
-965 -972 0
-965 -973 0
-965 -974 0
-965 -975 0
-965 -976 0
-965 -977 0
-965 -978 0
-965 -979 0
-965 -980 0
-965 -981 0
-965 -982 0
-965 -983 0
-965 -984 0
-965 -985 0
-965 -986 0
-965 -987 0
-965 -988 0
-965 -989 0
-965 -990 0
-965 -991 0
-965 -992 0
-965 -993 0
-965 -994 0
-965 -995 0
-965 -996 0
-965 -997 0
-965 -998 0
-965 -999 0
-965 -1000 0
-965 -1001 0
-965 -1002 0
-965 -1003 0
-965 -1004 0
-965 -1005 0
-966 -967 0
-966 -968 0
-966 -969 0
-966 -970 0
-966 -971 0
-966 -972 0
-966 -973 0
-966 -974 0
-966 -975 0
-966 -976 0
-966 -977 0
-966 -978 0
-966 -979 0
-966 -980 0
-966 -981 0
-966 -982 0
-966 -983 0
-966 -984 0
-966 -985 0
-966 -986 0
-966 -987 0
-966 -988 0
-966 -989 0
-966 -990 0
-966 -991 0
-966 -992 0
-966 -993 0
-966 -994 0
-966 -995 0
-966 -996 0
-966 -997 0
-966 -998 0
-966 -999 0
-966 -1000 0
-966 -1001 0
-966 -1002 0
-966 -1003 0
-966 -1004 0
-966 -1005 0
-967 -968 0
-967 -969 0
-967 -970 0
-967 -971 0
-967 -972 0
-967 -973 0
-967 -974 0
-967 -975 0
-967 -976 0
-967 -977 0
-967 -978 0
-967 -979 0
-967 -980 0
-967 -981 0
-967 -982 0
-967 -983 0
-967 -984 0
-967 -985 0
-967 -986 0
-967 -987 0
-967 -988 0
-967 -989 0
-967 -990 0
-967 -991 0
-967 -992 0
-967 -993 0
-967 -994 0
-967 -995 0
-967 -996 0
-967 -997 0
-967 -998 0
-967 -999 0
-967 -1000 0
-967 -1001 0
-967 -1002 0
-967 -1003 0
-967 -1004 0
-967 -1005 0
-968 -969 0
-968 -970 0
-968 -971 0
-968 -972 0
-968 -973 0
-968 -974 0
-968 -975 0
-968 -976 0
-968 -977 0
-968 -978 0
-968 -979 0
-968 -980 0
-968 -981 0
-968 -982 0
-968 -983 0
-968 -984 0
-968 -985 0
-968 -986 0
-968 -987 0
-968 -988 0
-968 -989 0
-968 -990 0
-968 -991 0
-968 -992 0
-968 -993 0
-968 -994 0
-968 -995 0
-968 -996 0
-968 -997 0
-968 -998 0
-968 -999 0
-968 -1000 0
-968 -1001 0
-968 -1002 0
-968 -1003 0
-968 -1004 0
-968 -1005 0
-969 -970 0
-969 -971 0
-969 -972 0
-969 -973 0
-969 -974 0
-969 -975 0
-969 -976 0
-969 -977 0
-969 -978 0
-969 -979 0
-969 -980 0
-969 -981 0
-969 -982 0
-969 -983 0
-969 -984 0
-969 -985 0
-969 -986 0
-969 -987 0
-969 -988 0
-969 -989 0
-969 -990 0
-969 -991 0
-969 -992 0
-969 -993 0
-969 -994 0
-969 -995 0
-969 -996 0
-969 -997 0
-969 -998 0
-969 -999 0
-969 -1000 0
-969 -1001 0
-969 -1002 0
-969 -1003 0
-969 -1004 0
-969 -1005 0
-970 -971 0
-970 -972 0
-970 -973 0
-970 -974 0
-970 -975 0
-970 -976 0
-970 -977 0
-970 -978 0
-970 -979 0
-970 -980 0
-970 -981 0
-970 -982 0
-970 -983 0
-970 -984 0
-970 -985 0
-970 -986 0
-970 -987 0
-970 -988 0
-970 -989 0
-970 -990 0
-970 -991 0
-970 -992 0
-970 -993 0
-970 -994 0
-970 -995 0
-970 -996 0
-970 -997 0
-970 -998 0
-970 -999 0
-970 -1000 0
-970 -1001 0
-970 -1002 0
-970 -1003 0
-970 -1004 0
-970 -1005 0
-971 -972 0
-971 -973 0
-971 -974 0
-971 -975 0
-971 -976 0
-971 -977 0
-971 -978 0
-971 -979 0
-971 -980 0
-971 -981 0
-971 -982 0
-971 -983 0
-971 -984 0
-971 -985 0
-971 -986 0
-971 -987 0
-971 -988 0
-971 -989 0
-971 -990 0
-971 -991 0
-971 -992 0
-971 -993 0
-971 -994 0
-971 -995 0
-971 -996 0
-971 -997 0
-971 -998 0
-971 -999 0
-971 -1000 0
-971 -1001 0
-971 -1002 0
-971 -1003 0
-971 -1004 0
-971 -1005 0
-972 -973 0
-972 -974 0
-972 -975 0
-972 -976 0
-972 -977 0
-972 -978 0
-972 -979 0
-972 -980 0
-972 -981 0
-972 -982 0
-972 -983 0
-972 -984 0
-972 -985 0
-972 -986 0
-972 -987 0
-972 -988 0
-972 -989 0
-972 -990 0
-972 -991 0
-972 -992 0
-972 -993 0
-972 -994 0
-972 -995 0
-972 -996 0
-972 -997 0
-972 -998 0
-972 -999 0
-972 -1000 0
-972 -1001 0
-972 -1002 0
-972 -1003 0
-972 -1004 0
-972 -1005 0
-973 -974 0
-973 -975 0
-973 -976 0
-973 -977 0
-973 -978 0
-973 -979 0
-973 -980 0
-973 -981 0
-973 -982 0
-973 -983 0
-973 -984 0
-973 -985 0
-973 -986 0
-973 -987 0
-973 -988 0
-973 -989 0
-973 -990 0
-973 -991 0
-973 -992 0
-973 -993 0
-973 -994 0
-973 -995 0
-973 -996 0
-973 -997 0
-973 -998 0
-973 -999 0
-973 -1000 0
-973 -1001 0
-973 -1002 0
-973 -1003 0
-973 -1004 0
-973 -1005 0
-974 -975 0
-974 -976 0
-974 -977 0
-974 -978 0
-974 -979 0
-974 -980 0
-974 -981 0
-974 -982 0
-974 -983 0
-974 -984 0
-974 -985 0
-974 -986 0
-974 -987 0
-974 -988 0
-974 -989 0
-974 -990 0
-974 -991 0
-974 -992 0
-974 -993 0
-974 -994 0
-974 -995 0
-974 -996 0
-974 -997 0
-974 -998 0
-974 -999 0
-974 -1000 0
-974 -1001 0
-974 -1002 0
-974 -1003 0
-974 -1004 0
-974 -1005 0
-975 -976 0
-975 -977 0
-975 -978 0
-975 -979 0
-975 -980 0
-975 -981 0
-975 -982 0
-975 -983 0
-975 -984 0
-975 -985 0
-975 -986 0
-975 -987 0
-975 -988 0
-975 -989 0
-975 -990 0
-975 -991 0
-975 -992 0
-975 -993 0
-975 -994 0
-975 -995 0
-975 -996 0
-975 -997 0
-975 -998 0
-975 -999 0
-975 -1000 0
-975 -1001 0
-975 -1002 0
-975 -1003 0
-975 -1004 0
-975 -1005 0
-976 -977 0
-976 -978 0
-976 -979 0
-976 -980 0
-976 -981 0
-976 -982 0
-976 -983 0
-976 -984 0
-976 -985 0
-976 -986 0
-976 -987 0
-976 -988 0
-976 -989 0
-976 -990 0
-976 -991 0
-976 -992 0
-976 -993 0
-976 -994 0
-976 -995 0
-976 -996 0
-976 -997 0
-976 -998 0
-976 -999 0
-976 -1000 0
-976 -1001 0
-976 -1002 0
-976 -1003 0
-976 -1004 0
-976 -1005 0
-977 -978 0
-977 -979 0
-977 -980 0
-977 -981 0
-977 -982 0
-977 -983 0
-977 -984 0
-977 -985 0
-977 -986 0
-977 -987 0
-977 -988 0
-977 -989 0
-977 -990 0
-977 -991 0
-977 -992 0
-977 -993 0
-977 -994 0
-977 -995 0
-977 -996 0
-977 -997 0
-977 -998 0
-977 -999 0
-977 -1000 0
-977 -1001 0
-977 -1002 0
-977 -1003 0
-977 -1004 0
-977 -1005 0
-978 -979 0
-978 -980 0
-978 -981 0
-978 -982 0
-978 -983 0
-978 -984 0
-978 -985 0
-978 -986 0
-978 -987 0
-978 -988 0
-978 -989 0
-978 -990 0
-978 -991 0
-978 -992 0
-978 -993 0
-978 -994 0
-978 -995 0
-978 -996 0
-978 -997 0
-978 -998 0
-978 -999 0
-978 -1000 0
-978 -1001 0
-978 -1002 0
-978 -1003 0
-978 -1004 0
-978 -1005 0
-979 -980 0
-979 -981 0
-979 -982 0
-979 -983 0
-979 -984 0
-979 -985 0
-979 -986 0
-979 -987 0
-979 -988 0
-979 -989 0
-979 -990 0
-979 -991 0
-979 -992 0
-979 -993 0
-979 -994 0
-979 -995 0
-979 -996 0
-979 -997 0
-979 -998 0
-979 -999 0
-979 -1000 0
-979 -1001 0
-979 -1002 0
-979 -1003 0
-979 -1004 0
-979 -1005 0
-980 -981 0
-980 -982 0
-980 -983 0
-980 -984 0
-980 -985 0
-980 -986 0
-980 -987 0
-980 -988 0
-980 -989 0
-980 -990 0
-980 -991 0
-980 -992 0
-980 -993 0
-980 -994 0
-980 -995 0
-980 -996 0
-980 -997 0
-980 -998 0
-980 -999 0
-980 -1000 0
-980 -1001 0
-980 -1002 0
-980 -1003 0
-980 -1004 0
-980 -1005 0
-981 -982 0
-981 -983 0
-981 -984 0
-981 -985 0
-981 -986 0
-981 -987 0
-981 -988 0
-981 -989 0
-981 -990 0
-981 -991 0
-981 -992 0
-981 -993 0
-981 -994 0
-981 -995 0
-981 -996 0
-981 -997 0
-981 -998 0
-981 -999 0
-981 -1000 0
-981 -1001 0
-981 -1002 0
-981 -1003 0
-981 -1004 0
-981 -1005 0
-982 -983 0
-982 -984 0
-982 -985 0
-982 -986 0
-982 -987 0
-982 -988 0
-982 -989 0
-982 -990 0
-982 -991 0
-982 -992 0
-982 -993 0
-982 -994 0
-982 -995 0
-982 -996 0
-982 -997 0
-982 -998 0
-982 -999 0
-982 -1000 0
-982 -1001 0
-982 -1002 0
-982 -1003 0
-982 -1004 0
-982 -1005 0
-983 -984 0
-983 -985 0
-983 -986 0
-983 -987 0
-983 -988 0
-983 -989 0
-983 -990 0
-983 -991 0
-983 -992 0
-983 -993 0
-983 -994 0
-983 -995 0
-983 -996 0
-983 -997 0
-983 -998 0
-983 -999 0
-983 -1000 0
-983 -1001 0
-983 -1002 0
-983 -1003 0
-983 -1004 0
-983 -1005 0
-984 -985 0
-984 -986 0
-984 -987 0
-984 -988 0
-984 -989 0
-984 -990 0
-984 -991 0
-984 -992 0
-984 -993 0
-984 -994 0
-984 -995 0
-984 -996 0
-984 -997 0
-984 -998 0
-984 -999 0
-984 -1000 0
-984 -1001 0
-984 -1002 0
-984 -1003 0
-984 -1004 0
-984 -1005 0
-985 -986 0
-985 -987 0
-985 -988 0
-985 -989 0
-985 -990 0
-985 -991 0
-985 -992 0
-985 -993 0
-985 -994 0
-985 -995 0
-985 -996 0
-985 -997 0
-985 -998 0
-985 -999 0
-985 -1000 0
-985 -1001 0
-985 -1002 0
-985 -1003 0
-985 -1004 0
-985 -1005 0
-986 -987 0
-986 -988 0
-986 -989 0
-986 -990 0
-986 -991 0
-986 -992 0
-986 -993 0
-986 -994 0
-986 -995 0
-986 -996 0
-986 -997 0
-986 -998 0
-986 -999 0
-986 -1000 0
-986 -1001 0
-986 -1002 0
-986 -1003 0
-986 -1004 0
-986 -1005 0
-987 -988 0
-987 -989 0
-987 -990 0
-987 -991 0
-987 -992 0
-987 -993 0
-987 -994 0
-987 -995 0
-987 -996 0
-987 -997 0
-987 -998 0
-987 -999 0
-987 -1000 0
-987 -1001 0
-987 -1002 0
-987 -1003 0
-987 -1004 0
-987 -1005 0
-988 -989 0
-988 -990 0
-988 -991 0
-988 -992 0
-988 -993 0
-988 -994 0
-988 -995 0
-988 -996 0
-988 -997 0
-988 -998 0
-988 -999 0
-988 -1000 0
-988 -1001 0
-988 -1002 0
-988 -1003 0
-988 -1004 0
-988 -1005 0
-989 -990 0
-989 -991 0
-989 -992 0
-989 -993 0
-989 -994 0
-989 -995 0
-989 -996 0
-989 -997 0
-989 -998 0
-989 -999 0
-989 -1000 0
-989 -1001 0
-989 -1002 0
-989 -1003 0
-989 -1004 0
-989 -1005 0
-990 -991 0
-990 -992 0
-990 -993 0
-990 -994 0
-990 -995 0
-990 -996 0
-990 -997 0
-990 -998 0
-990 -999 0
-990 -1000 0
-990 -1001 0
-990 -1002 0
-990 -1003 0
-990 -1004 0
-990 -1005 0
-991 -992 0
-991 -993 0
-991 -994 0
-991 -995 0
-991 -996 0
-991 -997 0
-991 -998 0
-991 -999 0
-991 -1000 0
-991 -1001 0
-991 -1002 0
-991 -1003 0
-991 -1004 0
-991 -1005 0
-992 -993 0
-992 -994 0
-992 -995 0
-992 -996 0
-992 -997 0
-992 -998 0
-992 -999 0
-992 -1000 0
-992 -1001 0
-992 -1002 0
-992 -1003 0
-992 -1004 0
-992 -1005 0
-993 -994 0
-993 -995 0
-993 -996 0
-993 -997 0
-993 -998 0
-993 -999 0
-993 -1000 0
-993 -1001 0
-993 -1002 0
-993 -1003 0
-993 -1004 0
-993 -1005 0
-994 -995 0
-994 -996 0
-994 -997 0
-994 -998 0
-994 -999 0
-994 -1000 0
-994 -1001 0
-994 -1002 0
-994 -1003 0
-994 -1004 0
-994 -1005 0
-995 -996 0
-995 -997 0
-995 -998 0
-995 -999 0
-995 -1000 0
-995 -1001 0
-995 -1002 0
-995 -1003 0
-995 -1004 0
-995 -1005 0
-996 -997 0
-996 -998 0
-996 -999 0
-996 -1000 0
-996 -1001 0
-996 -1002 0
-996 -1003 0
-996 -1004 0
-996 -1005 0
-997 -998 0
-997 -999 0
-997 -1000 0
-997 -1001 0
-997 -1002 0
-997 -1003 0
-997 -1004 0
-997 -1005 0
-998 -999 0
-998 -1000 0
-998 -1001 0
-998 -1002 0
-998 -1003 0
-998 -1004 0
-998 -1005 0
-999 -1000 0
-999 -1001 0
-999 -1002 0
-999 -1003 0
-999 -1004 0
-999 -1005 0
-1000 -1001 0
-1000 -1002 0
-1000 -1003 0
-1000 -1004 0
-1000 -1005 0
-1001 -1002 0
-1001 -1003 0
-1001 -1004 0
-1001 -1005 0
-1002 -1003 0
-1002 -1004 0
-1002 -1005 0
-1003 -1004 0
-1003 -1005 0
-1004 -1005 0
-1006 922 923 924 925 926 927 928 929 930 931 932 933 934 935 936 937 938 939 940 941 942 943 944 945 0
-922 1006 0
-923 1006 0
-924 1006 0
-925 1006 0
-926 1006 0
-927 1006 0
-928 1006 0
-929 1006 0
-930 1006 0
-931 1006 0
-932 1006 0
-933 1006 0
-934 1006 0
-935 1006 0
-936 1006 0
-937 1006 0
-938 1006 0
-939 1006 0
-940 1006 0
-941 1006 0
-942 1006 0
-943 1006 0
-944 1006 0
-945 1006 0
1006 -299 448 0
1006 299 -448 0
1006 -300 449 0
1006 300 -449 0
1006 -301 450 0
1006 301 -450 0
1006 -302 451 0
1006 302 -451 0
1006 -303 452 0
1006 303 -452 0
1006 -304 453 0
1006 304 -453 0
1006 -305 454 0
1006 305 -454 0
1006 -306 455 0
1006 306 -455 0
1006 -307 456 0
1006 307 -456 0
1006 -308 457 0
1006 308 -457 0
-1007 946 947 948 949 950 951 952 953 954 955 956 957 958 959 960 961 962 963 964 965 966 967 968 969 0
-946 1007 0
-947 1007 0
-948 1007 0
-949 1007 0
-950 1007 0
-951 1007 0
-952 1007 0
-953 1007 0
-954 1007 0
-955 1007 0
-956 1007 0
-957 1007 0
-958 1007 0
-959 1007 0
-960 1007 0
-961 1007 0
-962 1007 0
-963 1007 0
-964 1007 0
-965 1007 0
-966 1007 0
-967 1007 0
-968 1007 0
-969 1007 0
1007 -309 458 0
1007 309 -458 0
1007 -310 459 0
1007 310 -459 0
1007 -311 460 0
1007 311 -460 0
1007 -312 461 0
1007 312 -461 0
1007 -313 462 0
1007 313 -462 0
1007 -314 463 0
1007 314 -463 0
1007 -315 464 0
1007 315 -464 0
1007 -316 465 0
1007 316 -465 0
1007 -317 466 0
1007 317 -466 0
1007 -318 467 0
1007 318 -467 0
-1008 970 971 972 973 974 975 976 977 978 979 980 981 982 983 984 985 986 987 988 989 0
-970 1008 0
-971 1008 0
-972 1008 0
-973 1008 0
-974 1008 0
-975 1008 0
-976 1008 0
-977 1008 0
-978 1008 0
-979 1008 0
-980 1008 0
-981 1008 0
-982 1008 0
-983 1008 0
-984 1008 0
-985 1008 0
-986 1008 0
-987 1008 0
-988 1008 0
-989 1008 0
1008 -319 468 0
1008 319 -468 0
1008 -320 469 0
1008 320 -469 0
1008 -321 470 0
1008 321 -470 0
1008 -322 471 0
1008 322 -471 0
1008 -323 472 0
1008 323 -472 0
1008 -324 473 0
1008 324 -473 0
1008 -325 474 0
1008 325 -474 0
1008 -326 475 0
1008 326 -475 0
1008 -327 476 0
1008 327 -476 0
-1009 990 991 992 993 994 995 996 997 998 999 1000 1001 1002 1003 1004 1005 0
-990 1009 0
-991 1009 0
-992 1009 0
-993 1009 0
-994 1009 0
-995 1009 0
-996 1009 0
-997 1009 0
-998 1009 0
-999 1009 0
-1000 1009 0
-1001 1009 0
-1002 1009 0
-1003 1009 0
-1004 1009 0
-1005 1009 0
1009 -328 477 0
1009 328 -477 0
1009 -329 478 0
1009 329 -478 0
1009 -330 479 0
1009 330 -479 0
1009 -331 480 0
1009 331 -480 0
1009 -332 481 0
1009 332 -481 0
1009 -333 482 0
1009 333 -482 0
1009 -334 483 0
1009 334 -483 0
1009 -335 484 0
1009 335 -484 0
-922 444 0
-922 448 0
-922 -310 0
-922 -311 0
-922 -312 0
-922 -313 0
-922 -314 0
-922 -318 0
-922 -315 455 0
-922 -315 -299 -306 0
-922 -315 -361 0
-922 -315 -362 0
-922 -315 -363 0
-922 -315 -385 0
-922 -315 -386 0
-922 -315 -387 0
-922 -315 -405 0
-922 -315 -406 0
-922 -315 -407 0
-922 -316 456 0
-922 -316 -299 -307 0
-922 -316 -362 0
-922 -316 -363 0
-922 -316 -386 0
-922 -316 -387 0
-922 -316 -406 0
-922 -316 -407 0
-922 -317 457 0
-922 -317 -299 -308 0
-922 -317 -363 0
-922 -317 -387 0
-922 -317 -407 0
-923 444 0
-923 449 0
-923 -309 0
-923 -311 0
-923 -312 0
-923 -313 0
-923 -314 0
-923 -318 0
-923 -315 455 0
-923 -315 -300 -306 0
-923 -315 -365 0
-923 -315 -366 0
-923 -315 -367 0
-923 -315 -385 0
-923 -315 -386 0
-923 -315 -387 0
-923 -315 -389 0
-923 -315 -390 0
-923 -315 -391 0
-923 -315 -405 0
-923 -315 -406 0
-923 -315 -407 0
-923 -315 -409 0
-923 -315 -410 0
-923 -315 -411 0
-923 -316 456 0
-923 -316 -300 -307 0
-923 -316 -366 0
-923 -316 -367 0
-923 -316 -386 0
-923 -316 -387 0
-923 -316 -390 0
-923 -316 -391 0
-923 -316 -406 0
-923 -316 -407 0
-923 -316 -410 0
-923 -316 -411 0
-923 -317 457 0
-923 -317 -300 -308 0
-923 -317 -367 0
-923 -317 -387 0
-923 -317 -391 0
-923 -317 -407 0
-923 -317 -411 0
-924 444 0
-924 450 0
-924 -309 0
-924 -310 0
-924 -312 0
-924 -313 0
-924 -314 0
-924 -318 0
-924 -315 455 0
-924 -315 -301 -306 0
-924 -315 -369 0
-924 -315 -370 0
-924 -315 -371 0
-924 -315 -389 0
-924 -315 -390 0
-924 -315 -391 0
-924 -315 -393 0
-924 -315 -394 0
-924 -315 -395 0
-924 -315 -405 0
-924 -315 -406 0
-924 -315 -407 0
-924 -315 -409 0
-924 -315 -410 0
-924 -315 -411 0
-924 -315 -413 0
-924 -315 -414 0
-924 -315 -415 0
-924 -316 456 0
-924 -316 -301 -307 0
-924 -316 -370 0
-924 -316 -371 0
-924 -316 -390 0
-924 -316 -391 0
-924 -316 -394 0
-924 -316 -395 0
-924 -316 -406 0
-924 -316 -407 0
-924 -316 -410 0
-924 -316 -411 0
-924 -316 -414 0
-924 -316 -415 0
-924 -317 457 0
-924 -317 -301 -308 0
-924 -317 -371 0
-924 -317 -391 0
-924 -317 -395 0
-924 -317 -407 0
-924 -317 -411 0
-924 -317 -415 0
-925 444 0
-925 451 0
-925 -309 0
-925 -310 0
-925 -311 0
-925 -313 0
-925 -314 0
-925 -318 0
-925 -315 455 0
-925 -315 -302 -306 0
-925 -315 -373 0
-925 -315 -374 0
-925 -315 -375 0
-925 -315 -393 0
-925 -315 -394 0
-925 -315 -395 0
-925 -315 -397 0
-925 -315 -398 0
-925 -315 -399 0
-925 -315 -409 0
-925 -315 -410 0
-925 -315 -411 0
-925 -315 -413 0
-925 -315 -414 0
-925 -315 -415 0
-925 -315 -417 0
-925 -315 -418 0
-925 -315 -419 0
-925 -316 456 0
-925 -316 -302 -307 0
-925 -316 -374 0
-925 -316 -375 0
-925 -316 -394 0
-925 -316 -395 0
-925 -316 -398 0
-925 -316 -399 0
-925 -316 -410 0
-925 -316 -411 0
-925 -316 -414 0
-925 -316 -415 0
-925 -316 -418 0
-925 -316 -419 0
-925 -317 457 0
-925 -317 -302 -308 0
-925 -317 -375 0
-925 -317 -395 0
-925 -317 -399 0
-925 -317 -411 0
-925 -317 -415 0
-925 -317 -419 0
-926 444 0
-926 452 0
-926 -309 0
-926 -310 0
-926 -311 0
-926 -312 0
-926 -314 0
-926 -318 0
-926 -315 455 0
-926 -315 -303 -306 0
-926 -315 -377 0
-926 -315 -378 0
-926 -315 -379 0
-926 -315 -397 0
-926 -315 -398 0
-926 -315 -399 0
-926 -315 -401 0
-926 -315 -402 0
-926 -315 -403 0
-926 -315 -413 0
-926 -315 -414 0
-926 -315 -415 0
-926 -315 -417 0
-926 -315 -418 0
-926 -315 -419 0
-926 -316 456 0
-926 -316 -303 -307 0
-926 -316 -378 0
-926 -316 -379 0
-926 -316 -398 0
-926 -316 -399 0
-926 -316 -402 0
-926 -316 -403 0
-926 -316 -414 0
-926 -316 -415 0
-926 -316 -418 0
-926 -316 -419 0
-926 -317 457 0
-926 -317 -303 -308 0
-926 -317 -379 0
-926 -317 -399 0
-926 -317 -403 0
-926 -317 -415 0
-926 -317 -419 0
-927 444 0
-927 453 0
-927 -309 0
-927 -310 0
-927 -311 0
-927 -312 0
-927 -313 0
-927 -318 0
-927 -315 455 0
-927 -315 -304 -306 0
-927 -315 -381 0
-927 -315 -382 0
-927 -315 -383 0
-927 -315 -401 0
-927 -315 -402 0
-927 -315 -403 0
-927 -315 -417 0
-927 -315 -418 0
-927 -315 -419 0
-927 -316 456 0
-927 -316 -304 -307 0
-927 -316 -382 0
-927 -316 -383 0
-927 -316 -402 0
-927 -316 -403 0
-927 -316 -418 0
-927 -316 -419 0
-927 -317 457 0
-927 -317 -304 -308 0
-927 -317 -383 0
-927 -317 -403 0
-927 -317 -419 0
-928 444 0
-928 448 0
-928 -320 0
-928 -321 0
-928 -322 0
-928 -323 0
-928 -327 0
-928 -324 455 0
-928 -324 -299 -306 0
-928 -324 -361 0
-928 -324 -362 0
-928 -324 -363 0
-928 -324 -385 0
-928 -324 -386 0
-928 -324 -387 0
-928 -324 -405 0
-928 -324 -406 0
-928 -324 -407 0
-928 -325 456 0
-928 -325 -299 -307 0
-928 -325 -362 0
-928 -325 -363 0
-928 -325 -386 0
-928 -325 -387 0
-928 -325 -406 0
-928 -325 -407 0
-928 -326 457 0
-928 -326 -299 -308 0
-928 -326 -363 0
-928 -326 -387 0
-928 -326 -407 0
-929 444 0
-929 449 0
-929 -321 0
-929 -322 0
-929 -323 0
-929 -327 0
-929 -324 455 0
-929 -324 -300 -306 0
-929 -324 -365 0
-929 -324 -366 0
-929 -324 -367 0
-929 -324 -385 0
-929 -324 -386 0
-929 -324 -387 0
-929 -324 -389 0
-929 -324 -390 0
-929 -324 -391 0
-929 -324 -405 0
-929 -324 -406 0
-929 -324 -407 0
-929 -324 -409 0
-929 -324 -410 0
-929 -324 -411 0
-929 -325 456 0
-929 -325 -300 -307 0
-929 -325 -366 0
-929 -325 -367 0
-929 -325 -386 0
-929 -325 -387 0
-929 -325 -390 0
-929 -325 -391 0
-929 -325 -406 0
-929 -325 -407 0
-929 -325 -410 0
-929 -325 -411 0
-929 -326 457 0
-929 -326 -300 -308 0
-929 -326 -367 0
-929 -326 -387 0
-929 -326 -391 0
-929 -326 -407 0
-929 -326 -411 0
-930 444 0
-930 450 0
-930 -319 0
-930 -322 0
-930 -323 0
-930 -327 0
-930 -324 455 0
-930 -324 -301 -306 0
-930 -324 -369 0
-930 -324 -370 0
-930 -324 -371 0
-930 -324 -389 0
-930 -324 -390 0
-930 -324 -391 0
-930 -324 -393 0
-930 -324 -394 0
-930 -324 -395 0
-930 -324 -405 0
-930 -324 -406 0
-930 -324 -407 0
-930 -324 -409 0
-930 -324 -410 0
-930 -324 -411 0
-930 -324 -413 0
-930 -324 -414 0
-930 -324 -415 0
-930 -325 456 0
-930 -325 -301 -307 0
-930 -325 -370 0
-930 -325 -371 0
-930 -325 -390 0
-930 -325 -391 0
-930 -325 -394 0
-930 -325 -395 0
-930 -325 -406 0
-930 -325 -407 0
-930 -325 -410 0
-930 -325 -411 0
-930 -325 -414 0
-930 -325 -415 0
-930 -326 457 0
-930 -326 -301 -308 0
-930 -326 -371 0
-930 -326 -391 0
-930 -326 -395 0
-930 -326 -407 0
-930 -326 -411 0
-930 -326 -415 0
-931 444 0
-931 451 0
-931 -319 0
-931 -320 0
-931 -323 0
-931 -327 0
-931 -324 455 0
-931 -324 -302 -306 0
-931 -324 -373 0
-931 -324 -374 0
-931 -324 -375 0
-931 -324 -393 0
-931 -324 -394 0
-931 -324 -395 0
-931 -324 -397 0
-931 -324 -398 0
-931 -324 -399 0
-931 -324 -409 0
-931 -324 -410 0
-931 -324 -411 0
-931 -324 -413 0
-931 -324 -414 0
-931 -324 -415 0
-931 -324 -417 0
-931 -324 -418 0
-931 -324 -419 0
-931 -325 456 0
-931 -325 -302 -307 0
-931 -325 -374 0
-931 -325 -375 0
-931 -325 -394 0
-931 -325 -395 0
-931 -325 -398 0
-931 -325 -399 0
-931 -325 -410 0
-931 -325 -411 0
-931 -325 -414 0
-931 -325 -415 0
-931 -325 -418 0
-931 -325 -419 0
-931 -326 457 0
-931 -326 -302 -308 0
-931 -326 -375 0
-931 -326 -395 0
-931 -326 -399 0
-931 -326 -411 0
-931 -326 -415 0
-931 -326 -419 0
-932 444 0
-932 452 0
-932 -319 0
-932 -320 0
-932 -321 0
-932 -327 0
-932 -324 455 0
-932 -324 -303 -306 0
-932 -324 -377 0
-932 -324 -378 0
-932 -324 -379 0
-932 -324 -397 0
-932 -324 -398 0
-932 -324 -399 0
-932 -324 -401 0
-932 -324 -402 0
-932 -324 -403 0
-932 -324 -413 0
-932 -324 -414 0
-932 -324 -415 0
-932 -324 -417 0
-932 -324 -418 0
-932 -324 -419 0
-932 -325 456 0
-932 -325 -303 -307 0
-932 -325 -378 0
-932 -325 -379 0
-932 -325 -398 0
-932 -325 -399 0
-932 -325 -402 0
-932 -325 -403 0
-932 -325 -414 0
-932 -325 -415 0
-932 -325 -418 0
-932 -325 -419 0
-932 -326 457 0
-932 -326 -303 -308 0
-932 -326 -379 0
-932 -326 -399 0
-932 -326 -403 0
-932 -326 -415 0
-932 -326 -419 0
-933 444 0
-933 453 0
-933 -319 0
-933 -320 0
-933 -321 0
-933 -322 0
-933 -327 0
-933 -324 455 0
-933 -324 -304 -306 0
-933 -324 -381 0
-933 -324 -382 0
-933 -324 -383 0
-933 -324 -401 0
-933 -324 -402 0
-933 -324 -403 0
-933 -324 -417 0
-933 -324 -418 0
-933 -324 -419 0
-933 -325 456 0
-933 -325 -304 -307 0
-933 -325 -382 0
-933 -325 -383 0
-933 -325 -402 0
-933 -325 -403 0
-933 -325 -418 0
-933 -325 -419 0
-933 -326 457 0
-933 -326 -304 -308 0
-933 -326 -383 0
-933 -326 -403 0
-933 -326 -419 0
-934 444 0
-934 448 0
-934 -329 0
-934 -330 0
-934 -331 0
-934 -335 0
-934 -332 455 0
-934 -332 -299 -306 0
-934 -332 -361 0
-934 -332 -362 0
-934 -332 -363 0
-934 -332 -385 0
-934 -332 -386 0
-934 -332 -387 0
-934 -332 -405 0
-934 -332 -406 0
-934 -332 -407 0
-934 -333 456 0
-934 -333 -299 -307 0
-934 -333 -362 0
-934 -333 -363 0
-934 -333 -386 0
-934 -333 -387 0
-934 -333 -406 0
-934 -333 -407 0
-934 -334 457 0
-934 -334 -299 -308 0
-934 -334 -363 0
-934 -334 -387 0
-934 -334 -407 0
-935 444 0
-935 449 0
-935 -330 0
-935 -331 0
-935 -335 0
-935 -332 455 0
-935 -332 -300 -306 0
-935 -332 -365 0
-935 -332 -366 0
-935 -332 -367 0
-935 -332 -385 0
-935 -332 -386 0
-935 -332 -387 0
-935 -332 -389 0
-935 -332 -390 0
-935 -332 -391 0
-935 -332 -405 0
-935 -332 -406 0
-935 -332 -407 0
-935 -332 -409 0
-935 -332 -410 0
-935 -332 -411 0
-935 -333 456 0
-935 -333 -300 -307 0
-935 -333 -366 0
-935 -333 -367 0
-935 -333 -386 0
-935 -333 -387 0
-935 -333 -390 0
-935 -333 -391 0
-935 -333 -406 0
-935 -333 -407 0
-935 -333 -410 0
-935 -333 -411 0
-935 -334 457 0
-935 -334 -300 -308 0
-935 -334 -367 0
-935 -334 -387 0
-935 -334 -391 0
-935 -334 -407 0
-935 -334 -411 0
-936 444 0
-936 450 0
-936 -331 0
-936 -335 0
-936 -332 455 0
-936 -332 -301 -306 0
-936 -332 -369 0
-936 -332 -370 0
-936 -332 -371 0
-936 -332 -389 0
-936 -332 -390 0
-936 -332 -391 0
-936 -332 -393 0
-936 -332 -394 0
-936 -332 -395 0
-936 -332 -405 0
-936 -332 -406 0
-936 -332 -407 0
-936 -332 -409 0
-936 -332 -410 0
-936 -332 -411 0
-936 -332 -413 0
-936 -332 -414 0
-936 -332 -415 0
-936 -333 456 0
-936 -333 -301 -307 0
-936 -333 -370 0
-936 -333 -371 0
-936 -333 -390 0
-936 -333 -391 0
-936 -333 -394 0
-936 -333 -395 0
-936 -333 -406 0
-936 -333 -407 0
-936 -333 -410 0
-936 -333 -411 0
-936 -333 -414 0
-936 -333 -415 0
-936 -334 457 0
-936 -334 -301 -308 0
-936 -334 -371 0
-936 -334 -391 0
-936 -334 -395 0
-936 -334 -407 0
-936 -334 -411 0
-936 -334 -415 0
-937 444 0
-937 451 0
-937 -328 0
-937 -335 0
-937 -332 455 0
-937 -332 -302 -306 0
-937 -332 -373 0
-937 -332 -374 0
-937 -332 -375 0
-937 -332 -393 0
-937 -332 -394 0
-937 -332 -395 0
-937 -332 -397 0
-937 -332 -398 0
-937 -332 -399 0
-937 -332 -409 0
-937 -332 -410 0
-937 -332 -411 0
-937 -332 -413 0
-937 -332 -414 0
-937 -332 -415 0
-937 -332 -417 0
-937 -332 -418 0
-937 -332 -419 0
-937 -333 456 0
-937 -333 -302 -307 0
-937 -333 -374 0
-937 -333 -375 0
-937 -333 -394 0
-937 -333 -395 0
-937 -333 -398 0
-937 -333 -399 0
-937 -333 -410 0
-937 -333 -411 0
-937 -333 -414 0
-937 -333 -415 0
-937 -333 -418 0
-937 -333 -419 0
-937 -334 457 0
-937 -334 -302 -308 0
-937 -334 -375 0
-937 -334 -395 0
-937 -334 -399 0
-937 -334 -411 0
-937 -334 -415 0
-937 -334 -419 0
-938 444 0
-938 452 0
-938 -328 0
-938 -329 0
-938 -335 0
-938 -332 455 0
-938 -332 -303 -306 0
-938 -332 -377 0
-938 -332 -378 0
-938 -332 -379 0
-938 -332 -397 0
-938 -332 -398 0
-938 -332 -399 0
-938 -332 -401 0
-938 -332 -402 0
-938 -332 -403 0
-938 -332 -413 0
-938 -332 -414 0
-938 -332 -415 0
-938 -332 -417 0
-938 -332 -418 0
-938 -332 -419 0
-938 -333 456 0
-938 -333 -303 -307 0
-938 -333 -378 0
-938 -333 -379 0
-938 -333 -398 0
-938 -333 -399 0
-938 -333 -402 0
-938 -333 -403 0
-938 -333 -414 0
-938 -333 -415 0
-938 -333 -418 0
-938 -333 -419 0
-938 -334 457 0
-938 -334 -303 -308 0
-938 -334 -379 0
-938 -334 -399 0
-938 -334 -403 0
-938 -334 -415 0
-938 -334 -419 0
-939 444 0
-939 453 0
-939 -328 0
-939 -329 0
-939 -330 0
-939 -335 0
-939 -332 455 0
-939 -332 -304 -306 0
-939 -332 -381 0
-939 -332 -382 0
-939 -332 -383 0
-939 -332 -401 0
-939 -332 -402 0
-939 -332 -403 0
-939 -332 -417 0
-939 -332 -418 0
-939 -332 -419 0
-939 -333 456 0
-939 -333 -304 -307 0
-939 -333 -382 0
-939 -333 -383 0
-939 -333 -402 0
-939 -333 -403 0
-939 -333 -418 0
-939 -333 -419 0
-939 -334 457 0
-939 -334 -304 -308 0
-939 -334 -383 0
-939 -334 -403 0
-939 -334 -419 0
-940 444 0
-940 448 0
-940 454 0
-940 -299 -305 0
-940 -360 0
-940 -361 0
-940 -362 0
-940 -363 0
-940 -384 0
-940 -385 0
-940 -386 0
-940 -387 0
-940 -404 0
-940 -405 0
-940 -406 0
-940 -407 0
-941 444 0
-941 449 0
-941 454 0
-941 -300 -305 0
-941 -364 0
-941 -365 0
-941 -366 0
-941 -367 0
-941 -384 0
-941 -385 0
-941 -386 0
-941 -387 0
-941 -388 0
-941 -389 0
-941 -390 0
-941 -391 0
-941 -404 0
-941 -405 0
-941 -406 0
-941 -407 0
-941 -408 0
-941 -409 0
-941 -410 0
-941 -411 0
-942 444 0
-942 450 0
-942 454 0
-942 -301 -305 0
-942 -368 0
-942 -369 0
-942 -370 0
-942 -371 0
-942 -388 0
-942 -389 0
-942 -390 0
-942 -391 0
-942 -392 0
-942 -393 0
-942 -394 0
-942 -395 0
-942 -404 0
-942 -405 0
-942 -406 0
-942 -407 0
-942 -408 0
-942 -409 0
-942 -410 0
-942 -411 0
-942 -412 0
-942 -413 0
-942 -414 0
-942 -415 0
-943 444 0
-943 451 0
-943 454 0
-943 -302 -305 0
-943 -372 0
-943 -373 0
-943 -374 0
-943 -375 0
-943 -392 0
-943 -393 0
-943 -394 0
-943 -395 0
-943 -396 0
-943 -397 0
-943 -398 0
-943 -399 0
-943 -408 0
-943 -409 0
-943 -410 0
-943 -411 0
-943 -412 0
-943 -413 0
-943 -414 0
-943 -415 0
-943 -416 0
-943 -417 0
-943 -418 0
-943 -419 0
-944 444 0
-944 452 0
-944 454 0
-944 -303 -305 0
-944 -376 0
-944 -377 0
-944 -378 0
-944 -379 0
-944 -396 0
-944 -397 0
-944 -398 0
-944 -399 0
-944 -400 0
-944 -401 0
-944 -402 0
-944 -403 0
-944 -412 0
-944 -413 0
-944 -414 0
-944 -415 0
-944 -416 0
-944 -417 0
-944 -418 0
-944 -419 0
-945 444 0
-945 453 0
-945 454 0
-945 -304 -305 0
-945 -380 0
-945 -381 0
-945 -382 0
-945 -383 0
-945 -400 0
-945 -401 0
-945 -402 0
-945 -403 0
-945 -416 0
-945 -417 0
-945 -418 0
-945 -419 0
-946 445 0
-946 458 0
-946 -300 0
-946 -301 0
-946 -302 0
-946 -303 0
-946 -304 0
-946 -308 0
-946 -305 465 0
-946 -305 -309 -316 0
-946 -305 -337 0
-946 -305 -338 0
-946 -305 -339 0
-946 -305 -385 0
-946 -305 -386 0
-946 -305 -387 0
-946 -305 -405 0
-946 -305 -406 0
-946 -305 -407 0
-946 -306 466 0
-946 -306 -309 -317 0
-946 -306 -338 0
-946 -306 -339 0
-946 -306 -386 0
-946 -306 -387 0
-946 -306 -406 0
-946 -306 -407 0
-946 -307 467 0
-946 -307 -309 -318 0
-946 -307 -339 0
-946 -307 -387 0
-946 -307 -407 0
-947 445 0
-947 459 0
-947 -299 0
-947 -301 0
-947 -302 0
-947 -303 0
-947 -304 0
-947 -308 0
-947 -305 465 0
-947 -305 -310 -316 0
-947 -305 -341 0
-947 -305 -342 0
-947 -305 -343 0
-947 -305 -385 0
-947 -305 -386 0
-947 -305 -387 0
-947 -305 -389 0
-947 -305 -390 0
-947 -305 -391 0
-947 -305 -405 0
-947 -305 -406 0
-947 -305 -407 0
-947 -305 -409 0
-947 -305 -410 0
-947 -305 -411 0
-947 -306 466 0
-947 -306 -310 -317 0
-947 -306 -342 0
-947 -306 -343 0
-947 -306 -386 0
-947 -306 -387 0
-947 -306 -390 0
-947 -306 -391 0
-947 -306 -406 0
-947 -306 -407 0
-947 -306 -410 0
-947 -306 -411 0
-947 -307 467 0
-947 -307 -310 -318 0
-947 -307 -343 0
-947 -307 -387 0
-947 -307 -391 0
-947 -307 -407 0
-947 -307 -411 0
-948 445 0
-948 460 0
-948 -299 0
-948 -300 0
-948 -302 0
-948 -303 0
-948 -304 0
-948 -308 0
-948 -305 465 0
-948 -305 -311 -316 0
-948 -305 -345 0
-948 -305 -346 0
-948 -305 -347 0
-948 -305 -389 0
-948 -305 -390 0
-948 -305 -391 0
-948 -305 -393 0
-948 -305 -394 0
-948 -305 -395 0
-948 -305 -405 0
-948 -305 -406 0
-948 -305 -407 0
-948 -305 -409 0
-948 -305 -410 0
-948 -305 -411 0
-948 -305 -413 0
-948 -305 -414 0
-948 -305 -415 0
-948 -306 466 0
-948 -306 -311 -317 0
-948 -306 -346 0
-948 -306 -347 0
-948 -306 -390 0
-948 -306 -391 0
-948 -306 -394 0
-948 -306 -395 0
-948 -306 -406 0
-948 -306 -407 0
-948 -306 -410 0
-948 -306 -411 0
-948 -306 -414 0
-948 -306 -415 0
-948 -307 467 0
-948 -307 -311 -318 0
-948 -307 -347 0
-948 -307 -391 0
-948 -307 -395 0
-948 -307 -407 0
-948 -307 -411 0
-948 -307 -415 0
-949 445 0
-949 461 0
-949 -299 0
-949 -300 0
-949 -301 0
-949 -303 0
-949 -304 0
-949 -308 0
-949 -305 465 0
-949 -305 -312 -316 0
-949 -305 -349 0
-949 -305 -350 0
-949 -305 -351 0
-949 -305 -393 0
-949 -305 -394 0
-949 -305 -395 0
-949 -305 -397 0
-949 -305 -398 0
-949 -305 -399 0
-949 -305 -409 0
-949 -305 -410 0
-949 -305 -411 0
-949 -305 -413 0
-949 -305 -414 0
-949 -305 -415 0
-949 -305 -417 0
-949 -305 -418 0
-949 -305 -419 0
-949 -306 466 0
-949 -306 -312 -317 0
-949 -306 -350 0
-949 -306 -351 0
-949 -306 -394 0
-949 -306 -395 0
-949 -306 -398 0
-949 -306 -399 0
-949 -306 -410 0
-949 -306 -411 0
-949 -306 -414 0
-949 -306 -415 0
-949 -306 -418 0
-949 -306 -419 0
-949 -307 467 0
-949 -307 -312 -318 0
-949 -307 -351 0
-949 -307 -395 0
-949 -307 -399 0
-949 -307 -411 0
-949 -307 -415 0
-949 -307 -419 0
-950 445 0
-950 462 0
-950 -299 0
-950 -300 0
-950 -301 0
-950 -302 0
-950 -304 0
-950 -308 0
-950 -305 465 0
-950 -305 -313 -316 0
-950 -305 -353 0
-950 -305 -354 0
-950 -305 -355 0
-950 -305 -397 0
-950 -305 -398 0
-950 -305 -399 0
-950 -305 -401 0
-950 -305 -402 0
-950 -305 -403 0
-950 -305 -413 0
-950 -305 -414 0
-950 -305 -415 0
-950 -305 -417 0
-950 -305 -418 0
-950 -305 -419 0
-950 -306 466 0
-950 -306 -313 -317 0
-950 -306 -354 0
-950 -306 -355 0
-950 -306 -398 0
-950 -306 -399 0
-950 -306 -402 0
-950 -306 -403 0
-950 -306 -414 0
-950 -306 -415 0
-950 -306 -418 0
-950 -306 -419 0
-950 -307 467 0
-950 -307 -313 -318 0
-950 -307 -355 0
-950 -307 -399 0
-950 -307 -403 0
-950 -307 -415 0
-950 -307 -419 0
-951 445 0
-951 463 0
-951 -299 0
-951 -300 0
-951 -301 0
-951 -302 0
-951 -303 0
-951 -308 0
-951 -305 465 0
-951 -305 -314 -316 0
-951 -305 -357 0
-951 -305 -358 0
-951 -305 -359 0
-951 -305 -401 0
-951 -305 -402 0
-951 -305 -403 0
-951 -305 -417 0
-951 -305 -418 0
-951 -305 -419 0
-951 -306 466 0
-951 -306 -314 -317 0
-951 -306 -358 0
-951 -306 -359 0
-951 -306 -402 0
-951 -306 -403 0
-951 -306 -418 0
-951 -306 -419 0
-951 -307 467 0
-951 -307 -314 -318 0
-951 -307 -359 0
-951 -307 -403 0
-951 -307 -419 0
-952 445 0
-952 458 0
-952 -320 0
-952 -321 0
-952 -322 0
-952 -323 0
-952 -327 0
-952 -324 465 0
-952 -324 -309 -316 0
-952 -324 -337 0
-952 -324 -338 0
-952 -324 -339 0
-952 -324 -385 0
-952 -324 -386 0
-952 -324 -387 0
-952 -324 -405 0
-952 -324 -406 0
-952 -324 -407 0
-952 -325 466 0
-952 -325 -309 -317 0
-952 -325 -338 0
-952 -325 -339 0
-952 -325 -386 0
-952 -325 -387 0
-952 -325 -406 0
-952 -325 -407 0
-952 -326 467 0
-952 -326 -309 -318 0
-952 -326 -339 0
-952 -326 -387 0
-952 -326 -407 0
-953 445 0
-953 459 0
-953 -321 0
-953 -322 0
-953 -323 0
-953 -327 0
-953 -324 465 0
-953 -324 -310 -316 0
-953 -324 -341 0
-953 -324 -342 0
-953 -324 -343 0
-953 -324 -385 0
-953 -324 -386 0
-953 -324 -387 0
-953 -324 -389 0
-953 -324 -390 0
-953 -324 -391 0
-953 -324 -405 0
-953 -324 -406 0
-953 -324 -407 0
-953 -324 -409 0
-953 -324 -410 0
-953 -324 -411 0
-953 -325 466 0
-953 -325 -310 -317 0
-953 -325 -342 0
-953 -325 -343 0
-953 -325 -386 0
-953 -325 -387 0
-953 -325 -390 0
-953 -325 -391 0
-953 -325 -406 0
-953 -325 -407 0
-953 -325 -410 0
-953 -325 -411 0
-953 -326 467 0
-953 -326 -310 -318 0
-953 -326 -343 0
-953 -326 -387 0
-953 -326 -391 0
-953 -326 -407 0
-953 -326 -411 0
-954 445 0
-954 460 0
-954 -319 0
-954 -322 0
-954 -323 0
-954 -327 0
-954 -324 465 0
-954 -324 -311 -316 0
-954 -324 -345 0
-954 -324 -346 0
-954 -324 -347 0
-954 -324 -389 0
-954 -324 -390 0
-954 -324 -391 0
-954 -324 -393 0
-954 -324 -394 0
-954 -324 -395 0
-954 -324 -405 0
-954 -324 -406 0
-954 -324 -407 0
-954 -324 -409 0
-954 -324 -410 0
-954 -324 -411 0
-954 -324 -413 0
-954 -324 -414 0
-954 -324 -415 0
-954 -325 466 0
-954 -325 -311 -317 0
-954 -325 -346 0
-954 -325 -347 0
-954 -325 -390 0
-954 -325 -391 0
-954 -325 -394 0
-954 -325 -395 0
-954 -325 -406 0
-954 -325 -407 0
-954 -325 -410 0
-954 -325 -411 0
-954 -325 -414 0
-954 -325 -415 0
-954 -326 467 0
-954 -326 -311 -318 0
-954 -326 -347 0
-954 -326 -391 0
-954 -326 -395 0
-954 -326 -407 0
-954 -326 -411 0
-954 -326 -415 0
-955 445 0
-955 461 0
-955 -319 0
-955 -320 0
-955 -323 0
-955 -327 0
-955 -324 465 0
-955 -324 -312 -316 0
-955 -324 -349 0
-955 -324 -350 0
-955 -324 -351 0
-955 -324 -393 0
-955 -324 -394 0
-955 -324 -395 0
-955 -324 -397 0
-955 -324 -398 0
-955 -324 -399 0
-955 -324 -409 0
-955 -324 -410 0
-955 -324 -411 0
-955 -324 -413 0
-955 -324 -414 0
-955 -324 -415 0
-955 -324 -417 0
-955 -324 -418 0
-955 -324 -419 0
-955 -325 466 0
-955 -325 -312 -317 0
-955 -325 -350 0
-955 -325 -351 0
-955 -325 -394 0
-955 -325 -395 0
-955 -325 -398 0
-955 -325 -399 0
-955 -325 -410 0
-955 -325 -411 0
-955 -325 -414 0
-955 -325 -415 0
-955 -325 -418 0
-955 -325 -419 0
-955 -326 467 0
-955 -326 -312 -318 0
-955 -326 -351 0
-955 -326 -395 0
-955 -326 -399 0
-955 -326 -411 0
-955 -326 -415 0
-955 -326 -419 0
-956 445 0
-956 462 0
-956 -319 0
-956 -320 0
-956 -321 0
-956 -327 0
-956 -324 465 0
-956 -324 -313 -316 0
-956 -324 -353 0
-956 -324 -354 0
-956 -324 -355 0
-956 -324 -397 0
-956 -324 -398 0
-956 -324 -399 0
-956 -324 -401 0
-956 -324 -402 0
-956 -324 -403 0
-956 -324 -413 0
-956 -324 -414 0
-956 -324 -415 0
-956 -324 -417 0
-956 -324 -418 0
-956 -324 -419 0
-956 -325 466 0
-956 -325 -313 -317 0
-956 -325 -354 0
-956 -325 -355 0
-956 -325 -398 0
-956 -325 -399 0
-956 -325 -402 0
-956 -325 -403 0
-956 -325 -414 0
-956 -325 -415 0
-956 -325 -418 0
-956 -325 -419 0
-956 -326 467 0
-956 -326 -313 -318 0
-956 -326 -355 0
-956 -326 -399 0
-956 -326 -403 0
-956 -326 -415 0
-956 -326 -419 0
-957 445 0
-957 463 0
-957 -319 0
-957 -320 0
-957 -321 0
-957 -322 0
-957 -327 0
-957 -324 465 0
-957 -324 -314 -316 0
-957 -324 -357 0
-957 -324 -358 0
-957 -324 -359 0
-957 -324 -401 0
-957 -324 -402 0
-957 -324 -403 0
-957 -324 -417 0
-957 -324 -418 0
-957 -324 -419 0
-957 -325 466 0
-957 -325 -314 -317 0
-957 -325 -358 0
-957 -325 -359 0
-957 -325 -402 0
-957 -325 -403 0
-957 -325 -418 0
-957 -325 -419 0
-957 -326 467 0
-957 -326 -314 -318 0
-957 -326 -359 0
-957 -326 -403 0
-957 -326 -419 0
-958 445 0
-958 458 0
-958 -329 0
-958 -330 0
-958 -331 0
-958 -335 0
-958 -332 465 0
-958 -332 -309 -316 0
-958 -332 -337 0
-958 -332 -338 0
-958 -332 -339 0
-958 -332 -385 0
-958 -332 -386 0
-958 -332 -387 0
-958 -332 -405 0
-958 -332 -406 0
-958 -332 -407 0
-958 -333 466 0
-958 -333 -309 -317 0
-958 -333 -338 0
-958 -333 -339 0
-958 -333 -386 0
-958 -333 -387 0
-958 -333 -406 0
-958 -333 -407 0
-958 -334 467 0
-958 -334 -309 -318 0
-958 -334 -339 0
-958 -334 -387 0
-958 -334 -407 0
-959 445 0
-959 459 0
-959 -330 0
-959 -331 0
-959 -335 0
-959 -332 465 0
-959 -332 -310 -316 0
-959 -332 -341 0
-959 -332 -342 0
-959 -332 -343 0
-959 -332 -385 0
-959 -332 -386 0
-959 -332 -387 0
-959 -332 -389 0
-959 -332 -390 0
-959 -332 -391 0
-959 -332 -405 0
-959 -332 -406 0
-959 -332 -407 0
-959 -332 -409 0
-959 -332 -410 0
-959 -332 -411 0
-959 -333 466 0
-959 -333 -310 -317 0
-959 -333 -342 0
-959 -333 -343 0
-959 -333 -386 0
-959 -333 -387 0
-959 -333 -390 0
-959 -333 -391 0
-959 -333 -406 0
-959 -333 -407 0
-959 -333 -410 0
-959 -333 -411 0
-959 -334 467 0
-959 -334 -310 -318 0
-959 -334 -343 0
-959 -334 -387 0
-959 -334 -391 0
-959 -334 -407 0
-959 -334 -411 0
-960 445 0
-960 460 0
-960 -331 0
-960 -335 0
-960 -332 465 0
-960 -332 -311 -316 0
-960 -332 -345 0
-960 -332 -346 0
-960 -332 -347 0
-960 -332 -389 0
-960 -332 -390 0
-960 -332 -391 0
-960 -332 -393 0
-960 -332 -394 0
-960 -332 -395 0
-960 -332 -405 0
-960 -332 -406 0
-960 -332 -407 0
-960 -332 -409 0
-960 -332 -410 0
-960 -332 -411 0
-960 -332 -413 0
-960 -332 -414 0
-960 -332 -415 0
-960 -333 466 0
-960 -333 -311 -317 0
-960 -333 -346 0
-960 -333 -347 0
-960 -333 -390 0
-960 -333 -391 0
-960 -333 -394 0
-960 -333 -395 0
-960 -333 -406 0
-960 -333 -407 0
-960 -333 -410 0
-960 -333 -411 0
-960 -333 -414 0
-960 -333 -415 0
-960 -334 467 0
-960 -334 -311 -318 0
-960 -334 -347 0
-960 -334 -391 0
-960 -334 -395 0
-960 -334 -407 0
-960 -334 -411 0
-960 -334 -415 0
-961 445 0
-961 461 0
-961 -328 0
-961 -335 0
-961 -332 465 0
-961 -332 -312 -316 0
-961 -332 -349 0
-961 -332 -350 0
-961 -332 -351 0
-961 -332 -393 0
-961 -332 -394 0
-961 -332 -395 0
-961 -332 -397 0
-961 -332 -398 0
-961 -332 -399 0
-961 -332 -409 0
-961 -332 -410 0
-961 -332 -411 0
-961 -332 -413 0
-961 -332 -414 0
-961 -332 -415 0
-961 -332 -417 0
-961 -332 -418 0
-961 -332 -419 0
-961 -333 466 0
-961 -333 -312 -317 0
-961 -333 -350 0
-961 -333 -351 0
-961 -333 -394 0
-961 -333 -395 0
-961 -333 -398 0
-961 -333 -399 0
-961 -333 -410 0
-961 -333 -411 0
-961 -333 -414 0
-961 -333 -415 0
-961 -333 -418 0
-961 -333 -419 0
-961 -334 467 0
-961 -334 -312 -318 0
-961 -334 -351 0
-961 -334 -395 0
-961 -334 -399 0
-961 -334 -411 0
-961 -334 -415 0
-961 -334 -419 0
-962 445 0
-962 462 0
-962 -328 0
-962 -329 0
-962 -335 0
-962 -332 465 0
-962 -332 -313 -316 0
-962 -332 -353 0
-962 -332 -354 0
-962 -332 -355 0
-962 -332 -397 0
-962 -332 -398 0
-962 -332 -399 0
-962 -332 -401 0
-962 -332 -402 0
-962 -332 -403 0
-962 -332 -413 0
-962 -332 -414 0
-962 -332 -415 0
-962 -332 -417 0
-962 -332 -418 0
-962 -332 -419 0
-962 -333 466 0
-962 -333 -313 -317 0
-962 -333 -354 0
-962 -333 -355 0
-962 -333 -398 0
-962 -333 -399 0
-962 -333 -402 0
-962 -333 -403 0
-962 -333 -414 0
-962 -333 -415 0
-962 -333 -418 0
-962 -333 -419 0
-962 -334 467 0
-962 -334 -313 -318 0
-962 -334 -355 0
-962 -334 -399 0
-962 -334 -403 0
-962 -334 -415 0
-962 -334 -419 0
-963 445 0
-963 463 0
-963 -328 0
-963 -329 0
-963 -330 0
-963 -335 0
-963 -332 465 0
-963 -332 -314 -316 0
-963 -332 -357 0
-963 -332 -358 0
-963 -332 -359 0
-963 -332 -401 0
-963 -332 -402 0
-963 -332 -403 0
-963 -332 -417 0
-963 -332 -418 0
-963 -332 -419 0
-963 -333 466 0
-963 -333 -314 -317 0
-963 -333 -358 0
-963 -333 -359 0
-963 -333 -402 0
-963 -333 -403 0
-963 -333 -418 0
-963 -333 -419 0
-963 -334 467 0
-963 -334 -314 -318 0
-963 -334 -359 0
-963 -334 -403 0
-963 -334 -419 0
-964 445 0
-964 458 0
-964 464 0
-964 -309 -315 0
-964 -336 0
-964 -337 0
-964 -338 0
-964 -339 0
-964 -384 0
-964 -385 0
-964 -386 0
-964 -387 0
-964 -404 0
-964 -405 0
-964 -406 0
-964 -407 0
-965 445 0
-965 459 0
-965 464 0
-965 -310 -315 0
-965 -340 0
-965 -341 0
-965 -342 0
-965 -343 0
-965 -384 0
-965 -385 0
-965 -386 0
-965 -387 0
-965 -388 0
-965 -389 0
-965 -390 0
-965 -391 0
-965 -404 0
-965 -405 0
-965 -406 0
-965 -407 0
-965 -408 0
-965 -409 0
-965 -410 0
-965 -411 0
-966 445 0
-966 460 0
-966 464 0
-966 -311 -315 0
-966 -344 0
-966 -345 0
-966 -346 0
-966 -347 0
-966 -388 0
-966 -389 0
-966 -390 0
-966 -391 0
-966 -392 0
-966 -393 0
-966 -394 0
-966 -395 0
-966 -404 0
-966 -405 0
-966 -406 0
-966 -407 0
-966 -408 0
-966 -409 0
-966 -410 0
-966 -411 0
-966 -412 0
-966 -413 0
-966 -414 0
-966 -415 0
-967 445 0
-967 461 0
-967 464 0
-967 -312 -315 0
-967 -348 0
-967 -349 0
-967 -350 0
-967 -351 0
-967 -392 0
-967 -393 0
-967 -394 0
-967 -395 0
-967 -396 0
-967 -397 0
-967 -398 0
-967 -399 0
-967 -408 0
-967 -409 0
-967 -410 0
-967 -411 0
-967 -412 0
-967 -413 0
-967 -414 0
-967 -415 0
-967 -416 0
-967 -417 0
-967 -418 0
-967 -419 0
-968 445 0
-968 462 0
-968 464 0
-968 -313 -315 0
-968 -352 0
-968 -353 0
-968 -354 0
-968 -355 0
-968 -396 0
-968 -397 0
-968 -398 0
-968 -399 0
-968 -400 0
-968 -401 0
-968 -402 0
-968 -403 0
-968 -412 0
-968 -413 0
-968 -414 0
-968 -415 0
-968 -416 0
-968 -417 0
-968 -418 0
-968 -419 0
-969 445 0
-969 463 0
-969 464 0
-969 -314 -315 0
-969 -356 0
-969 -357 0
-969 -358 0
-969 -359 0
-969 -400 0
-969 -401 0
-969 -402 0
-969 -403 0
-969 -416 0
-969 -417 0
-969 -418 0
-969 -419 0
-970 446 0
-970 468 0
-970 -301 0
-970 -302 0
-970 -303 0
-970 -304 0
-970 -308 0
-970 -305 474 0
-970 -305 -319 -325 0
-970 -305 -337 0
-970 -305 -338 0
-970 -305 -339 0
-970 -305 -341 0
-970 -305 -342 0
-970 -305 -343 0
-970 -305 -361 0
-970 -305 -362 0
-970 -305 -363 0
-970 -305 -365 0
-970 -305 -366 0
-970 -305 -367 0
-970 -305 -405 0
-970 -305 -406 0
-970 -305 -407 0
-970 -305 -409 0
-970 -305 -410 0
-970 -305 -411 0
-970 -306 475 0
-970 -306 -319 -326 0
-970 -306 -338 0
-970 -306 -339 0
-970 -306 -342 0
-970 -306 -343 0
-970 -306 -362 0
-970 -306 -363 0
-970 -306 -366 0
-970 -306 -367 0
-970 -306 -406 0
-970 -306 -407 0
-970 -306 -410 0
-970 -306 -411 0
-970 -307 476 0
-970 -307 -319 -327 0
-970 -307 -339 0
-970 -307 -343 0
-970 -307 -363 0
-970 -307 -367 0
-970 -307 -407 0
-970 -307 -411 0
-971 446 0
-971 469 0
-971 -299 0
-971 -302 0
-971 -303 0
-971 -304 0
-971 -308 0
-971 -305 474 0
-971 -305 -320 -325 0
-971 -305 -341 0
-971 -305 -342 0
-971 -305 -343 0
-971 -305 -345 0
-971 -305 -346 0
-971 -305 -347 0
-971 -305 -365 0
-971 -305 -366 0
-971 -305 -367 0
-971 -305 -369 0
-971 -305 -370 0
-971 -305 -371 0
-971 -305 -405 0
-971 -305 -406 0
-971 -305 -407 0
-971 -305 -409 0
-971 -305 -410 0
-971 -305 -411 0
-971 -305 -413 0
-971 -305 -414 0
-971 -305 -415 0
-971 -306 475 0
-971 -306 -320 -326 0
-971 -306 -342 0
-971 -306 -343 0
-971 -306 -346 0
-971 -306 -347 0
-971 -306 -366 0
-971 -306 -367 0
-971 -306 -370 0
-971 -306 -371 0
-971 -306 -406 0
-971 -306 -407 0
-971 -306 -410 0
-971 -306 -411 0
-971 -306 -414 0
-971 -306 -415 0
-971 -307 476 0
-971 -307 -320 -327 0
-971 -307 -343 0
-971 -307 -347 0
-971 -307 -367 0
-971 -307 -371 0
-971 -307 -407 0
-971 -307 -411 0
-971 -307 -415 0
-972 446 0
-972 470 0
-972 -299 0
-972 -300 0
-972 -303 0
-972 -304 0
-972 -308 0
-972 -305 474 0
-972 -305 -321 -325 0
-972 -305 -345 0
-972 -305 -346 0
-972 -305 -347 0
-972 -305 -349 0
-972 -305 -350 0
-972 -305 -351 0
-972 -305 -369 0
-972 -305 -370 0
-972 -305 -371 0
-972 -305 -373 0
-972 -305 -374 0
-972 -305 -375 0
-972 -305 -405 0
-972 -305 -406 0
-972 -305 -407 0
-972 -305 -409 0
-972 -305 -410 0
-972 -305 -411 0
-972 -305 -413 0
-972 -305 -414 0
-972 -305 -415 0
-972 -305 -417 0
-972 -305 -418 0
-972 -305 -419 0
-972 -306 475 0
-972 -306 -321 -326 0
-972 -306 -346 0
-972 -306 -347 0
-972 -306 -350 0
-972 -306 -351 0
-972 -306 -370 0
-972 -306 -371 0
-972 -306 -374 0
-972 -306 -375 0
-972 -306 -406 0
-972 -306 -407 0
-972 -306 -410 0
-972 -306 -411 0
-972 -306 -414 0
-972 -306 -415 0
-972 -306 -418 0
-972 -306 -419 0
-972 -307 476 0
-972 -307 -321 -327 0
-972 -307 -347 0
-972 -307 -351 0
-972 -307 -371 0
-972 -307 -375 0
-972 -307 -407 0
-972 -307 -411 0
-972 -307 -415 0
-972 -307 -419 0
-973 446 0
-973 471 0
-973 -299 0
-973 -300 0
-973 -301 0
-973 -304 0
-973 -308 0
-973 -305 474 0
-973 -305 -322 -325 0
-973 -305 -349 0
-973 -305 -350 0
-973 -305 -351 0
-973 -305 -353 0
-973 -305 -354 0
-973 -305 -355 0
-973 -305 -373 0
-973 -305 -374 0
-973 -305 -375 0
-973 -305 -377 0
-973 -305 -378 0
-973 -305 -379 0
-973 -305 -409 0
-973 -305 -410 0
-973 -305 -411 0
-973 -305 -413 0
-973 -305 -414 0
-973 -305 -415 0
-973 -305 -417 0
-973 -305 -418 0
-973 -305 -419 0
-973 -306 475 0
-973 -306 -322 -326 0
-973 -306 -350 0
-973 -306 -351 0
-973 -306 -354 0
-973 -306 -355 0
-973 -306 -374 0
-973 -306 -375 0
-973 -306 -378 0
-973 -306 -379 0
-973 -306 -410 0
-973 -306 -411 0
-973 -306 -414 0
-973 -306 -415 0
-973 -306 -418 0
-973 -306 -419 0
-973 -307 476 0
-973 -307 -322 -327 0
-973 -307 -351 0
-973 -307 -355 0
-973 -307 -375 0
-973 -307 -379 0
-973 -307 -411 0
-973 -307 -415 0
-973 -307 -419 0
-974 446 0
-974 472 0
-974 -299 0
-974 -300 0
-974 -301 0
-974 -302 0
-974 -308 0
-974 -305 474 0
-974 -305 -323 -325 0
-974 -305 -353 0
-974 -305 -354 0
-974 -305 -355 0
-974 -305 -357 0
-974 -305 -358 0
-974 -305 -359 0
-974 -305 -377 0
-974 -305 -378 0
-974 -305 -379 0
-974 -305 -381 0
-974 -305 -382 0
-974 -305 -383 0
-974 -305 -413 0
-974 -305 -414 0
-974 -305 -415 0
-974 -305 -417 0
-974 -305 -418 0
-974 -305 -419 0
-974 -306 475 0
-974 -306 -323 -326 0
-974 -306 -354 0
-974 -306 -355 0
-974 -306 -358 0
-974 -306 -359 0
-974 -306 -378 0
-974 -306 -379 0
-974 -306 -382 0
-974 -306 -383 0
-974 -306 -414 0
-974 -306 -415 0
-974 -306 -418 0
-974 -306 -419 0
-974 -307 476 0
-974 -307 -323 -327 0
-974 -307 -355 0
-974 -307 -359 0
-974 -307 -379 0
-974 -307 -383 0
-974 -307 -415 0
-974 -307 -419 0
-975 446 0
-975 468 0
-975 -311 0
-975 -312 0
-975 -313 0
-975 -314 0
-975 -318 0
-975 -315 474 0
-975 -315 -319 -325 0
-975 -315 -337 0
-975 -315 -338 0
-975 -315 -339 0
-975 -315 -341 0
-975 -315 -342 0
-975 -315 -343 0
-975 -315 -361 0
-975 -315 -362 0
-975 -315 -363 0
-975 -315 -365 0
-975 -315 -366 0
-975 -315 -367 0
-975 -315 -405 0
-975 -315 -406 0
-975 -315 -407 0
-975 -315 -409 0
-975 -315 -410 0
-975 -315 -411 0
-975 -316 475 0
-975 -316 -319 -326 0
-975 -316 -338 0
-975 -316 -339 0
-975 -316 -342 0
-975 -316 -343 0
-975 -316 -362 0
-975 -316 -363 0
-975 -316 -366 0
-975 -316 -367 0
-975 -316 -406 0
-975 -316 -407 0
-975 -316 -410 0
-975 -316 -411 0
-975 -317 476 0
-975 -317 -319 -327 0
-975 -317 -339 0
-975 -317 -343 0
-975 -317 -363 0
-975 -317 -367 0
-975 -317 -407 0
-975 -317 -411 0
-976 446 0
-976 469 0
-976 -309 0
-976 -312 0
-976 -313 0
-976 -314 0
-976 -318 0
-976 -315 474 0
-976 -315 -320 -325 0
-976 -315 -341 0
-976 -315 -342 0
-976 -315 -343 0
-976 -315 -345 0
-976 -315 -346 0
-976 -315 -347 0
-976 -315 -365 0
-976 -315 -366 0
-976 -315 -367 0
-976 -315 -369 0
-976 -315 -370 0
-976 -315 -371 0
-976 -315 -405 0
-976 -315 -406 0
-976 -315 -407 0
-976 -315 -409 0
-976 -315 -410 0
-976 -315 -411 0
-976 -315 -413 0
-976 -315 -414 0
-976 -315 -415 0
-976 -316 475 0
-976 -316 -320 -326 0
-976 -316 -342 0
-976 -316 -343 0
-976 -316 -346 0
-976 -316 -347 0
-976 -316 -366 0
-976 -316 -367 0
-976 -316 -370 0
-976 -316 -371 0
-976 -316 -406 0
-976 -316 -407 0
-976 -316 -410 0
-976 -316 -411 0
-976 -316 -414 0
-976 -316 -415 0
-976 -317 476 0
-976 -317 -320 -327 0
-976 -317 -343 0
-976 -317 -347 0
-976 -317 -367 0
-976 -317 -371 0
-976 -317 -407 0
-976 -317 -411 0
-976 -317 -415 0
-977 446 0
-977 470 0
-977 -309 0
-977 -310 0
-977 -313 0
-977 -314 0
-977 -318 0
-977 -315 474 0
-977 -315 -321 -325 0
-977 -315 -345 0
-977 -315 -346 0
-977 -315 -347 0
-977 -315 -349 0
-977 -315 -350 0
-977 -315 -351 0
-977 -315 -369 0
-977 -315 -370 0
-977 -315 -371 0
-977 -315 -373 0
-977 -315 -374 0
-977 -315 -375 0
-977 -315 -405 0
-977 -315 -406 0
-977 -315 -407 0
-977 -315 -409 0
-977 -315 -410 0
-977 -315 -411 0
-977 -315 -413 0
-977 -315 -414 0
-977 -315 -415 0
-977 -315 -417 0
-977 -315 -418 0
-977 -315 -419 0
-977 -316 475 0
-977 -316 -321 -326 0
-977 -316 -346 0
-977 -316 -347 0
-977 -316 -350 0
-977 -316 -351 0
-977 -316 -370 0
-977 -316 -371 0
-977 -316 -374 0
-977 -316 -375 0
-977 -316 -406 0
-977 -316 -407 0
-977 -316 -410 0
-977 -316 -411 0
-977 -316 -414 0
-977 -316 -415 0
-977 -316 -418 0
-977 -316 -419 0
-977 -317 476 0
-977 -317 -321 -327 0
-977 -317 -347 0
-977 -317 -351 0
-977 -317 -371 0
-977 -317 -375 0
-977 -317 -407 0
-977 -317 -411 0
-977 -317 -415 0
-977 -317 -419 0
-978 446 0
-978 471 0
-978 -309 0
-978 -310 0
-978 -311 0
-978 -314 0
-978 -318 0
-978 -315 474 0
-978 -315 -322 -325 0
-978 -315 -349 0
-978 -315 -350 0
-978 -315 -351 0
-978 -315 -353 0
-978 -315 -354 0
-978 -315 -355 0
-978 -315 -373 0
-978 -315 -374 0
-978 -315 -375 0
-978 -315 -377 0
-978 -315 -378 0
-978 -315 -379 0
-978 -315 -409 0
-978 -315 -410 0
-978 -315 -411 0
-978 -315 -413 0
-978 -315 -414 0
-978 -315 -415 0
-978 -315 -417 0
-978 -315 -418 0
-978 -315 -419 0
-978 -316 475 0
-978 -316 -322 -326 0
-978 -316 -350 0
-978 -316 -351 0
-978 -316 -354 0
-978 -316 -355 0
-978 -316 -374 0
-978 -316 -375 0
-978 -316 -378 0
-978 -316 -379 0
-978 -316 -410 0
-978 -316 -411 0
-978 -316 -414 0
-978 -316 -415 0
-978 -316 -418 0
-978 -316 -419 0
-978 -317 476 0
-978 -317 -322 -327 0
-978 -317 -351 0
-978 -317 -355 0
-978 -317 -375 0
-978 -317 -379 0
-978 -317 -411 0
-978 -317 -415 0
-978 -317 -419 0
-979 446 0
-979 472 0
-979 -309 0
-979 -310 0
-979 -311 0
-979 -312 0
-979 -318 0
-979 -315 474 0
-979 -315 -323 -325 0
-979 -315 -353 0
-979 -315 -354 0
-979 -315 -355 0
-979 -315 -357 0
-979 -315 -358 0
-979 -315 -359 0
-979 -315 -377 0
-979 -315 -378 0
-979 -315 -379 0
-979 -315 -381 0
-979 -315 -382 0
-979 -315 -383 0
-979 -315 -413 0
-979 -315 -414 0
-979 -315 -415 0
-979 -315 -417 0
-979 -315 -418 0
-979 -315 -419 0
-979 -316 475 0
-979 -316 -323 -326 0
-979 -316 -354 0
-979 -316 -355 0
-979 -316 -358 0
-979 -316 -359 0
-979 -316 -378 0
-979 -316 -379 0
-979 -316 -382 0
-979 -316 -383 0
-979 -316 -414 0
-979 -316 -415 0
-979 -316 -418 0
-979 -316 -419 0
-979 -317 476 0
-979 -317 -323 -327 0
-979 -317 -355 0
-979 -317 -359 0
-979 -317 -379 0
-979 -317 -383 0
-979 -317 -415 0
-979 -317 -419 0
-980 446 0
-980 468 0
-980 -330 0
-980 -331 0
-980 -335 0
-980 -332 474 0
-980 -332 -319 -325 0
-980 -332 -337 0
-980 -332 -338 0
-980 -332 -339 0
-980 -332 -341 0
-980 -332 -342 0
-980 -332 -343 0
-980 -332 -361 0
-980 -332 -362 0
-980 -332 -363 0
-980 -332 -365 0
-980 -332 -366 0
-980 -332 -367 0
-980 -332 -405 0
-980 -332 -406 0
-980 -332 -407 0
-980 -332 -409 0
-980 -332 -410 0
-980 -332 -411 0
-980 -333 475 0
-980 -333 -319 -326 0
-980 -333 -338 0
-980 -333 -339 0
-980 -333 -342 0
-980 -333 -343 0
-980 -333 -362 0
-980 -333 -363 0
-980 -333 -366 0
-980 -333 -367 0
-980 -333 -406 0
-980 -333 -407 0
-980 -333 -410 0
-980 -333 -411 0
-980 -334 476 0
-980 -334 -319 -327 0
-980 -334 -339 0
-980 -334 -343 0
-980 -334 -363 0
-980 -334 -367 0
-980 -334 -407 0
-980 -334 -411 0
-981 446 0
-981 469 0
-981 -331 0
-981 -335 0
-981 -332 474 0
-981 -332 -320 -325 0
-981 -332 -341 0
-981 -332 -342 0
-981 -332 -343 0
-981 -332 -345 0
-981 -332 -346 0
-981 -332 -347 0
-981 -332 -365 0
-981 -332 -366 0
-981 -332 -367 0
-981 -332 -369 0
-981 -332 -370 0
-981 -332 -371 0
-981 -332 -405 0
-981 -332 -406 0
-981 -332 -407 0
-981 -332 -409 0
-981 -332 -410 0
-981 -332 -411 0
-981 -332 -413 0
-981 -332 -414 0
-981 -332 -415 0
-981 -333 475 0
-981 -333 -320 -326 0
-981 -333 -342 0
-981 -333 -343 0
-981 -333 -346 0
-981 -333 -347 0
-981 -333 -366 0
-981 -333 -367 0
-981 -333 -370 0
-981 -333 -371 0
-981 -333 -406 0
-981 -333 -407 0
-981 -333 -410 0
-981 -333 -411 0
-981 -333 -414 0
-981 -333 -415 0
-981 -334 476 0
-981 -334 -320 -327 0
-981 -334 -343 0
-981 -334 -347 0
-981 -334 -367 0
-981 -334 -371 0
-981 -334 -407 0
-981 -334 -411 0
-981 -334 -415 0
-982 446 0
-982 470 0
-982 -335 0
-982 -332 474 0
-982 -332 -321 -325 0
-982 -332 -345 0
-982 -332 -346 0
-982 -332 -347 0
-982 -332 -349 0
-982 -332 -350 0
-982 -332 -351 0
-982 -332 -369 0
-982 -332 -370 0
-982 -332 -371 0
-982 -332 -373 0
-982 -332 -374 0
-982 -332 -375 0
-982 -332 -405 0
-982 -332 -406 0
-982 -332 -407 0
-982 -332 -409 0
-982 -332 -410 0
-982 -332 -411 0
-982 -332 -413 0
-982 -332 -414 0
-982 -332 -415 0
-982 -332 -417 0
-982 -332 -418 0
-982 -332 -419 0
-982 -333 475 0
-982 -333 -321 -326 0
-982 -333 -346 0
-982 -333 -347 0
-982 -333 -350 0
-982 -333 -351 0
-982 -333 -370 0
-982 -333 -371 0
-982 -333 -374 0
-982 -333 -375 0
-982 -333 -406 0
-982 -333 -407 0
-982 -333 -410 0
-982 -333 -411 0
-982 -333 -414 0
-982 -333 -415 0
-982 -333 -418 0
-982 -333 -419 0
-982 -334 476 0
-982 -334 -321 -327 0
-982 -334 -347 0
-982 -334 -351 0
-982 -334 -371 0
-982 -334 -375 0
-982 -334 -407 0
-982 -334 -411 0
-982 -334 -415 0
-982 -334 -419 0
-983 446 0
-983 471 0
-983 -328 0
-983 -335 0
-983 -332 474 0
-983 -332 -322 -325 0
-983 -332 -349 0
-983 -332 -350 0
-983 -332 -351 0
-983 -332 -353 0
-983 -332 -354 0
-983 -332 -355 0
-983 -332 -373 0
-983 -332 -374 0
-983 -332 -375 0
-983 -332 -377 0
-983 -332 -378 0
-983 -332 -379 0
-983 -332 -409 0
-983 -332 -410 0
-983 -332 -411 0
-983 -332 -413 0
-983 -332 -414 0
-983 -332 -415 0
-983 -332 -417 0
-983 -332 -418 0
-983 -332 -419 0
-983 -333 475 0
-983 -333 -322 -326 0
-983 -333 -350 0
-983 -333 -351 0
-983 -333 -354 0
-983 -333 -355 0
-983 -333 -374 0
-983 -333 -375 0
-983 -333 -378 0
-983 -333 -379 0
-983 -333 -410 0
-983 -333 -411 0
-983 -333 -414 0
-983 -333 -415 0
-983 -333 -418 0
-983 -333 -419 0
-983 -334 476 0
-983 -334 -322 -327 0
-983 -334 -351 0
-983 -334 -355 0
-983 -334 -375 0
-983 -334 -379 0
-983 -334 -411 0
-983 -334 -415 0
-983 -334 -419 0
-984 446 0
-984 472 0
-984 -328 0
-984 -329 0
-984 -335 0
-984 -332 474 0
-984 -332 -323 -325 0
-984 -332 -353 0
-984 -332 -354 0
-984 -332 -355 0
-984 -332 -357 0
-984 -332 -358 0
-984 -332 -359 0
-984 -332 -377 0
-984 -332 -378 0
-984 -332 -379 0
-984 -332 -381 0
-984 -332 -382 0
-984 -332 -383 0
-984 -332 -413 0
-984 -332 -414 0
-984 -332 -415 0
-984 -332 -417 0
-984 -332 -418 0
-984 -332 -419 0
-984 -333 475 0
-984 -333 -323 -326 0
-984 -333 -354 0
-984 -333 -355 0
-984 -333 -358 0
-984 -333 -359 0
-984 -333 -378 0
-984 -333 -379 0
-984 -333 -382 0
-984 -333 -383 0
-984 -333 -414 0
-984 -333 -415 0
-984 -333 -418 0
-984 -333 -419 0
-984 -334 476 0
-984 -334 -323 -327 0
-984 -334 -355 0
-984 -334 -359 0
-984 -334 -379 0
-984 -334 -383 0
-984 -334 -415 0
-984 -334 -419 0
-985 446 0
-985 468 0
-985 473 0
-985 -319 -324 0
-985 -336 0
-985 -337 0
-985 -338 0
-985 -339 0
-985 -340 0
-985 -341 0
-985 -342 0
-985 -343 0
-985 -360 0
-985 -361 0
-985 -362 0
-985 -363 0
-985 -364 0
-985 -365 0
-985 -366 0
-985 -367 0
-985 -404 0
-985 -405 0
-985 -406 0
-985 -407 0
-985 -408 0
-985 -409 0
-985 -410 0
-985 -411 0
-986 446 0
-986 469 0
-986 473 0
-986 -320 -324 0
-986 -340 0
-986 -341 0
-986 -342 0
-986 -343 0
-986 -344 0
-986 -345 0
-986 -346 0
-986 -347 0
-986 -364 0
-986 -365 0
-986 -366 0
-986 -367 0
-986 -368 0
-986 -369 0
-986 -370 0
-986 -371 0
-986 -404 0
-986 -405 0
-986 -406 0
-986 -407 0
-986 -408 0
-986 -409 0
-986 -410 0
-986 -411 0
-986 -412 0
-986 -413 0
-986 -414 0
-986 -415 0
-987 446 0
-987 470 0
-987 473 0
-987 -321 -324 0
-987 -344 0
-987 -345 0
-987 -346 0
-987 -347 0
-987 -348 0
-987 -349 0
-987 -350 0
-987 -351 0
-987 -368 0
-987 -369 0
-987 -370 0
-987 -371 0
-987 -372 0
-987 -373 0
-987 -374 0
-987 -375 0
-987 -404 0
-987 -405 0
-987 -406 0
-987 -407 0
-987 -408 0
-987 -409 0
-987 -410 0
-987 -411 0
-987 -412 0
-987 -413 0
-987 -414 0
-987 -415 0
-987 -416 0
-987 -417 0
-987 -418 0
-987 -419 0
-988 446 0
-988 471 0
-988 473 0
-988 -322 -324 0
-988 -348 0
-988 -349 0
-988 -350 0
-988 -351 0
-988 -352 0
-988 -353 0
-988 -354 0
-988 -355 0
-988 -372 0
-988 -373 0
-988 -374 0
-988 -375 0
-988 -376 0
-988 -377 0
-988 -378 0
-988 -379 0
-988 -408 0
-988 -409 0
-988 -410 0
-988 -411 0
-988 -412 0
-988 -413 0
-988 -414 0
-988 -415 0
-988 -416 0
-988 -417 0
-988 -418 0
-988 -419 0
-989 446 0
-989 472 0
-989 473 0
-989 -323 -324 0
-989 -352 0
-989 -353 0
-989 -354 0
-989 -355 0
-989 -356 0
-989 -357 0
-989 -358 0
-989 -359 0
-989 -376 0
-989 -377 0
-989 -378 0
-989 -379 0
-989 -380 0
-989 -381 0
-989 -382 0
-989 -383 0
-989 -412 0
-989 -413 0
-989 -414 0
-989 -415 0
-989 -416 0
-989 -417 0
-989 -418 0
-989 -419 0
-990 447 0
-990 477 0
-990 -302 0
-990 -303 0
-990 -304 0
-990 -308 0
-990 -305 482 0
-990 -305 -328 -333 0
-990 -305 -337 0
-990 -305 -338 0
-990 -305 -339 0
-990 -305 -341 0
-990 -305 -342 0
-990 -305 -343 0
-990 -305 -345 0
-990 -305 -346 0
-990 -305 -347 0
-990 -305 -361 0
-990 -305 -362 0
-990 -305 -363 0
-990 -305 -365 0
-990 -305 -366 0
-990 -305 -367 0
-990 -305 -369 0
-990 -305 -370 0
-990 -305 -371 0
-990 -305 -385 0
-990 -305 -386 0
-990 -305 -387 0
-990 -305 -389 0
-990 -305 -390 0
-990 -305 -391 0
-990 -305 -393 0
-990 -305 -394 0
-990 -305 -395 0
-990 -306 483 0
-990 -306 -328 -334 0
-990 -306 -338 0
-990 -306 -339 0
-990 -306 -342 0
-990 -306 -343 0
-990 -306 -346 0
-990 -306 -347 0
-990 -306 -362 0
-990 -306 -363 0
-990 -306 -366 0
-990 -306 -367 0
-990 -306 -370 0
-990 -306 -371 0
-990 -306 -386 0
-990 -306 -387 0
-990 -306 -390 0
-990 -306 -391 0
-990 -306 -394 0
-990 -306 -395 0
-990 -307 484 0
-990 -307 -328 -335 0
-990 -307 -339 0
-990 -307 -343 0
-990 -307 -347 0
-990 -307 -363 0
-990 -307 -367 0
-990 -307 -371 0
-990 -307 -387 0
-990 -307 -391 0
-990 -307 -395 0
-991 447 0
-991 478 0
-991 -299 0
-991 -303 0
-991 -304 0
-991 -308 0
-991 -305 482 0
-991 -305 -329 -333 0
-991 -305 -341 0
-991 -305 -342 0
-991 -305 -343 0
-991 -305 -345 0
-991 -305 -346 0
-991 -305 -347 0
-991 -305 -349 0
-991 -305 -350 0
-991 -305 -351 0
-991 -305 -365 0
-991 -305 -366 0
-991 -305 -367 0
-991 -305 -369 0
-991 -305 -370 0
-991 -305 -371 0
-991 -305 -373 0
-991 -305 -374 0
-991 -305 -375 0
-991 -305 -385 0
-991 -305 -386 0
-991 -305 -387 0
-991 -305 -389 0
-991 -305 -390 0
-991 -305 -391 0
-991 -305 -393 0
-991 -305 -394 0
-991 -305 -395 0
-991 -305 -397 0
-991 -305 -398 0
-991 -305 -399 0
-991 -306 483 0
-991 -306 -329 -334 0
-991 -306 -342 0
-991 -306 -343 0
-991 -306 -346 0
-991 -306 -347 0
-991 -306 -350 0
-991 -306 -351 0
-991 -306 -366 0
-991 -306 -367 0
-991 -306 -370 0
-991 -306 -371 0
-991 -306 -374 0
-991 -306 -375 0
-991 -306 -386 0
-991 -306 -387 0
-991 -306 -390 0
-991 -306 -391 0
-991 -306 -394 0
-991 -306 -395 0
-991 -306 -398 0
-991 -306 -399 0
-991 -307 484 0
-991 -307 -329 -335 0
-991 -307 -343 0
-991 -307 -347 0
-991 -307 -351 0
-991 -307 -367 0
-991 -307 -371 0
-991 -307 -375 0
-991 -307 -387 0
-991 -307 -391 0
-991 -307 -395 0
-991 -307 -399 0
-992 447 0
-992 479 0
-992 -299 0
-992 -300 0
-992 -304 0
-992 -308 0
-992 -305 482 0
-992 -305 -330 -333 0
-992 -305 -345 0
-992 -305 -346 0
-992 -305 -347 0
-992 -305 -349 0
-992 -305 -350 0
-992 -305 -351 0
-992 -305 -353 0
-992 -305 -354 0
-992 -305 -355 0
-992 -305 -369 0
-992 -305 -370 0
-992 -305 -371 0
-992 -305 -373 0
-992 -305 -374 0
-992 -305 -375 0
-992 -305 -377 0
-992 -305 -378 0
-992 -305 -379 0
-992 -305 -389 0
-992 -305 -390 0
-992 -305 -391 0
-992 -305 -393 0
-992 -305 -394 0
-992 -305 -395 0
-992 -305 -397 0
-992 -305 -398 0
-992 -305 -399 0
-992 -305 -401 0
-992 -305 -402 0
-992 -305 -403 0
-992 -306 483 0
-992 -306 -330 -334 0
-992 -306 -346 0
-992 -306 -347 0
-992 -306 -350 0
-992 -306 -351 0
-992 -306 -354 0
-992 -306 -355 0
-992 -306 -370 0
-992 -306 -371 0
-992 -306 -374 0
-992 -306 -375 0
-992 -306 -378 0
-992 -306 -379 0
-992 -306 -390 0
-992 -306 -391 0
-992 -306 -394 0
-992 -306 -395 0
-992 -306 -398 0
-992 -306 -399 0
-992 -306 -402 0
-992 -306 -403 0
-992 -307 484 0
-992 -307 -330 -335 0
-992 -307 -347 0
-992 -307 -351 0
-992 -307 -355 0
-992 -307 -371 0
-992 -307 -375 0
-992 -307 -379 0
-992 -307 -391 0
-992 -307 -395 0
-992 -307 -399 0
-992 -307 -403 0
-993 447 0
-993 480 0
-993 -299 0
-993 -300 0
-993 -301 0
-993 -308 0
-993 -305 482 0
-993 -305 -331 -333 0
-993 -305 -349 0
-993 -305 -350 0
-993 -305 -351 0
-993 -305 -353 0
-993 -305 -354 0
-993 -305 -355 0
-993 -305 -357 0
-993 -305 -358 0
-993 -305 -359 0
-993 -305 -373 0
-993 -305 -374 0
-993 -305 -375 0
-993 -305 -377 0
-993 -305 -378 0
-993 -305 -379 0
-993 -305 -381 0
-993 -305 -382 0
-993 -305 -383 0
-993 -305 -393 0
-993 -305 -394 0
-993 -305 -395 0
-993 -305 -397 0
-993 -305 -398 0
-993 -305 -399 0
-993 -305 -401 0
-993 -305 -402 0
-993 -305 -403 0
-993 -306 483 0
-993 -306 -331 -334 0
-993 -306 -350 0
-993 -306 -351 0
-993 -306 -354 0
-993 -306 -355 0
-993 -306 -358 0
-993 -306 -359 0
-993 -306 -374 0
-993 -306 -375 0
-993 -306 -378 0
-993 -306 -379 0
-993 -306 -382 0
-993 -306 -383 0
-993 -306 -394 0
-993 -306 -395 0
-993 -306 -398 0
-993 -306 -399 0
-993 -306 -402 0
-993 -306 -403 0
-993 -307 484 0
-993 -307 -331 -335 0
-993 -307 -351 0
-993 -307 -355 0
-993 -307 -359 0
-993 -307 -375 0
-993 -307 -379 0
-993 -307 -383 0
-993 -307 -395 0
-993 -307 -399 0
-993 -307 -403 0
-994 447 0
-994 477 0
-994 -312 0
-994 -313 0
-994 -314 0
-994 -318 0
-994 -315 482 0
-994 -315 -328 -333 0
-994 -315 -337 0
-994 -315 -338 0
-994 -315 -339 0
-994 -315 -341 0
-994 -315 -342 0
-994 -315 -343 0
-994 -315 -345 0
-994 -315 -346 0
-994 -315 -347 0
-994 -315 -361 0
-994 -315 -362 0
-994 -315 -363 0
-994 -315 -365 0
-994 -315 -366 0
-994 -315 -367 0
-994 -315 -369 0
-994 -315 -370 0
-994 -315 -371 0
-994 -315 -385 0
-994 -315 -386 0
-994 -315 -387 0
-994 -315 -389 0
-994 -315 -390 0
-994 -315 -391 0
-994 -315 -393 0
-994 -315 -394 0
-994 -315 -395 0
-994 -316 483 0
-994 -316 -328 -334 0
-994 -316 -338 0
-994 -316 -339 0
-994 -316 -342 0
-994 -316 -343 0
-994 -316 -346 0
-994 -316 -347 0
-994 -316 -362 0
-994 -316 -363 0
-994 -316 -366 0
-994 -316 -367 0
-994 -316 -370 0
-994 -316 -371 0
-994 -316 -386 0
-994 -316 -387 0
-994 -316 -390 0
-994 -316 -391 0
-994 -316 -394 0
-994 -316 -395 0
-994 -317 484 0
-994 -317 -328 -335 0
-994 -317 -339 0
-994 -317 -343 0
-994 -317 -347 0
-994 -317 -363 0
-994 -317 -367 0
-994 -317 -371 0
-994 -317 -387 0
-994 -317 -391 0
-994 -317 -395 0
-995 447 0
-995 478 0
-995 -309 0
-995 -313 0
-995 -314 0
-995 -318 0
-995 -315 482 0
-995 -315 -329 -333 0
-995 -315 -341 0
-995 -315 -342 0
-995 -315 -343 0
-995 -315 -345 0
-995 -315 -346 0
-995 -315 -347 0
-995 -315 -349 0
-995 -315 -350 0
-995 -315 -351 0
-995 -315 -365 0
-995 -315 -366 0
-995 -315 -367 0
-995 -315 -369 0
-995 -315 -370 0
-995 -315 -371 0
-995 -315 -373 0
-995 -315 -374 0
-995 -315 -375 0
-995 -315 -385 0
-995 -315 -386 0
-995 -315 -387 0
-995 -315 -389 0
-995 -315 -390 0
-995 -315 -391 0
-995 -315 -393 0
-995 -315 -394 0
-995 -315 -395 0
-995 -315 -397 0
-995 -315 -398 0
-995 -315 -399 0
-995 -316 483 0
-995 -316 -329 -334 0
-995 -316 -342 0
-995 -316 -343 0
-995 -316 -346 0
-995 -316 -347 0
-995 -316 -350 0
-995 -316 -351 0
-995 -316 -366 0
-995 -316 -367 0
-995 -316 -370 0
-995 -316 -371 0
-995 -316 -374 0
-995 -316 -375 0
-995 -316 -386 0
-995 -316 -387 0
-995 -316 -390 0
-995 -316 -391 0
-995 -316 -394 0
-995 -316 -395 0
-995 -316 -398 0
-995 -316 -399 0
-995 -317 484 0
-995 -317 -329 -335 0
-995 -317 -343 0
-995 -317 -347 0
-995 -317 -351 0
-995 -317 -367 0
-995 -317 -371 0
-995 -317 -375 0
-995 -317 -387 0
-995 -317 -391 0
-995 -317 -395 0
-995 -317 -399 0
-996 447 0
-996 479 0
-996 -309 0
-996 -310 0
-996 -314 0
-996 -318 0
-996 -315 482 0
-996 -315 -330 -333 0
-996 -315 -345 0
-996 -315 -346 0
-996 -315 -347 0
-996 -315 -349 0
-996 -315 -350 0
-996 -315 -351 0
-996 -315 -353 0
-996 -315 -354 0
-996 -315 -355 0
-996 -315 -369 0
-996 -315 -370 0
-996 -315 -371 0
-996 -315 -373 0
-996 -315 -374 0
-996 -315 -375 0
-996 -315 -377 0
-996 -315 -378 0
-996 -315 -379 0
-996 -315 -389 0
-996 -315 -390 0
-996 -315 -391 0
-996 -315 -393 0
-996 -315 -394 0
-996 -315 -395 0
-996 -315 -397 0
-996 -315 -398 0
-996 -315 -399 0
-996 -315 -401 0
-996 -315 -402 0
-996 -315 -403 0
-996 -316 483 0
-996 -316 -330 -334 0
-996 -316 -346 0
-996 -316 -347 0
-996 -316 -350 0
-996 -316 -351 0
-996 -316 -354 0
-996 -316 -355 0
-996 -316 -370 0
-996 -316 -371 0
-996 -316 -374 0
-996 -316 -375 0
-996 -316 -378 0
-996 -316 -379 0
-996 -316 -390 0
-996 -316 -391 0
-996 -316 -394 0
-996 -316 -395 0
-996 -316 -398 0
-996 -316 -399 0
-996 -316 -402 0
-996 -316 -403 0
-996 -317 484 0
-996 -317 -330 -335 0
-996 -317 -347 0
-996 -317 -351 0
-996 -317 -355 0
-996 -317 -371 0
-996 -317 -375 0
-996 -317 -379 0
-996 -317 -391 0
-996 -317 -395 0
-996 -317 -399 0
-996 -317 -403 0
-997 447 0
-997 480 0
-997 -309 0
-997 -310 0
-997 -311 0
-997 -318 0
-997 -315 482 0
-997 -315 -331 -333 0
-997 -315 -349 0
-997 -315 -350 0
-997 -315 -351 0
-997 -315 -353 0
-997 -315 -354 0
-997 -315 -355 0
-997 -315 -357 0
-997 -315 -358 0
-997 -315 -359 0
-997 -315 -373 0
-997 -315 -374 0
-997 -315 -375 0
-997 -315 -377 0
-997 -315 -378 0
-997 -315 -379 0
-997 -315 -381 0
-997 -315 -382 0
-997 -315 -383 0
-997 -315 -393 0
-997 -315 -394 0
-997 -315 -395 0
-997 -315 -397 0
-997 -315 -398 0
-997 -315 -399 0
-997 -315 -401 0
-997 -315 -402 0
-997 -315 -403 0
-997 -316 483 0
-997 -316 -331 -334 0
-997 -316 -350 0
-997 -316 -351 0
-997 -316 -354 0
-997 -316 -355 0
-997 -316 -358 0
-997 -316 -359 0
-997 -316 -374 0
-997 -316 -375 0
-997 -316 -378 0
-997 -316 -379 0
-997 -316 -382 0
-997 -316 -383 0
-997 -316 -394 0
-997 -316 -395 0
-997 -316 -398 0
-997 -316 -399 0
-997 -316 -402 0
-997 -316 -403 0
-997 -317 484 0
-997 -317 -331 -335 0
-997 -317 -351 0
-997 -317 -355 0
-997 -317 -359 0
-997 -317 -375 0
-997 -317 -379 0
-997 -317 -383 0
-997 -317 -395 0
-997 -317 -399 0
-997 -317 -403 0
-998 447 0
-998 477 0
-998 -322 0
-998 -323 0
-998 -327 0
-998 -324 482 0
-998 -324 -328 -333 0
-998 -324 -337 0
-998 -324 -338 0
-998 -324 -339 0
-998 -324 -341 0
-998 -324 -342 0
-998 -324 -343 0
-998 -324 -345 0
-998 -324 -346 0
-998 -324 -347 0
-998 -324 -361 0
-998 -324 -362 0
-998 -324 -363 0
-998 -324 -365 0
-998 -324 -366 0
-998 -324 -367 0
-998 -324 -369 0
-998 -324 -370 0
-998 -324 -371 0
-998 -324 -385 0
-998 -324 -386 0
-998 -324 -387 0
-998 -324 -389 0
-998 -324 -390 0
-998 -324 -391 0
-998 -324 -393 0
-998 -324 -394 0
-998 -324 -395 0
-998 -325 483 0
-998 -325 -328 -334 0
-998 -325 -338 0
-998 -325 -339 0
-998 -325 -342 0
-998 -325 -343 0
-998 -325 -346 0
-998 -325 -347 0
-998 -325 -362 0
-998 -325 -363 0
-998 -325 -366 0
-998 -325 -367 0
-998 -325 -370 0
-998 -325 -371 0
-998 -325 -386 0
-998 -325 -387 0
-998 -325 -390 0
-998 -325 -391 0
-998 -325 -394 0
-998 -325 -395 0
-998 -326 484 0
-998 -326 -328 -335 0
-998 -326 -339 0
-998 -326 -343 0
-998 -326 -347 0
-998 -326 -363 0
-998 -326 -367 0
-998 -326 -371 0
-998 -326 -387 0
-998 -326 -391 0
-998 -326 -395 0
-999 447 0
-999 478 0
-999 -323 0
-999 -327 0
-999 -324 482 0
-999 -324 -329 -333 0
-999 -324 -341 0
-999 -324 -342 0
-999 -324 -343 0
-999 -324 -345 0
-999 -324 -346 0
-999 -324 -347 0
-999 -324 -349 0
-999 -324 -350 0
-999 -324 -351 0
-999 -324 -365 0
-999 -324 -366 0
-999 -324 -367 0
-999 -324 -369 0
-999 -324 -370 0
-999 -324 -371 0
-999 -324 -373 0
-999 -324 -374 0
-999 -324 -375 0
-999 -324 -385 0
-999 -324 -386 0
-999 -324 -387 0
-999 -324 -389 0
-999 -324 -390 0
-999 -324 -391 0
-999 -324 -393 0
-999 -324 -394 0
-999 -324 -395 0
-999 -324 -397 0
-999 -324 -398 0
-999 -324 -399 0
-999 -325 483 0
-999 -325 -329 -334 0
-999 -325 -342 0
-999 -325 -343 0
-999 -325 -346 0
-999 -325 -347 0
-999 -325 -350 0
-999 -325 -351 0
-999 -325 -366 0
-999 -325 -367 0
-999 -325 -370 0
-999 -325 -371 0
-999 -325 -374 0
-999 -325 -375 0
-999 -325 -386 0
-999 -325 -387 0
-999 -325 -390 0
-999 -325 -391 0
-999 -325 -394 0
-999 -325 -395 0
-999 -325 -398 0
-999 -325 -399 0
-999 -326 484 0
-999 -326 -329 -335 0
-999 -326 -343 0
-999 -326 -347 0
-999 -326 -351 0
-999 -326 -367 0
-999 -326 -371 0
-999 -326 -375 0
-999 -326 -387 0
-999 -326 -391 0
-999 -326 -395 0
-999 -326 -399 0
-1000 447 0
-1000 479 0
-1000 -319 0
-1000 -327 0
-1000 -324 482 0
-1000 -324 -330 -333 0
-1000 -324 -345 0
-1000 -324 -346 0
-1000 -324 -347 0
-1000 -324 -349 0
-1000 -324 -350 0
-1000 -324 -351 0
-1000 -324 -353 0
-1000 -324 -354 0
-1000 -324 -355 0
-1000 -324 -369 0
-1000 -324 -370 0
-1000 -324 -371 0
-1000 -324 -373 0
-1000 -324 -374 0
-1000 -324 -375 0
-1000 -324 -377 0
-1000 -324 -378 0
-1000 -324 -379 0
-1000 -324 -389 0
-1000 -324 -390 0
-1000 -324 -391 0
-1000 -324 -393 0
-1000 -324 -394 0
-1000 -324 -395 0
-1000 -324 -397 0
-1000 -324 -398 0
-1000 -324 -399 0
-1000 -324 -401 0
-1000 -324 -402 0
-1000 -324 -403 0
-1000 -325 483 0
-1000 -325 -330 -334 0
-1000 -325 -346 0
-1000 -325 -347 0
-1000 -325 -350 0
-1000 -325 -351 0
-1000 -325 -354 0
-1000 -325 -355 0
-1000 -325 -370 0
-1000 -325 -371 0
-1000 -325 -374 0
-1000 -325 -375 0
-1000 -325 -378 0
-1000 -325 -379 0
-1000 -325 -390 0
-1000 -325 -391 0
-1000 -325 -394 0
-1000 -325 -395 0
-1000 -325 -398 0
-1000 -325 -399 0
-1000 -325 -402 0
-1000 -325 -403 0
-1000 -326 484 0
-1000 -326 -330 -335 0
-1000 -326 -347 0
-1000 -326 -351 0
-1000 -326 -355 0
-1000 -326 -371 0
-1000 -326 -375 0
-1000 -326 -379 0
-1000 -326 -391 0
-1000 -326 -395 0
-1000 -326 -399 0
-1000 -326 -403 0
-1001 447 0
-1001 480 0
-1001 -319 0
-1001 -320 0
-1001 -327 0
-1001 -324 482 0
-1001 -324 -331 -333 0
-1001 -324 -349 0
-1001 -324 -350 0
-1001 -324 -351 0
-1001 -324 -353 0
-1001 -324 -354 0
-1001 -324 -355 0
-1001 -324 -357 0
-1001 -324 -358 0
-1001 -324 -359 0
-1001 -324 -373 0
-1001 -324 -374 0
-1001 -324 -375 0
-1001 -324 -377 0
-1001 -324 -378 0
-1001 -324 -379 0
-1001 -324 -381 0
-1001 -324 -382 0
-1001 -324 -383 0
-1001 -324 -393 0
-1001 -324 -394 0
-1001 -324 -395 0
-1001 -324 -397 0
-1001 -324 -398 0
-1001 -324 -399 0
-1001 -324 -401 0
-1001 -324 -402 0
-1001 -324 -403 0
-1001 -325 483 0
-1001 -325 -331 -334 0
-1001 -325 -350 0
-1001 -325 -351 0
-1001 -325 -354 0
-1001 -325 -355 0
-1001 -325 -358 0
-1001 -325 -359 0
-1001 -325 -374 0
-1001 -325 -375 0
-1001 -325 -378 0
-1001 -325 -379 0
-1001 -325 -382 0
-1001 -325 -383 0
-1001 -325 -394 0
-1001 -325 -395 0
-1001 -325 -398 0
-1001 -325 -399 0
-1001 -325 -402 0
-1001 -325 -403 0
-1001 -326 484 0
-1001 -326 -331 -335 0
-1001 -326 -351 0
-1001 -326 -355 0
-1001 -326 -359 0
-1001 -326 -375 0
-1001 -326 -379 0
-1001 -326 -383 0
-1001 -326 -395 0
-1001 -326 -399 0
-1001 -326 -403 0
-1002 447 0
-1002 477 0
-1002 481 0
-1002 -328 -332 0
-1002 -336 0
-1002 -337 0
-1002 -338 0
-1002 -339 0
-1002 -340 0
-1002 -341 0
-1002 -342 0
-1002 -343 0
-1002 -344 0
-1002 -345 0
-1002 -346 0
-1002 -347 0
-1002 -360 0
-1002 -361 0
-1002 -362 0
-1002 -363 0
-1002 -364 0
-1002 -365 0
-1002 -366 0
-1002 -367 0
-1002 -368 0
-1002 -369 0
-1002 -370 0
-1002 -371 0
-1002 -384 0
-1002 -385 0
-1002 -386 0
-1002 -387 0
-1002 -388 0
-1002 -389 0
-1002 -390 0
-1002 -391 0
-1002 -392 0
-1002 -393 0
-1002 -394 0
-1002 -395 0
-1003 447 0
-1003 478 0
-1003 481 0
-1003 -329 -332 0
-1003 -340 0
-1003 -341 0
-1003 -342 0
-1003 -343 0
-1003 -344 0
-1003 -345 0
-1003 -346 0
-1003 -347 0
-1003 -348 0
-1003 -349 0
-1003 -350 0
-1003 -351 0
-1003 -364 0
-1003 -365 0
-1003 -366 0
-1003 -367 0
-1003 -368 0
-1003 -369 0
-1003 -370 0
-1003 -371 0
-1003 -372 0
-1003 -373 0
-1003 -374 0
-1003 -375 0
-1003 -384 0
-1003 -385 0
-1003 -386 0
-1003 -387 0
-1003 -388 0
-1003 -389 0
-1003 -390 0
-1003 -391 0
-1003 -392 0
-1003 -393 0
-1003 -394 0
-1003 -395 0
-1003 -396 0
-1003 -397 0
-1003 -398 0
-1003 -399 0
-1004 447 0
-1004 479 0
-1004 481 0
-1004 -330 -332 0
-1004 -344 0
-1004 -345 0
-1004 -346 0
-1004 -347 0
-1004 -348 0
-1004 -349 0
-1004 -350 0
-1004 -351 0
-1004 -352 0
-1004 -353 0
-1004 -354 0
-1004 -355 0
-1004 -368 0
-1004 -369 0
-1004 -370 0
-1004 -371 0
-1004 -372 0
-1004 -373 0
-1004 -374 0
-1004 -375 0
-1004 -376 0
-1004 -377 0
-1004 -378 0
-1004 -379 0
-1004 -388 0
-1004 -389 0
-1004 -390 0
-1004 -391 0
-1004 -392 0
-1004 -393 0
-1004 -394 0
-1004 -395 0
-1004 -396 0
-1004 -397 0
-1004 -398 0
-1004 -399 0
-1004 -400 0
-1004 -401 0
-1004 -402 0
-1004 -403 0
-1005 447 0
-1005 480 0
-1005 481 0
-1005 -331 -332 0
-1005 -348 0
-1005 -349 0
-1005 -350 0
-1005 -351 0
-1005 -352 0
-1005 -353 0
-1005 -354 0
-1005 -355 0
-1005 -356 0
-1005 -357 0
-1005 -358 0
-1005 -359 0
-1005 -372 0
-1005 -373 0
-1005 -374 0
-1005 -375 0
-1005 -376 0
-1005 -377 0
-1005 -378 0
-1005 -379 0
-1005 -380 0
-1005 -381 0
-1005 -382 0
-1005 -383 0
-1005 -392 0
-1005 -393 0
-1005 -394 0
-1005 -395 0
-1005 -396 0
-1005 -397 0
-1005 -398 0
-1005 -399 0
-1005 -400 0
-1005 -401 0
-1005 -402 0
-1005 -403 0
1010 1011 1012 1013 1014 1015 1016 1017 1018 1019 1020 1021 1022 1023 1024 1025 1026 1027 1028 1029 1030 1031 1032 1033 1034 1035 1036 1037 1038 1039 1040 1041 1042 1043 1044 1045 1046 1047 1048 1049 1050 1051 1052 1053 1054 1055 1056 1057 1058 1059 1060 1061 1062 1063 1064 1065 1066 1067 1068 1069 1070 1071 1072 1073 1074 1075 1076 1077 1078 1079 1080 1081 1082 1083 1084 1085 1086 1087 1088 1089 1090 1091 1092 1093 0
-1010 -1011 0
-1010 -1012 0
-1010 -1013 0
-1010 -1014 0
-1010 -1015 0
-1010 -1016 0
-1010 -1017 0
-1010 -1018 0
-1010 -1019 0
-1010 -1020 0
-1010 -1021 0
-1010 -1022 0
-1010 -1023 0
-1010 -1024 0
-1010 -1025 0
-1010 -1026 0
-1010 -1027 0
-1010 -1028 0
-1010 -1029 0
-1010 -1030 0
-1010 -1031 0
-1010 -1032 0
-1010 -1033 0
-1010 -1034 0
-1010 -1035 0
-1010 -1036 0
-1010 -1037 0
-1010 -1038 0
-1010 -1039 0
-1010 -1040 0
-1010 -1041 0
-1010 -1042 0
-1010 -1043 0
-1010 -1044 0
-1010 -1045 0
-1010 -1046 0
-1010 -1047 0
-1010 -1048 0
-1010 -1049 0
-1010 -1050 0
-1010 -1051 0
-1010 -1052 0
-1010 -1053 0
-1010 -1054 0
-1010 -1055 0
-1010 -1056 0
-1010 -1057 0
-1010 -1058 0
-1010 -1059 0
-1010 -1060 0
-1010 -1061 0
-1010 -1062 0
-1010 -1063 0
-1010 -1064 0
-1010 -1065 0
-1010 -1066 0
-1010 -1067 0
-1010 -1068 0
-1010 -1069 0
-1010 -1070 0
-1010 -1071 0
-1010 -1072 0
-1010 -1073 0
-1010 -1074 0
-1010 -1075 0
-1010 -1076 0
-1010 -1077 0
-1010 -1078 0
-1010 -1079 0
-1010 -1080 0
-1010 -1081 0
-1010 -1082 0
-1010 -1083 0
-1010 -1084 0
-1010 -1085 0
-1010 -1086 0
-1010 -1087 0
-1010 -1088 0
-1010 -1089 0
-1010 -1090 0
-1010 -1091 0
-1010 -1092 0
-1010 -1093 0
-1011 -1012 0
-1011 -1013 0
-1011 -1014 0
-1011 -1015 0
-1011 -1016 0
-1011 -1017 0
-1011 -1018 0
-1011 -1019 0
-1011 -1020 0
-1011 -1021 0
-1011 -1022 0
-1011 -1023 0
-1011 -1024 0
-1011 -1025 0
-1011 -1026 0
-1011 -1027 0
-1011 -1028 0
-1011 -1029 0
-1011 -1030 0
-1011 -1031 0
-1011 -1032 0
-1011 -1033 0
-1011 -1034 0
-1011 -1035 0
-1011 -1036 0
-1011 -1037 0
-1011 -1038 0
-1011 -1039 0
-1011 -1040 0
-1011 -1041 0
-1011 -1042 0
-1011 -1043 0
-1011 -1044 0
-1011 -1045 0
-1011 -1046 0
-1011 -1047 0
-1011 -1048 0
-1011 -1049 0
-1011 -1050 0
-1011 -1051 0
-1011 -1052 0
-1011 -1053 0
-1011 -1054 0
-1011 -1055 0
-1011 -1056 0
-1011 -1057 0
-1011 -1058 0
-1011 -1059 0
-1011 -1060 0
-1011 -1061 0
-1011 -1062 0
-1011 -1063 0
-1011 -1064 0
-1011 -1065 0
-1011 -1066 0
-1011 -1067 0
-1011 -1068 0
-1011 -1069 0
-1011 -1070 0
-1011 -1071 0
-1011 -1072 0
-1011 -1073 0
-1011 -1074 0
-1011 -1075 0
-1011 -1076 0
-1011 -1077 0
-1011 -1078 0
-1011 -1079 0
-1011 -1080 0
-1011 -1081 0
-1011 -1082 0
-1011 -1083 0
-1011 -1084 0
-1011 -1085 0
-1011 -1086 0
-1011 -1087 0
-1011 -1088 0
-1011 -1089 0
-1011 -1090 0
-1011 -1091 0
-1011 -1092 0
-1011 -1093 0
-1012 -1013 0
-1012 -1014 0
-1012 -1015 0
-1012 -1016 0
-1012 -1017 0
-1012 -1018 0
-1012 -1019 0
-1012 -1020 0
-1012 -1021 0
-1012 -1022 0
-1012 -1023 0
-1012 -1024 0
-1012 -1025 0
-1012 -1026 0
-1012 -1027 0
-1012 -1028 0
-1012 -1029 0
-1012 -1030 0
-1012 -1031 0
-1012 -1032 0
-1012 -1033 0
-1012 -1034 0
-1012 -1035 0
-1012 -1036 0
-1012 -1037 0
-1012 -1038 0
-1012 -1039 0
-1012 -1040 0
-1012 -1041 0
-1012 -1042 0
-1012 -1043 0
-1012 -1044 0
-1012 -1045 0
-1012 -1046 0
-1012 -1047 0
-1012 -1048 0
-1012 -1049 0
-1012 -1050 0
-1012 -1051 0
-1012 -1052 0
-1012 -1053 0
-1012 -1054 0
-1012 -1055 0
-1012 -1056 0
-1012 -1057 0
-1012 -1058 0
-1012 -1059 0
-1012 -1060 0
-1012 -1061 0
-1012 -1062 0
-1012 -1063 0
-1012 -1064 0
-1012 -1065 0
-1012 -1066 0
-1012 -1067 0
-1012 -1068 0
-1012 -1069 0
-1012 -1070 0
-1012 -1071 0
-1012 -1072 0
-1012 -1073 0
-1012 -1074 0
-1012 -1075 0
-1012 -1076 0
-1012 -1077 0
-1012 -1078 0
-1012 -1079 0
-1012 -1080 0
-1012 -1081 0
-1012 -1082 0
-1012 -1083 0
-1012 -1084 0
-1012 -1085 0
-1012 -1086 0
-1012 -1087 0
-1012 -1088 0
-1012 -1089 0
-1012 -1090 0
-1012 -1091 0
-1012 -1092 0
-1012 -1093 0
-1013 -1014 0
-1013 -1015 0
-1013 -1016 0
-1013 -1017 0
-1013 -1018 0
-1013 -1019 0
-1013 -1020 0
-1013 -1021 0
-1013 -1022 0
-1013 -1023 0
-1013 -1024 0
-1013 -1025 0
-1013 -1026 0
-1013 -1027 0
-1013 -1028 0
-1013 -1029 0
-1013 -1030 0
-1013 -1031 0
-1013 -1032 0
-1013 -1033 0
-1013 -1034 0
-1013 -1035 0
-1013 -1036 0
-1013 -1037 0
-1013 -1038 0
-1013 -1039 0
-1013 -1040 0
-1013 -1041 0
-1013 -1042 0
-1013 -1043 0
-1013 -1044 0
-1013 -1045 0
-1013 -1046 0
-1013 -1047 0
-1013 -1048 0
-1013 -1049 0
-1013 -1050 0
-1013 -1051 0
-1013 -1052 0
-1013 -1053 0
-1013 -1054 0
-1013 -1055 0
-1013 -1056 0
-1013 -1057 0
-1013 -1058 0
-1013 -1059 0
-1013 -1060 0
-1013 -1061 0
-1013 -1062 0
-1013 -1063 0
-1013 -1064 0
-1013 -1065 0
-1013 -1066 0
-1013 -1067 0
-1013 -1068 0
-1013 -1069 0
-1013 -1070 0
-1013 -1071 0
-1013 -1072 0
-1013 -1073 0
-1013 -1074 0
-1013 -1075 0
-1013 -1076 0
-1013 -1077 0
-1013 -1078 0
-1013 -1079 0
-1013 -1080 0
-1013 -1081 0
-1013 -1082 0
-1013 -1083 0
-1013 -1084 0
-1013 -1085 0
-1013 -1086 0
-1013 -1087 0
-1013 -1088 0
-1013 -1089 0
-1013 -1090 0
-1013 -1091 0
-1013 -1092 0
-1013 -1093 0
-1014 -1015 0
-1014 -1016 0
-1014 -1017 0
-1014 -1018 0
-1014 -1019 0
-1014 -1020 0
-1014 -1021 0
-1014 -1022 0
-1014 -1023 0
-1014 -1024 0
-1014 -1025 0
-1014 -1026 0
-1014 -1027 0
-1014 -1028 0
-1014 -1029 0
-1014 -1030 0
-1014 -1031 0
-1014 -1032 0
-1014 -1033 0
-1014 -1034 0
-1014 -1035 0
-1014 -1036 0
-1014 -1037 0
-1014 -1038 0
-1014 -1039 0
-1014 -1040 0
-1014 -1041 0
-1014 -1042 0
-1014 -1043 0
-1014 -1044 0
-1014 -1045 0
-1014 -1046 0
-1014 -1047 0
-1014 -1048 0
-1014 -1049 0
-1014 -1050 0
-1014 -1051 0
-1014 -1052 0
-1014 -1053 0
-1014 -1054 0
-1014 -1055 0
-1014 -1056 0
-1014 -1057 0
-1014 -1058 0
-1014 -1059 0
-1014 -1060 0
-1014 -1061 0
-1014 -1062 0
-1014 -1063 0
-1014 -1064 0
-1014 -1065 0
-1014 -1066 0
-1014 -1067 0
-1014 -1068 0
-1014 -1069 0
-1014 -1070 0
-1014 -1071 0
-1014 -1072 0
-1014 -1073 0
-1014 -1074 0
-1014 -1075 0
-1014 -1076 0
-1014 -1077 0
-1014 -1078 0
-1014 -1079 0
-1014 -1080 0
-1014 -1081 0
-1014 -1082 0
-1014 -1083 0
-1014 -1084 0
-1014 -1085 0
-1014 -1086 0
-1014 -1087 0
-1014 -1088 0
-1014 -1089 0
-1014 -1090 0
-1014 -1091 0
-1014 -1092 0
-1014 -1093 0
-1015 -1016 0
-1015 -1017 0
-1015 -1018 0
-1015 -1019 0
-1015 -1020 0
-1015 -1021 0
-1015 -1022 0
-1015 -1023 0
-1015 -1024 0
-1015 -1025 0
-1015 -1026 0
-1015 -1027 0
-1015 -1028 0
-1015 -1029 0
-1015 -1030 0
-1015 -1031 0
-1015 -1032 0
-1015 -1033 0
-1015 -1034 0
-1015 -1035 0
-1015 -1036 0
-1015 -1037 0
-1015 -1038 0
-1015 -1039 0
-1015 -1040 0
-1015 -1041 0
-1015 -1042 0
-1015 -1043 0
-1015 -1044 0
-1015 -1045 0
-1015 -1046 0
-1015 -1047 0
-1015 -1048 0
-1015 -1049 0
-1015 -1050 0
-1015 -1051 0
-1015 -1052 0
-1015 -1053 0
-1015 -1054 0
-1015 -1055 0
-1015 -1056 0
-1015 -1057 0
-1015 -1058 0
-1015 -1059 0
-1015 -1060 0
-1015 -1061 0
-1015 -1062 0
-1015 -1063 0
-1015 -1064 0
-1015 -1065 0
-1015 -1066 0
-1015 -1067 0
-1015 -1068 0
-1015 -1069 0
-1015 -1070 0
-1015 -1071 0
-1015 -1072 0
-1015 -1073 0
-1015 -1074 0
-1015 -1075 0
-1015 -1076 0
-1015 -1077 0
-1015 -1078 0
-1015 -1079 0
-1015 -1080 0
-1015 -1081 0
-1015 -1082 0
-1015 -1083 0
-1015 -1084 0
-1015 -1085 0
-1015 -1086 0
-1015 -1087 0
-1015 -1088 0
-1015 -1089 0
-1015 -1090 0
-1015 -1091 0
-1015 -1092 0
-1015 -1093 0
-1016 -1017 0
-1016 -1018 0
-1016 -1019 0
-1016 -1020 0
-1016 -1021 0
-1016 -1022 0
-1016 -1023 0
-1016 -1024 0
-1016 -1025 0
-1016 -1026 0
-1016 -1027 0
-1016 -1028 0
-1016 -1029 0
-1016 -1030 0
-1016 -1031 0
-1016 -1032 0
-1016 -1033 0
-1016 -1034 0
-1016 -1035 0
-1016 -1036 0
-1016 -1037 0
-1016 -1038 0
-1016 -1039 0
-1016 -1040 0
-1016 -1041 0
-1016 -1042 0
-1016 -1043 0
-1016 -1044 0
-1016 -1045 0
-1016 -1046 0
-1016 -1047 0
-1016 -1048 0
-1016 -1049 0
-1016 -1050 0
-1016 -1051 0
-1016 -1052 0
-1016 -1053 0
-1016 -1054 0
-1016 -1055 0
-1016 -1056 0
-1016 -1057 0
-1016 -1058 0
-1016 -1059 0
-1016 -1060 0
-1016 -1061 0
-1016 -1062 0
-1016 -1063 0
-1016 -1064 0
-1016 -1065 0
-1016 -1066 0
-1016 -1067 0
-1016 -1068 0
-1016 -1069 0
-1016 -1070 0
-1016 -1071 0
-1016 -1072 0
-1016 -1073 0
-1016 -1074 0
-1016 -1075 0
-1016 -1076 0
-1016 -1077 0
-1016 -1078 0
-1016 -1079 0
-1016 -1080 0
-1016 -1081 0
-1016 -1082 0
-1016 -1083 0
-1016 -1084 0
-1016 -1085 0
-1016 -1086 0
-1016 -1087 0
-1016 -1088 0
-1016 -1089 0
-1016 -1090 0
-1016 -1091 0
-1016 -1092 0
-1016 -1093 0
-1017 -1018 0
-1017 -1019 0
-1017 -1020 0
-1017 -1021 0
-1017 -1022 0
-1017 -1023 0
-1017 -1024 0
-1017 -1025 0
-1017 -1026 0
-1017 -1027 0
-1017 -1028 0
-1017 -1029 0
-1017 -1030 0
-1017 -1031 0
-1017 -1032 0
-1017 -1033 0
-1017 -1034 0
-1017 -1035 0
-1017 -1036 0
-1017 -1037 0
-1017 -1038 0
-1017 -1039 0
-1017 -1040 0
-1017 -1041 0
-1017 -1042 0
-1017 -1043 0
-1017 -1044 0
-1017 -1045 0
-1017 -1046 0
-1017 -1047 0
-1017 -1048 0
-1017 -1049 0
-1017 -1050 0
-1017 -1051 0
-1017 -1052 0
-1017 -1053 0
-1017 -1054 0
-1017 -1055 0
-1017 -1056 0
-1017 -1057 0
-1017 -1058 0
-1017 -1059 0
-1017 -1060 0
-1017 -1061 0
-1017 -1062 0
-1017 -1063 0
-1017 -1064 0
-1017 -1065 0
-1017 -1066 0
-1017 -1067 0
-1017 -1068 0
-1017 -1069 0
-1017 -1070 0
-1017 -1071 0
-1017 -1072 0
-1017 -1073 0
-1017 -1074 0
-1017 -1075 0
-1017 -1076 0
-1017 -1077 0
-1017 -1078 0
-1017 -1079 0
-1017 -1080 0
-1017 -1081 0
-1017 -1082 0
-1017 -1083 0
-1017 -1084 0
-1017 -1085 0
-1017 -1086 0
-1017 -1087 0
-1017 -1088 0
-1017 -1089 0
-1017 -1090 0
-1017 -1091 0
-1017 -1092 0
-1017 -1093 0
-1018 -1019 0
-1018 -1020 0
-1018 -1021 0
-1018 -1022 0
-1018 -1023 0
-1018 -1024 0
-1018 -1025 0
-1018 -1026 0
-1018 -1027 0
-1018 -1028 0
-1018 -1029 0
-1018 -1030 0
-1018 -1031 0
-1018 -1032 0
-1018 -1033 0
-1018 -1034 0
-1018 -1035 0
-1018 -1036 0
-1018 -1037 0
-1018 -1038 0
-1018 -1039 0
-1018 -1040 0
-1018 -1041 0
-1018 -1042 0
-1018 -1043 0
-1018 -1044 0
-1018 -1045 0
-1018 -1046 0
-1018 -1047 0
-1018 -1048 0
-1018 -1049 0
-1018 -1050 0
-1018 -1051 0
-1018 -1052 0
-1018 -1053 0
-1018 -1054 0
-1018 -1055 0
-1018 -1056 0
-1018 -1057 0
-1018 -1058 0
-1018 -1059 0
-1018 -1060 0
-1018 -1061 0
-1018 -1062 0
-1018 -1063 0
-1018 -1064 0
-1018 -1065 0
-1018 -1066 0
-1018 -1067 0
-1018 -1068 0
-1018 -1069 0
-1018 -1070 0
-1018 -1071 0
-1018 -1072 0
-1018 -1073 0
-1018 -1074 0
-1018 -1075 0
-1018 -1076 0
-1018 -1077 0
-1018 -1078 0
-1018 -1079 0
-1018 -1080 0
-1018 -1081 0
-1018 -1082 0
-1018 -1083 0
-1018 -1084 0
-1018 -1085 0
-1018 -1086 0
-1018 -1087 0
-1018 -1088 0
-1018 -1089 0
-1018 -1090 0
-1018 -1091 0
-1018 -1092 0
-1018 -1093 0
-1019 -1020 0
-1019 -1021 0
-1019 -1022 0
-1019 -1023 0
-1019 -1024 0
-1019 -1025 0
-1019 -1026 0
-1019 -1027 0
-1019 -1028 0
-1019 -1029 0
-1019 -1030 0
-1019 -1031 0
-1019 -1032 0
-1019 -1033 0
-1019 -1034 0
-1019 -1035 0
-1019 -1036 0
-1019 -1037 0
-1019 -1038 0
-1019 -1039 0
-1019 -1040 0
-1019 -1041 0
-1019 -1042 0
-1019 -1043 0
-1019 -1044 0
-1019 -1045 0
-1019 -1046 0
-1019 -1047 0
-1019 -1048 0
-1019 -1049 0
-1019 -1050 0
-1019 -1051 0
-1019 -1052 0
-1019 -1053 0
-1019 -1054 0
-1019 -1055 0
-1019 -1056 0
-1019 -1057 0
-1019 -1058 0
-1019 -1059 0
-1019 -1060 0
-1019 -1061 0
-1019 -1062 0
-1019 -1063 0
-1019 -1064 0
-1019 -1065 0
-1019 -1066 0
-1019 -1067 0
-1019 -1068 0
-1019 -1069 0
-1019 -1070 0
-1019 -1071 0
-1019 -1072 0
-1019 -1073 0
-1019 -1074 0
-1019 -1075 0
-1019 -1076 0
-1019 -1077 0
-1019 -1078 0
-1019 -1079 0
-1019 -1080 0
-1019 -1081 0
-1019 -1082 0
-1019 -1083 0
-1019 -1084 0
-1019 -1085 0
-1019 -1086 0
-1019 -1087 0
-1019 -1088 0
-1019 -1089 0
-1019 -1090 0
-1019 -1091 0
-1019 -1092 0
-1019 -1093 0
-1020 -1021 0
-1020 -1022 0
-1020 -1023 0
-1020 -1024 0
-1020 -1025 0
-1020 -1026 0
-1020 -1027 0
-1020 -1028 0
-1020 -1029 0
-1020 -1030 0
-1020 -1031 0
-1020 -1032 0
-1020 -1033 0
-1020 -1034 0
-1020 -1035 0
-1020 -1036 0
-1020 -1037 0
-1020 -1038 0
-1020 -1039 0
-1020 -1040 0
-1020 -1041 0
-1020 -1042 0
-1020 -1043 0
-1020 -1044 0
-1020 -1045 0
-1020 -1046 0
-1020 -1047 0
-1020 -1048 0
-1020 -1049 0
-1020 -1050 0
-1020 -1051 0
-1020 -1052 0
-1020 -1053 0
-1020 -1054 0
-1020 -1055 0
-1020 -1056 0
-1020 -1057 0
-1020 -1058 0
-1020 -1059 0
-1020 -1060 0
-1020 -1061 0
-1020 -1062 0
-1020 -1063 0
-1020 -1064 0
-1020 -1065 0
-1020 -1066 0
-1020 -1067 0
-1020 -1068 0
-1020 -1069 0
-1020 -1070 0
-1020 -1071 0
-1020 -1072 0
-1020 -1073 0
-1020 -1074 0
-1020 -1075 0
-1020 -1076 0
-1020 -1077 0
-1020 -1078 0
-1020 -1079 0
-1020 -1080 0
-1020 -1081 0
-1020 -1082 0
-1020 -1083 0
-1020 -1084 0
-1020 -1085 0
-1020 -1086 0
-1020 -1087 0
-1020 -1088 0
-1020 -1089 0
-1020 -1090 0
-1020 -1091 0
-1020 -1092 0
-1020 -1093 0
-1021 -1022 0
-1021 -1023 0
-1021 -1024 0
-1021 -1025 0
-1021 -1026 0
-1021 -1027 0
-1021 -1028 0
-1021 -1029 0
-1021 -1030 0
-1021 -1031 0
-1021 -1032 0
-1021 -1033 0
-1021 -1034 0
-1021 -1035 0
-1021 -1036 0
-1021 -1037 0
-1021 -1038 0
-1021 -1039 0
-1021 -1040 0
-1021 -1041 0
-1021 -1042 0
-1021 -1043 0
-1021 -1044 0
-1021 -1045 0
-1021 -1046 0
-1021 -1047 0
-1021 -1048 0
-1021 -1049 0
-1021 -1050 0
-1021 -1051 0
-1021 -1052 0
-1021 -1053 0
-1021 -1054 0
-1021 -1055 0
-1021 -1056 0
-1021 -1057 0
-1021 -1058 0
-1021 -1059 0
-1021 -1060 0
-1021 -1061 0
-1021 -1062 0
-1021 -1063 0
-1021 -1064 0
-1021 -1065 0
-1021 -1066 0
-1021 -1067 0
-1021 -1068 0
-1021 -1069 0
-1021 -1070 0
-1021 -1071 0
-1021 -1072 0
-1021 -1073 0
-1021 -1074 0
-1021 -1075 0
-1021 -1076 0
-1021 -1077 0
-1021 -1078 0
-1021 -1079 0
-1021 -1080 0
-1021 -1081 0
-1021 -1082 0
-1021 -1083 0
-1021 -1084 0
-1021 -1085 0
-1021 -1086 0
-1021 -1087 0
-1021 -1088 0
-1021 -1089 0
-1021 -1090 0
-1021 -1091 0
-1021 -1092 0
-1021 -1093 0
-1022 -1023 0
-1022 -1024 0
-1022 -1025 0
-1022 -1026 0
-1022 -1027 0
-1022 -1028 0
-1022 -1029 0
-1022 -1030 0
-1022 -1031 0
-1022 -1032 0
-1022 -1033 0
-1022 -1034 0
-1022 -1035 0
-1022 -1036 0
-1022 -1037 0
-1022 -1038 0
-1022 -1039 0
-1022 -1040 0
-1022 -1041 0
-1022 -1042 0
-1022 -1043 0
-1022 -1044 0
-1022 -1045 0
-1022 -1046 0
-1022 -1047 0
-1022 -1048 0
-1022 -1049 0
-1022 -1050 0
-1022 -1051 0
-1022 -1052 0
-1022 -1053 0
-1022 -1054 0
-1022 -1055 0
-1022 -1056 0
-1022 -1057 0
-1022 -1058 0
-1022 -1059 0
-1022 -1060 0
-1022 -1061 0
-1022 -1062 0
-1022 -1063 0
-1022 -1064 0
-1022 -1065 0
-1022 -1066 0
-1022 -1067 0
-1022 -1068 0
-1022 -1069 0
-1022 -1070 0
-1022 -1071 0
-1022 -1072 0
-1022 -1073 0
-1022 -1074 0
-1022 -1075 0
-1022 -1076 0
-1022 -1077 0
-1022 -1078 0
-1022 -1079 0
-1022 -1080 0
-1022 -1081 0
-1022 -1082 0
-1022 -1083 0
-1022 -1084 0
-1022 -1085 0
-1022 -1086 0
-1022 -1087 0
-1022 -1088 0
-1022 -1089 0
-1022 -1090 0
-1022 -1091 0
-1022 -1092 0
-1022 -1093 0
-1023 -1024 0
-1023 -1025 0
-1023 -1026 0
-1023 -1027 0
-1023 -1028 0
-1023 -1029 0
-1023 -1030 0
-1023 -1031 0
-1023 -1032 0
-1023 -1033 0
-1023 -1034 0
-1023 -1035 0
-1023 -1036 0
-1023 -1037 0
-1023 -1038 0
-1023 -1039 0
-1023 -1040 0
-1023 -1041 0
-1023 -1042 0
-1023 -1043 0
-1023 -1044 0
-1023 -1045 0
-1023 -1046 0
-1023 -1047 0
-1023 -1048 0
-1023 -1049 0
-1023 -1050 0
-1023 -1051 0
-1023 -1052 0
-1023 -1053 0
-1023 -1054 0
-1023 -1055 0
-1023 -1056 0
-1023 -1057 0
-1023 -1058 0
-1023 -1059 0
-1023 -1060 0
-1023 -1061 0
-1023 -1062 0
-1023 -1063 0
-1023 -1064 0
-1023 -1065 0
-1023 -1066 0
-1023 -1067 0
-1023 -1068 0
-1023 -1069 0
-1023 -1070 0
-1023 -1071 0
-1023 -1072 0
-1023 -1073 0
-1023 -1074 0
-1023 -1075 0
-1023 -1076 0
-1023 -1077 0
-1023 -1078 0
-1023 -1079 0
-1023 -1080 0
-1023 -1081 0
-1023 -1082 0
-1023 -1083 0
-1023 -1084 0
-1023 -1085 0
-1023 -1086 0
-1023 -1087 0
-1023 -1088 0
-1023 -1089 0
-1023 -1090 0
-1023 -1091 0
-1023 -1092 0
-1023 -1093 0
-1024 -1025 0
-1024 -1026 0
-1024 -1027 0
-1024 -1028 0
-1024 -1029 0
-1024 -1030 0
-1024 -1031 0
-1024 -1032 0
-1024 -1033 0
-1024 -1034 0
-1024 -1035 0
-1024 -1036 0
-1024 -1037 0
-1024 -1038 0
-1024 -1039 0
-1024 -1040 0
-1024 -1041 0
-1024 -1042 0
-1024 -1043 0
-1024 -1044 0
-1024 -1045 0
-1024 -1046 0
-1024 -1047 0
-1024 -1048 0
-1024 -1049 0
-1024 -1050 0
-1024 -1051 0
-1024 -1052 0
-1024 -1053 0
-1024 -1054 0
-1024 -1055 0
-1024 -1056 0
-1024 -1057 0
-1024 -1058 0
-1024 -1059 0
-1024 -1060 0
-1024 -1061 0
-1024 -1062 0
-1024 -1063 0
-1024 -1064 0
-1024 -1065 0
-1024 -1066 0
-1024 -1067 0
-1024 -1068 0
-1024 -1069 0
-1024 -1070 0
-1024 -1071 0
-1024 -1072 0
-1024 -1073 0
-1024 -1074 0
-1024 -1075 0
-1024 -1076 0
-1024 -1077 0
-1024 -1078 0
-1024 -1079 0
-1024 -1080 0
-1024 -1081 0
-1024 -1082 0
-1024 -1083 0
-1024 -1084 0
-1024 -1085 0
-1024 -1086 0
-1024 -1087 0
-1024 -1088 0
-1024 -1089 0
-1024 -1090 0
-1024 -1091 0
-1024 -1092 0
-1024 -1093 0
-1025 -1026 0
-1025 -1027 0
-1025 -1028 0
-1025 -1029 0
-1025 -1030 0
-1025 -1031 0
-1025 -1032 0
-1025 -1033 0
-1025 -1034 0
-1025 -1035 0
-1025 -1036 0
-1025 -1037 0
-1025 -1038 0
-1025 -1039 0
-1025 -1040 0
-1025 -1041 0
-1025 -1042 0
-1025 -1043 0
-1025 -1044 0
-1025 -1045 0
-1025 -1046 0
-1025 -1047 0
-1025 -1048 0
-1025 -1049 0
-1025 -1050 0
-1025 -1051 0
-1025 -1052 0
-1025 -1053 0
-1025 -1054 0
-1025 -1055 0
-1025 -1056 0
-1025 -1057 0
-1025 -1058 0
-1025 -1059 0
-1025 -1060 0
-1025 -1061 0
-1025 -1062 0
-1025 -1063 0
-1025 -1064 0
-1025 -1065 0
-1025 -1066 0
-1025 -1067 0
-1025 -1068 0
-1025 -1069 0
-1025 -1070 0
-1025 -1071 0
-1025 -1072 0
-1025 -1073 0
-1025 -1074 0
-1025 -1075 0
-1025 -1076 0
-1025 -1077 0
-1025 -1078 0
-1025 -1079 0
-1025 -1080 0
-1025 -1081 0
-1025 -1082 0
-1025 -1083 0
-1025 -1084 0
-1025 -1085 0
-1025 -1086 0
-1025 -1087 0
-1025 -1088 0
-1025 -1089 0
-1025 -1090 0
-1025 -1091 0
-1025 -1092 0
-1025 -1093 0
-1026 -1027 0
-1026 -1028 0
-1026 -1029 0
-1026 -1030 0
-1026 -1031 0
-1026 -1032 0
-1026 -1033 0
-1026 -1034 0
-1026 -1035 0
-1026 -1036 0
-1026 -1037 0
-1026 -1038 0
-1026 -1039 0
-1026 -1040 0
-1026 -1041 0
-1026 -1042 0
-1026 -1043 0
-1026 -1044 0
-1026 -1045 0
-1026 -1046 0
-1026 -1047 0
-1026 -1048 0
-1026 -1049 0
-1026 -1050 0
-1026 -1051 0
-1026 -1052 0
-1026 -1053 0
-1026 -1054 0
-1026 -1055 0
-1026 -1056 0
-1026 -1057 0
-1026 -1058 0
-1026 -1059 0
-1026 -1060 0
-1026 -1061 0
-1026 -1062 0
-1026 -1063 0
-1026 -1064 0
-1026 -1065 0
-1026 -1066 0
-1026 -1067 0
-1026 -1068 0
-1026 -1069 0
-1026 -1070 0
-1026 -1071 0
-1026 -1072 0
-1026 -1073 0
-1026 -1074 0
-1026 -1075 0
-1026 -1076 0
-1026 -1077 0
-1026 -1078 0
-1026 -1079 0
-1026 -1080 0
-1026 -1081 0
-1026 -1082 0
-1026 -1083 0
-1026 -1084 0
-1026 -1085 0
-1026 -1086 0
-1026 -1087 0
-1026 -1088 0
-1026 -1089 0
-1026 -1090 0
-1026 -1091 0
-1026 -1092 0
-1026 -1093 0
-1027 -1028 0
-1027 -1029 0
-1027 -1030 0
-1027 -1031 0
-1027 -1032 0
-1027 -1033 0
-1027 -1034 0
-1027 -1035 0
-1027 -1036 0
-1027 -1037 0
-1027 -1038 0
-1027 -1039 0
-1027 -1040 0
-1027 -1041 0
-1027 -1042 0
-1027 -1043 0
-1027 -1044 0
-1027 -1045 0
-1027 -1046 0
-1027 -1047 0
-1027 -1048 0
-1027 -1049 0
-1027 -1050 0
-1027 -1051 0
-1027 -1052 0
-1027 -1053 0
-1027 -1054 0
-1027 -1055 0
-1027 -1056 0
-1027 -1057 0
-1027 -1058 0
-1027 -1059 0
-1027 -1060 0
-1027 -1061 0
-1027 -1062 0
-1027 -1063 0
-1027 -1064 0
-1027 -1065 0
-1027 -1066 0
-1027 -1067 0
-1027 -1068 0
-1027 -1069 0
-1027 -1070 0
-1027 -1071 0
-1027 -1072 0
-1027 -1073 0
-1027 -1074 0
-1027 -1075 0
-1027 -1076 0
-1027 -1077 0
-1027 -1078 0
-1027 -1079 0
-1027 -1080 0
-1027 -1081 0
-1027 -1082 0
-1027 -1083 0
-1027 -1084 0
-1027 -1085 0
-1027 -1086 0
-1027 -1087 0
-1027 -1088 0
-1027 -1089 0
-1027 -1090 0
-1027 -1091 0
-1027 -1092 0
-1027 -1093 0
-1028 -1029 0
-1028 -1030 0
-1028 -1031 0
-1028 -1032 0
-1028 -1033 0
-1028 -1034 0
-1028 -1035 0
-1028 -1036 0
-1028 -1037 0
-1028 -1038 0
-1028 -1039 0
-1028 -1040 0
-1028 -1041 0
-1028 -1042 0
-1028 -1043 0
-1028 -1044 0
-1028 -1045 0
-1028 -1046 0
-1028 -1047 0
-1028 -1048 0
-1028 -1049 0
-1028 -1050 0
-1028 -1051 0
-1028 -1052 0
-1028 -1053 0
-1028 -1054 0
-1028 -1055 0
-1028 -1056 0
-1028 -1057 0
-1028 -1058 0
-1028 -1059 0
-1028 -1060 0
-1028 -1061 0
-1028 -1062 0
-1028 -1063 0
-1028 -1064 0
-1028 -1065 0
-1028 -1066 0
-1028 -1067 0
-1028 -1068 0
-1028 -1069 0
-1028 -1070 0
-1028 -1071 0
-1028 -1072 0
-1028 -1073 0
-1028 -1074 0
-1028 -1075 0
-1028 -1076 0
-1028 -1077 0
-1028 -1078 0
-1028 -1079 0
-1028 -1080 0
-1028 -1081 0
-1028 -1082 0
-1028 -1083 0
-1028 -1084 0
-1028 -1085 0
-1028 -1086 0
-1028 -1087 0
-1028 -1088 0
-1028 -1089 0
-1028 -1090 0
-1028 -1091 0
-1028 -1092 0
-1028 -1093 0
-1029 -1030 0
-1029 -1031 0
-1029 -1032 0
-1029 -1033 0
-1029 -1034 0
-1029 -1035 0
-1029 -1036 0
-1029 -1037 0
-1029 -1038 0
-1029 -1039 0
-1029 -1040 0
-1029 -1041 0
-1029 -1042 0
-1029 -1043 0
-1029 -1044 0
-1029 -1045 0
-1029 -1046 0
-1029 -1047 0
-1029 -1048 0
-1029 -1049 0
-1029 -1050 0
-1029 -1051 0
-1029 -1052 0
-1029 -1053 0
-1029 -1054 0
-1029 -1055 0
-1029 -1056 0
-1029 -1057 0
-1029 -1058 0
-1029 -1059 0
-1029 -1060 0
-1029 -1061 0
-1029 -1062 0
-1029 -1063 0
-1029 -1064 0
-1029 -1065 0
-1029 -1066 0
-1029 -1067 0
-1029 -1068 0
-1029 -1069 0
-1029 -1070 0
-1029 -1071 0
-1029 -1072 0
-1029 -1073 0
-1029 -1074 0
-1029 -1075 0
-1029 -1076 0
-1029 -1077 0
-1029 -1078 0
-1029 -1079 0
-1029 -1080 0
-1029 -1081 0
-1029 -1082 0
-1029 -1083 0
-1029 -1084 0
-1029 -1085 0
-1029 -1086 0
-1029 -1087 0
-1029 -1088 0
-1029 -1089 0
-1029 -1090 0
-1029 -1091 0
-1029 -1092 0
-1029 -1093 0
-1030 -1031 0
-1030 -1032 0
-1030 -1033 0
-1030 -1034 0
-1030 -1035 0
-1030 -1036 0
-1030 -1037 0
-1030 -1038 0
-1030 -1039 0
-1030 -1040 0
-1030 -1041 0
-1030 -1042 0
-1030 -1043 0
-1030 -1044 0
-1030 -1045 0
-1030 -1046 0
-1030 -1047 0
-1030 -1048 0
-1030 -1049 0
-1030 -1050 0
-1030 -1051 0
-1030 -1052 0
-1030 -1053 0
-1030 -1054 0
-1030 -1055 0
-1030 -1056 0
-1030 -1057 0
-1030 -1058 0
-1030 -1059 0
-1030 -1060 0
-1030 -1061 0
-1030 -1062 0
-1030 -1063 0
-1030 -1064 0
-1030 -1065 0
-1030 -1066 0
-1030 -1067 0
-1030 -1068 0
-1030 -1069 0
-1030 -1070 0
-1030 -1071 0
-1030 -1072 0
-1030 -1073 0
-1030 -1074 0
-1030 -1075 0
-1030 -1076 0
-1030 -1077 0
-1030 -1078 0
-1030 -1079 0
-1030 -1080 0
-1030 -1081 0
-1030 -1082 0
-1030 -1083 0
-1030 -1084 0
-1030 -1085 0
-1030 -1086 0
-1030 -1087 0
-1030 -1088 0
-1030 -1089 0
-1030 -1090 0
-1030 -1091 0
-1030 -1092 0
-1030 -1093 0
-1031 -1032 0
-1031 -1033 0
-1031 -1034 0
-1031 -1035 0
-1031 -1036 0
-1031 -1037 0
-1031 -1038 0
-1031 -1039 0
-1031 -1040 0
-1031 -1041 0
-1031 -1042 0
-1031 -1043 0
-1031 -1044 0
-1031 -1045 0
-1031 -1046 0
-1031 -1047 0
-1031 -1048 0
-1031 -1049 0
-1031 -1050 0
-1031 -1051 0
-1031 -1052 0
-1031 -1053 0
-1031 -1054 0
-1031 -1055 0
-1031 -1056 0
-1031 -1057 0
-1031 -1058 0
-1031 -1059 0
-1031 -1060 0
-1031 -1061 0
-1031 -1062 0
-1031 -1063 0
-1031 -1064 0
-1031 -1065 0
-1031 -1066 0
-1031 -1067 0
-1031 -1068 0
-1031 -1069 0
-1031 -1070 0
-1031 -1071 0
-1031 -1072 0
-1031 -1073 0
-1031 -1074 0
-1031 -1075 0
-1031 -1076 0
-1031 -1077 0
-1031 -1078 0
-1031 -1079 0
-1031 -1080 0
-1031 -1081 0
-1031 -1082 0
-1031 -1083 0
-1031 -1084 0
-1031 -1085 0
-1031 -1086 0
-1031 -1087 0
-1031 -1088 0
-1031 -1089 0
-1031 -1090 0
-1031 -1091 0
-1031 -1092 0
-1031 -1093 0
-1032 -1033 0
-1032 -1034 0
-1032 -1035 0
-1032 -1036 0
-1032 -1037 0
-1032 -1038 0
-1032 -1039 0
-1032 -1040 0
-1032 -1041 0
-1032 -1042 0
-1032 -1043 0
-1032 -1044 0
-1032 -1045 0
-1032 -1046 0
-1032 -1047 0
-1032 -1048 0
-1032 -1049 0
-1032 -1050 0
-1032 -1051 0
-1032 -1052 0
-1032 -1053 0
-1032 -1054 0
-1032 -1055 0
-1032 -1056 0
-1032 -1057 0
-1032 -1058 0
-1032 -1059 0
-1032 -1060 0
-1032 -1061 0
-1032 -1062 0
-1032 -1063 0
-1032 -1064 0
-1032 -1065 0
-1032 -1066 0
-1032 -1067 0
-1032 -1068 0
-1032 -1069 0
-1032 -1070 0
-1032 -1071 0
-1032 -1072 0
-1032 -1073 0
-1032 -1074 0
-1032 -1075 0
-1032 -1076 0
-1032 -1077 0
-1032 -1078 0
-1032 -1079 0
-1032 -1080 0
-1032 -1081 0
-1032 -1082 0
-1032 -1083 0
-1032 -1084 0
-1032 -1085 0
-1032 -1086 0
-1032 -1087 0
-1032 -1088 0
-1032 -1089 0
-1032 -1090 0
-1032 -1091 0
-1032 -1092 0
-1032 -1093 0
-1033 -1034 0
-1033 -1035 0
-1033 -1036 0
-1033 -1037 0
-1033 -1038 0
-1033 -1039 0
-1033 -1040 0
-1033 -1041 0
-1033 -1042 0
-1033 -1043 0
-1033 -1044 0
-1033 -1045 0
-1033 -1046 0
-1033 -1047 0
-1033 -1048 0
-1033 -1049 0
-1033 -1050 0
-1033 -1051 0
-1033 -1052 0
-1033 -1053 0
-1033 -1054 0
-1033 -1055 0
-1033 -1056 0
-1033 -1057 0
-1033 -1058 0
-1033 -1059 0
-1033 -1060 0
-1033 -1061 0
-1033 -1062 0
-1033 -1063 0
-1033 -1064 0
-1033 -1065 0
-1033 -1066 0
-1033 -1067 0
-1033 -1068 0
-1033 -1069 0
-1033 -1070 0
-1033 -1071 0
-1033 -1072 0
-1033 -1073 0
-1033 -1074 0
-1033 -1075 0
-1033 -1076 0
-1033 -1077 0
-1033 -1078 0
-1033 -1079 0
-1033 -1080 0
-1033 -1081 0
-1033 -1082 0
-1033 -1083 0
-1033 -1084 0
-1033 -1085 0
-1033 -1086 0
-1033 -1087 0
-1033 -1088 0
-1033 -1089 0
-1033 -1090 0
-1033 -1091 0
-1033 -1092 0
-1033 -1093 0
-1034 -1035 0
-1034 -1036 0
-1034 -1037 0
-1034 -1038 0
-1034 -1039 0
-1034 -1040 0
-1034 -1041 0
-1034 -1042 0
-1034 -1043 0
-1034 -1044 0
-1034 -1045 0
-1034 -1046 0
-1034 -1047 0
-1034 -1048 0
-1034 -1049 0
-1034 -1050 0
-1034 -1051 0
-1034 -1052 0
-1034 -1053 0
-1034 -1054 0
-1034 -1055 0
-1034 -1056 0
-1034 -1057 0
-1034 -1058 0
-1034 -1059 0
-1034 -1060 0
-1034 -1061 0
-1034 -1062 0
-1034 -1063 0
-1034 -1064 0
-1034 -1065 0
-1034 -1066 0
-1034 -1067 0
-1034 -1068 0
-1034 -1069 0
-1034 -1070 0
-1034 -1071 0
-1034 -1072 0
-1034 -1073 0
-1034 -1074 0
-1034 -1075 0
-1034 -1076 0
-1034 -1077 0
-1034 -1078 0
-1034 -1079 0
-1034 -1080 0
-1034 -1081 0
-1034 -1082 0
-1034 -1083 0
-1034 -1084 0
-1034 -1085 0
-1034 -1086 0
-1034 -1087 0
-1034 -1088 0
-1034 -1089 0
-1034 -1090 0
-1034 -1091 0
-1034 -1092 0
-1034 -1093 0
-1035 -1036 0
-1035 -1037 0
-1035 -1038 0
-1035 -1039 0
-1035 -1040 0
-1035 -1041 0
-1035 -1042 0
-1035 -1043 0
-1035 -1044 0
-1035 -1045 0
-1035 -1046 0
-1035 -1047 0
-1035 -1048 0
-1035 -1049 0
-1035 -1050 0
-1035 -1051 0
-1035 -1052 0
-1035 -1053 0
-1035 -1054 0
-1035 -1055 0
-1035 -1056 0
-1035 -1057 0
-1035 -1058 0
-1035 -1059 0
-1035 -1060 0
-1035 -1061 0
-1035 -1062 0
-1035 -1063 0
-1035 -1064 0
-1035 -1065 0
-1035 -1066 0
-1035 -1067 0
-1035 -1068 0
-1035 -1069 0
-1035 -1070 0
-1035 -1071 0
-1035 -1072 0
-1035 -1073 0
-1035 -1074 0
-1035 -1075 0
-1035 -1076 0
-1035 -1077 0
-1035 -1078 0
-1035 -1079 0
-1035 -1080 0
-1035 -1081 0
-1035 -1082 0
-1035 -1083 0
-1035 -1084 0
-1035 -1085 0
-1035 -1086 0
-1035 -1087 0
-1035 -1088 0
-1035 -1089 0
-1035 -1090 0
-1035 -1091 0
-1035 -1092 0
-1035 -1093 0
-1036 -1037 0
-1036 -1038 0
-1036 -1039 0
-1036 -1040 0
-1036 -1041 0
-1036 -1042 0
-1036 -1043 0
-1036 -1044 0
-1036 -1045 0
-1036 -1046 0
-1036 -1047 0
-1036 -1048 0
-1036 -1049 0
-1036 -1050 0
-1036 -1051 0
-1036 -1052 0
-1036 -1053 0
-1036 -1054 0
-1036 -1055 0
-1036 -1056 0
-1036 -1057 0
-1036 -1058 0
-1036 -1059 0
-1036 -1060 0
-1036 -1061 0
-1036 -1062 0
-1036 -1063 0
-1036 -1064 0
-1036 -1065 0
-1036 -1066 0
-1036 -1067 0
-1036 -1068 0
-1036 -1069 0
-1036 -1070 0
-1036 -1071 0
-1036 -1072 0
-1036 -1073 0
-1036 -1074 0
-1036 -1075 0
-1036 -1076 0
-1036 -1077 0
-1036 -1078 0
-1036 -1079 0
-1036 -1080 0
-1036 -1081 0
-1036 -1082 0
-1036 -1083 0
-1036 -1084 0
-1036 -1085 0
-1036 -1086 0
-1036 -1087 0
-1036 -1088 0
-1036 -1089 0
-1036 -1090 0
-1036 -1091 0
-1036 -1092 0
-1036 -1093 0
-1037 -1038 0
-1037 -1039 0
-1037 -1040 0
-1037 -1041 0
-1037 -1042 0
-1037 -1043 0
-1037 -1044 0
-1037 -1045 0
-1037 -1046 0
-1037 -1047 0
-1037 -1048 0
-1037 -1049 0
-1037 -1050 0
-1037 -1051 0
-1037 -1052 0
-1037 -1053 0
-1037 -1054 0
-1037 -1055 0
-1037 -1056 0
-1037 -1057 0
-1037 -1058 0
-1037 -1059 0
-1037 -1060 0
-1037 -1061 0
-1037 -1062 0
-1037 -1063 0
-1037 -1064 0
-1037 -1065 0
-1037 -1066 0
-1037 -1067 0
-1037 -1068 0
-1037 -1069 0
-1037 -1070 0
-1037 -1071 0
-1037 -1072 0
-1037 -1073 0
-1037 -1074 0
-1037 -1075 0
-1037 -1076 0
-1037 -1077 0
-1037 -1078 0
-1037 -1079 0
-1037 -1080 0
-1037 -1081 0
-1037 -1082 0
-1037 -1083 0
-1037 -1084 0
-1037 -1085 0
-1037 -1086 0
-1037 -1087 0
-1037 -1088 0
-1037 -1089 0
-1037 -1090 0
-1037 -1091 0
-1037 -1092 0
-1037 -1093 0
-1038 -1039 0
-1038 -1040 0
-1038 -1041 0
-1038 -1042 0
-1038 -1043 0
-1038 -1044 0
-1038 -1045 0
-1038 -1046 0
-1038 -1047 0
-1038 -1048 0
-1038 -1049 0
-1038 -1050 0
-1038 -1051 0
-1038 -1052 0
-1038 -1053 0
-1038 -1054 0
-1038 -1055 0
-1038 -1056 0
-1038 -1057 0
-1038 -1058 0
-1038 -1059 0
-1038 -1060 0
-1038 -1061 0
-1038 -1062 0
-1038 -1063 0
-1038 -1064 0
-1038 -1065 0
-1038 -1066 0
-1038 -1067 0
-1038 -1068 0
-1038 -1069 0
-1038 -1070 0
-1038 -1071 0
-1038 -1072 0
-1038 -1073 0
-1038 -1074 0
-1038 -1075 0
-1038 -1076 0
-1038 -1077 0
-1038 -1078 0
-1038 -1079 0
-1038 -1080 0
-1038 -1081 0
-1038 -1082 0
-1038 -1083 0
-1038 -1084 0
-1038 -1085 0
-1038 -1086 0
-1038 -1087 0
-1038 -1088 0
-1038 -1089 0
-1038 -1090 0
-1038 -1091 0
-1038 -1092 0
-1038 -1093 0
-1039 -1040 0
-1039 -1041 0
-1039 -1042 0
-1039 -1043 0
-1039 -1044 0
-1039 -1045 0
-1039 -1046 0
-1039 -1047 0
-1039 -1048 0
-1039 -1049 0
-1039 -1050 0
-1039 -1051 0
-1039 -1052 0
-1039 -1053 0
-1039 -1054 0
-1039 -1055 0
-1039 -1056 0
-1039 -1057 0
-1039 -1058 0
-1039 -1059 0
-1039 -1060 0
-1039 -1061 0
-1039 -1062 0
-1039 -1063 0
-1039 -1064 0
-1039 -1065 0
-1039 -1066 0
-1039 -1067 0
-1039 -1068 0
-1039 -1069 0
-1039 -1070 0
-1039 -1071 0
-1039 -1072 0
-1039 -1073 0
-1039 -1074 0
-1039 -1075 0
-1039 -1076 0
-1039 -1077 0
-1039 -1078 0
-1039 -1079 0
-1039 -1080 0
-1039 -1081 0
-1039 -1082 0
-1039 -1083 0
-1039 -1084 0
-1039 -1085 0
-1039 -1086 0
-1039 -1087 0
-1039 -1088 0
-1039 -1089 0
-1039 -1090 0
-1039 -1091 0
-1039 -1092 0
-1039 -1093 0
-1040 -1041 0
-1040 -1042 0
-1040 -1043 0
-1040 -1044 0
-1040 -1045 0
-1040 -1046 0
-1040 -1047 0
-1040 -1048 0
-1040 -1049 0
-1040 -1050 0
-1040 -1051 0
-1040 -1052 0
-1040 -1053 0
-1040 -1054 0
-1040 -1055 0
-1040 -1056 0
-1040 -1057 0
-1040 -1058 0
-1040 -1059 0
-1040 -1060 0
-1040 -1061 0
-1040 -1062 0
-1040 -1063 0
-1040 -1064 0
-1040 -1065 0
-1040 -1066 0
-1040 -1067 0
-1040 -1068 0
-1040 -1069 0
-1040 -1070 0
-1040 -1071 0
-1040 -1072 0
-1040 -1073 0
-1040 -1074 0
-1040 -1075 0
-1040 -1076 0
-1040 -1077 0
-1040 -1078 0
-1040 -1079 0
-1040 -1080 0
-1040 -1081 0
-1040 -1082 0
-1040 -1083 0
-1040 -1084 0
-1040 -1085 0
-1040 -1086 0
-1040 -1087 0
-1040 -1088 0
-1040 -1089 0
-1040 -1090 0
-1040 -1091 0
-1040 -1092 0
-1040 -1093 0
-1041 -1042 0
-1041 -1043 0
-1041 -1044 0
-1041 -1045 0
-1041 -1046 0
-1041 -1047 0
-1041 -1048 0
-1041 -1049 0
-1041 -1050 0
-1041 -1051 0
-1041 -1052 0
-1041 -1053 0
-1041 -1054 0
-1041 -1055 0
-1041 -1056 0
-1041 -1057 0
-1041 -1058 0
-1041 -1059 0
-1041 -1060 0
-1041 -1061 0
-1041 -1062 0
-1041 -1063 0
-1041 -1064 0
-1041 -1065 0
-1041 -1066 0
-1041 -1067 0
-1041 -1068 0
-1041 -1069 0
-1041 -1070 0
-1041 -1071 0
-1041 -1072 0
-1041 -1073 0
-1041 -1074 0
-1041 -1075 0
-1041 -1076 0
-1041 -1077 0
-1041 -1078 0
-1041 -1079 0
-1041 -1080 0
-1041 -1081 0
-1041 -1082 0
-1041 -1083 0
-1041 -1084 0
-1041 -1085 0
-1041 -1086 0
-1041 -1087 0
-1041 -1088 0
-1041 -1089 0
-1041 -1090 0
-1041 -1091 0
-1041 -1092 0
-1041 -1093 0
-1042 -1043 0
-1042 -1044 0
-1042 -1045 0
-1042 -1046 0
-1042 -1047 0
-1042 -1048 0
-1042 -1049 0
-1042 -1050 0
-1042 -1051 0
-1042 -1052 0
-1042 -1053 0
-1042 -1054 0
-1042 -1055 0
-1042 -1056 0
-1042 -1057 0
-1042 -1058 0
-1042 -1059 0
-1042 -1060 0
-1042 -1061 0
-1042 -1062 0
-1042 -1063 0
-1042 -1064 0
-1042 -1065 0
-1042 -1066 0
-1042 -1067 0
-1042 -1068 0
-1042 -1069 0
-1042 -1070 0
-1042 -1071 0
-1042 -1072 0
-1042 -1073 0
-1042 -1074 0
-1042 -1075 0
-1042 -1076 0
-1042 -1077 0
-1042 -1078 0
-1042 -1079 0
-1042 -1080 0
-1042 -1081 0
-1042 -1082 0
-1042 -1083 0
-1042 -1084 0
-1042 -1085 0
-1042 -1086 0
-1042 -1087 0
-1042 -1088 0
-1042 -1089 0
-1042 -1090 0
-1042 -1091 0
-1042 -1092 0
-1042 -1093 0
-1043 -1044 0
-1043 -1045 0
-1043 -1046 0
-1043 -1047 0
-1043 -1048 0
-1043 -1049 0
-1043 -1050 0
-1043 -1051 0
-1043 -1052 0
-1043 -1053 0
-1043 -1054 0
-1043 -1055 0
-1043 -1056 0
-1043 -1057 0
-1043 -1058 0
-1043 -1059 0
-1043 -1060 0
-1043 -1061 0
-1043 -1062 0
-1043 -1063 0
-1043 -1064 0
-1043 -1065 0
-1043 -1066 0
-1043 -1067 0
-1043 -1068 0
-1043 -1069 0
-1043 -1070 0
-1043 -1071 0
-1043 -1072 0
-1043 -1073 0
-1043 -1074 0
-1043 -1075 0
-1043 -1076 0
-1043 -1077 0
-1043 -1078 0
-1043 -1079 0
-1043 -1080 0
-1043 -1081 0
-1043 -1082 0
-1043 -1083 0
-1043 -1084 0
-1043 -1085 0
-1043 -1086 0
-1043 -1087 0
-1043 -1088 0
-1043 -1089 0
-1043 -1090 0
-1043 -1091 0
-1043 -1092 0
-1043 -1093 0
-1044 -1045 0
-1044 -1046 0
-1044 -1047 0
-1044 -1048 0
-1044 -1049 0
-1044 -1050 0
-1044 -1051 0
-1044 -1052 0
-1044 -1053 0
-1044 -1054 0
-1044 -1055 0
-1044 -1056 0
-1044 -1057 0
-1044 -1058 0
-1044 -1059 0
-1044 -1060 0
-1044 -1061 0
-1044 -1062 0
-1044 -1063 0
-1044 -1064 0
-1044 -1065 0
-1044 -1066 0
-1044 -1067 0
-1044 -1068 0
-1044 -1069 0
-1044 -1070 0
-1044 -1071 0
-1044 -1072 0
-1044 -1073 0
-1044 -1074 0
-1044 -1075 0
-1044 -1076 0
-1044 -1077 0
-1044 -1078 0
-1044 -1079 0
-1044 -1080 0
-1044 -1081 0
-1044 -1082 0
-1044 -1083 0
-1044 -1084 0
-1044 -1085 0
-1044 -1086 0
-1044 -1087 0
-1044 -1088 0
-1044 -1089 0
-1044 -1090 0
-1044 -1091 0
-1044 -1092 0
-1044 -1093 0
-1045 -1046 0
-1045 -1047 0
-1045 -1048 0
-1045 -1049 0
-1045 -1050 0
-1045 -1051 0
-1045 -1052 0
-1045 -1053 0
-1045 -1054 0
-1045 -1055 0
-1045 -1056 0
-1045 -1057 0
-1045 -1058 0
-1045 -1059 0
-1045 -1060 0
-1045 -1061 0
-1045 -1062 0
-1045 -1063 0
-1045 -1064 0
-1045 -1065 0
-1045 -1066 0
-1045 -1067 0
-1045 -1068 0
-1045 -1069 0
-1045 -1070 0
-1045 -1071 0
-1045 -1072 0
-1045 -1073 0
-1045 -1074 0
-1045 -1075 0
-1045 -1076 0
-1045 -1077 0
-1045 -1078 0
-1045 -1079 0
-1045 -1080 0
-1045 -1081 0
-1045 -1082 0
-1045 -1083 0
-1045 -1084 0
-1045 -1085 0
-1045 -1086 0
-1045 -1087 0
-1045 -1088 0
-1045 -1089 0
-1045 -1090 0
-1045 -1091 0
-1045 -1092 0
-1045 -1093 0
-1046 -1047 0
-1046 -1048 0
-1046 -1049 0
-1046 -1050 0
-1046 -1051 0
-1046 -1052 0
-1046 -1053 0
-1046 -1054 0
-1046 -1055 0
-1046 -1056 0
-1046 -1057 0
-1046 -1058 0
-1046 -1059 0
-1046 -1060 0
-1046 -1061 0
-1046 -1062 0
-1046 -1063 0
-1046 -1064 0
-1046 -1065 0
-1046 -1066 0
-1046 -1067 0
-1046 -1068 0
-1046 -1069 0
-1046 -1070 0
-1046 -1071 0
-1046 -1072 0
-1046 -1073 0
-1046 -1074 0
-1046 -1075 0
-1046 -1076 0
-1046 -1077 0
-1046 -1078 0
-1046 -1079 0
-1046 -1080 0
-1046 -1081 0
-1046 -1082 0
-1046 -1083 0
-1046 -1084 0
-1046 -1085 0
-1046 -1086 0
-1046 -1087 0
-1046 -1088 0
-1046 -1089 0
-1046 -1090 0
-1046 -1091 0
-1046 -1092 0
-1046 -1093 0
-1047 -1048 0
-1047 -1049 0
-1047 -1050 0
-1047 -1051 0
-1047 -1052 0
-1047 -1053 0
-1047 -1054 0
-1047 -1055 0
-1047 -1056 0
-1047 -1057 0
-1047 -1058 0
-1047 -1059 0
-1047 -1060 0
-1047 -1061 0
-1047 -1062 0
-1047 -1063 0
-1047 -1064 0
-1047 -1065 0
-1047 -1066 0
-1047 -1067 0
-1047 -1068 0
-1047 -1069 0
-1047 -1070 0
-1047 -1071 0
-1047 -1072 0
-1047 -1073 0
-1047 -1074 0
-1047 -1075 0
-1047 -1076 0
-1047 -1077 0
-1047 -1078 0
-1047 -1079 0
-1047 -1080 0
-1047 -1081 0
-1047 -1082 0
-1047 -1083 0
-1047 -1084 0
-1047 -1085 0
-1047 -1086 0
-1047 -1087 0
-1047 -1088 0
-1047 -1089 0
-1047 -1090 0
-1047 -1091 0
-1047 -1092 0
-1047 -1093 0
-1048 -1049 0
-1048 -1050 0
-1048 -1051 0
-1048 -1052 0
-1048 -1053 0
-1048 -1054 0
-1048 -1055 0
-1048 -1056 0
-1048 -1057 0
-1048 -1058 0
-1048 -1059 0
-1048 -1060 0
-1048 -1061 0
-1048 -1062 0
-1048 -1063 0
-1048 -1064 0
-1048 -1065 0
-1048 -1066 0
-1048 -1067 0
-1048 -1068 0
-1048 -1069 0
-1048 -1070 0
-1048 -1071 0
-1048 -1072 0
-1048 -1073 0
-1048 -1074 0
-1048 -1075 0
-1048 -1076 0
-1048 -1077 0
-1048 -1078 0
-1048 -1079 0
-1048 -1080 0
-1048 -1081 0
-1048 -1082 0
-1048 -1083 0
-1048 -1084 0
-1048 -1085 0
-1048 -1086 0
-1048 -1087 0
-1048 -1088 0
-1048 -1089 0
-1048 -1090 0
-1048 -1091 0
-1048 -1092 0
-1048 -1093 0
-1049 -1050 0
-1049 -1051 0
-1049 -1052 0
-1049 -1053 0
-1049 -1054 0
-1049 -1055 0
-1049 -1056 0
-1049 -1057 0
-1049 -1058 0
-1049 -1059 0
-1049 -1060 0
-1049 -1061 0
-1049 -1062 0
-1049 -1063 0
-1049 -1064 0
-1049 -1065 0
-1049 -1066 0
-1049 -1067 0
-1049 -1068 0
-1049 -1069 0
-1049 -1070 0
-1049 -1071 0
-1049 -1072 0
-1049 -1073 0
-1049 -1074 0
-1049 -1075 0
-1049 -1076 0
-1049 -1077 0
-1049 -1078 0
-1049 -1079 0
-1049 -1080 0
-1049 -1081 0
-1049 -1082 0
-1049 -1083 0
-1049 -1084 0
-1049 -1085 0
-1049 -1086 0
-1049 -1087 0
-1049 -1088 0
-1049 -1089 0
-1049 -1090 0
-1049 -1091 0
-1049 -1092 0
-1049 -1093 0
-1050 -1051 0
-1050 -1052 0
-1050 -1053 0
-1050 -1054 0
-1050 -1055 0
-1050 -1056 0
-1050 -1057 0
-1050 -1058 0
-1050 -1059 0
-1050 -1060 0
-1050 -1061 0
-1050 -1062 0
-1050 -1063 0
-1050 -1064 0
-1050 -1065 0
-1050 -1066 0
-1050 -1067 0
-1050 -1068 0
-1050 -1069 0
-1050 -1070 0
-1050 -1071 0
-1050 -1072 0
-1050 -1073 0
-1050 -1074 0
-1050 -1075 0
-1050 -1076 0
-1050 -1077 0
-1050 -1078 0
-1050 -1079 0
-1050 -1080 0
-1050 -1081 0
-1050 -1082 0
-1050 -1083 0
-1050 -1084 0
-1050 -1085 0
-1050 -1086 0
-1050 -1087 0
-1050 -1088 0
-1050 -1089 0
-1050 -1090 0
-1050 -1091 0
-1050 -1092 0
-1050 -1093 0
-1051 -1052 0
-1051 -1053 0
-1051 -1054 0
-1051 -1055 0
-1051 -1056 0
-1051 -1057 0
-1051 -1058 0
-1051 -1059 0
-1051 -1060 0
-1051 -1061 0
-1051 -1062 0
-1051 -1063 0
-1051 -1064 0
-1051 -1065 0
-1051 -1066 0
-1051 -1067 0
-1051 -1068 0
-1051 -1069 0
-1051 -1070 0
-1051 -1071 0
-1051 -1072 0
-1051 -1073 0
-1051 -1074 0
-1051 -1075 0
-1051 -1076 0
-1051 -1077 0
-1051 -1078 0
-1051 -1079 0
-1051 -1080 0
-1051 -1081 0
-1051 -1082 0
-1051 -1083 0
-1051 -1084 0
-1051 -1085 0
-1051 -1086 0
-1051 -1087 0
-1051 -1088 0
-1051 -1089 0
-1051 -1090 0
-1051 -1091 0
-1051 -1092 0
-1051 -1093 0
-1052 -1053 0
-1052 -1054 0
-1052 -1055 0
-1052 -1056 0
-1052 -1057 0
-1052 -1058 0
-1052 -1059 0
-1052 -1060 0
-1052 -1061 0
-1052 -1062 0
-1052 -1063 0
-1052 -1064 0
-1052 -1065 0
-1052 -1066 0
-1052 -1067 0
-1052 -1068 0
-1052 -1069 0
-1052 -1070 0
-1052 -1071 0
-1052 -1072 0
-1052 -1073 0
-1052 -1074 0
-1052 -1075 0
-1052 -1076 0
-1052 -1077 0
-1052 -1078 0
-1052 -1079 0
-1052 -1080 0
-1052 -1081 0
-1052 -1082 0
-1052 -1083 0
-1052 -1084 0
-1052 -1085 0
-1052 -1086 0
-1052 -1087 0
-1052 -1088 0
-1052 -1089 0
-1052 -1090 0
-1052 -1091 0
-1052 -1092 0
-1052 -1093 0
-1053 -1054 0
-1053 -1055 0
-1053 -1056 0
-1053 -1057 0
-1053 -1058 0
-1053 -1059 0
-1053 -1060 0
-1053 -1061 0
-1053 -1062 0
-1053 -1063 0
-1053 -1064 0
-1053 -1065 0
-1053 -1066 0
-1053 -1067 0
-1053 -1068 0
-1053 -1069 0
-1053 -1070 0
-1053 -1071 0
-1053 -1072 0
-1053 -1073 0
-1053 -1074 0
-1053 -1075 0
-1053 -1076 0
-1053 -1077 0
-1053 -1078 0
-1053 -1079 0
-1053 -1080 0
-1053 -1081 0
-1053 -1082 0
-1053 -1083 0
-1053 -1084 0
-1053 -1085 0
-1053 -1086 0
-1053 -1087 0
-1053 -1088 0
-1053 -1089 0
-1053 -1090 0
-1053 -1091 0
-1053 -1092 0
-1053 -1093 0
-1054 -1055 0
-1054 -1056 0
-1054 -1057 0
-1054 -1058 0
-1054 -1059 0
-1054 -1060 0
-1054 -1061 0
-1054 -1062 0
-1054 -1063 0
-1054 -1064 0
-1054 -1065 0
-1054 -1066 0
-1054 -1067 0
-1054 -1068 0
-1054 -1069 0
-1054 -1070 0
-1054 -1071 0
-1054 -1072 0
-1054 -1073 0
-1054 -1074 0
-1054 -1075 0
-1054 -1076 0
-1054 -1077 0
-1054 -1078 0
-1054 -1079 0
-1054 -1080 0
-1054 -1081 0
-1054 -1082 0
-1054 -1083 0
-1054 -1084 0
-1054 -1085 0
-1054 -1086 0
-1054 -1087 0
-1054 -1088 0
-1054 -1089 0
-1054 -1090 0
-1054 -1091 0
-1054 -1092 0
-1054 -1093 0
-1055 -1056 0
-1055 -1057 0
-1055 -1058 0
-1055 -1059 0
-1055 -1060 0
-1055 -1061 0
-1055 -1062 0
-1055 -1063 0
-1055 -1064 0
-1055 -1065 0
-1055 -1066 0
-1055 -1067 0
-1055 -1068 0
-1055 -1069 0
-1055 -1070 0
-1055 -1071 0
-1055 -1072 0
-1055 -1073 0
-1055 -1074 0
-1055 -1075 0
-1055 -1076 0
-1055 -1077 0
-1055 -1078 0
-1055 -1079 0
-1055 -1080 0
-1055 -1081 0
-1055 -1082 0
-1055 -1083 0
-1055 -1084 0
-1055 -1085 0
-1055 -1086 0
-1055 -1087 0
-1055 -1088 0
-1055 -1089 0
-1055 -1090 0
-1055 -1091 0
-1055 -1092 0
-1055 -1093 0
-1056 -1057 0
-1056 -1058 0
-1056 -1059 0
-1056 -1060 0
-1056 -1061 0
-1056 -1062 0
-1056 -1063 0
-1056 -1064 0
-1056 -1065 0
-1056 -1066 0
-1056 -1067 0
-1056 -1068 0
-1056 -1069 0
-1056 -1070 0
-1056 -1071 0
-1056 -1072 0
-1056 -1073 0
-1056 -1074 0
-1056 -1075 0
-1056 -1076 0
-1056 -1077 0
-1056 -1078 0
-1056 -1079 0
-1056 -1080 0
-1056 -1081 0
-1056 -1082 0
-1056 -1083 0
-1056 -1084 0
-1056 -1085 0
-1056 -1086 0
-1056 -1087 0
-1056 -1088 0
-1056 -1089 0
-1056 -1090 0
-1056 -1091 0
-1056 -1092 0
-1056 -1093 0
-1057 -1058 0
-1057 -1059 0
-1057 -1060 0
-1057 -1061 0
-1057 -1062 0
-1057 -1063 0
-1057 -1064 0
-1057 -1065 0
-1057 -1066 0
-1057 -1067 0
-1057 -1068 0
-1057 -1069 0
-1057 -1070 0
-1057 -1071 0
-1057 -1072 0
-1057 -1073 0
-1057 -1074 0
-1057 -1075 0
-1057 -1076 0
-1057 -1077 0
-1057 -1078 0
-1057 -1079 0
-1057 -1080 0
-1057 -1081 0
-1057 -1082 0
-1057 -1083 0
-1057 -1084 0
-1057 -1085 0
-1057 -1086 0
-1057 -1087 0
-1057 -1088 0
-1057 -1089 0
-1057 -1090 0
-1057 -1091 0
-1057 -1092 0
-1057 -1093 0
-1058 -1059 0
-1058 -1060 0
-1058 -1061 0
-1058 -1062 0
-1058 -1063 0
-1058 -1064 0
-1058 -1065 0
-1058 -1066 0
-1058 -1067 0
-1058 -1068 0
-1058 -1069 0
-1058 -1070 0
-1058 -1071 0
-1058 -1072 0
-1058 -1073 0
-1058 -1074 0
-1058 -1075 0
-1058 -1076 0
-1058 -1077 0
-1058 -1078 0
-1058 -1079 0
-1058 -1080 0
-1058 -1081 0
-1058 -1082 0
-1058 -1083 0
-1058 -1084 0
-1058 -1085 0
-1058 -1086 0
-1058 -1087 0
-1058 -1088 0
-1058 -1089 0
-1058 -1090 0
-1058 -1091 0
-1058 -1092 0
-1058 -1093 0
-1059 -1060 0
-1059 -1061 0
-1059 -1062 0
-1059 -1063 0
-1059 -1064 0
-1059 -1065 0
-1059 -1066 0
-1059 -1067 0
-1059 -1068 0
-1059 -1069 0
-1059 -1070 0
-1059 -1071 0
-1059 -1072 0
-1059 -1073 0
-1059 -1074 0
-1059 -1075 0
-1059 -1076 0
-1059 -1077 0
-1059 -1078 0
-1059 -1079 0
-1059 -1080 0
-1059 -1081 0
-1059 -1082 0
-1059 -1083 0
-1059 -1084 0
-1059 -1085 0
-1059 -1086 0
-1059 -1087 0
-1059 -1088 0
-1059 -1089 0
-1059 -1090 0
-1059 -1091 0
-1059 -1092 0
-1059 -1093 0
-1060 -1061 0
-1060 -1062 0
-1060 -1063 0
-1060 -1064 0
-1060 -1065 0
-1060 -1066 0
-1060 -1067 0
-1060 -1068 0
-1060 -1069 0
-1060 -1070 0
-1060 -1071 0
-1060 -1072 0
-1060 -1073 0
-1060 -1074 0
-1060 -1075 0
-1060 -1076 0
-1060 -1077 0
-1060 -1078 0
-1060 -1079 0
-1060 -1080 0
-1060 -1081 0
-1060 -1082 0
-1060 -1083 0
-1060 -1084 0
-1060 -1085 0
-1060 -1086 0
-1060 -1087 0
-1060 -1088 0
-1060 -1089 0
-1060 -1090 0
-1060 -1091 0
-1060 -1092 0
-1060 -1093 0
-1061 -1062 0
-1061 -1063 0
-1061 -1064 0
-1061 -1065 0
-1061 -1066 0
-1061 -1067 0
-1061 -1068 0
-1061 -1069 0
-1061 -1070 0
-1061 -1071 0
-1061 -1072 0
-1061 -1073 0
-1061 -1074 0
-1061 -1075 0
-1061 -1076 0
-1061 -1077 0
-1061 -1078 0
-1061 -1079 0
-1061 -1080 0
-1061 -1081 0
-1061 -1082 0
-1061 -1083 0
-1061 -1084 0
-1061 -1085 0
-1061 -1086 0
-1061 -1087 0
-1061 -1088 0
-1061 -1089 0
-1061 -1090 0
-1061 -1091 0
-1061 -1092 0
-1061 -1093 0
-1062 -1063 0
-1062 -1064 0
-1062 -1065 0
-1062 -1066 0
-1062 -1067 0
-1062 -1068 0
-1062 -1069 0
-1062 -1070 0
-1062 -1071 0
-1062 -1072 0
-1062 -1073 0
-1062 -1074 0
-1062 -1075 0
-1062 -1076 0
-1062 -1077 0
-1062 -1078 0
-1062 -1079 0
-1062 -1080 0
-1062 -1081 0
-1062 -1082 0
-1062 -1083 0
-1062 -1084 0
-1062 -1085 0
-1062 -1086 0
-1062 -1087 0
-1062 -1088 0
-1062 -1089 0
-1062 -1090 0
-1062 -1091 0
-1062 -1092 0
-1062 -1093 0
-1063 -1064 0
-1063 -1065 0
-1063 -1066 0
-1063 -1067 0
-1063 -1068 0
-1063 -1069 0
-1063 -1070 0
-1063 -1071 0
-1063 -1072 0
-1063 -1073 0
-1063 -1074 0
-1063 -1075 0
-1063 -1076 0
-1063 -1077 0
-1063 -1078 0
-1063 -1079 0
-1063 -1080 0
-1063 -1081 0
-1063 -1082 0
-1063 -1083 0
-1063 -1084 0
-1063 -1085 0
-1063 -1086 0
-1063 -1087 0
-1063 -1088 0
-1063 -1089 0
-1063 -1090 0
-1063 -1091 0
-1063 -1092 0
-1063 -1093 0
-1064 -1065 0
-1064 -1066 0
-1064 -1067 0
-1064 -1068 0
-1064 -1069 0
-1064 -1070 0
-1064 -1071 0
-1064 -1072 0
-1064 -1073 0
-1064 -1074 0
-1064 -1075 0
-1064 -1076 0
-1064 -1077 0
-1064 -1078 0
-1064 -1079 0
-1064 -1080 0
-1064 -1081 0
-1064 -1082 0
-1064 -1083 0
-1064 -1084 0
-1064 -1085 0
-1064 -1086 0
-1064 -1087 0
-1064 -1088 0
-1064 -1089 0
-1064 -1090 0
-1064 -1091 0
-1064 -1092 0
-1064 -1093 0
-1065 -1066 0
-1065 -1067 0
-1065 -1068 0
-1065 -1069 0
-1065 -1070 0
-1065 -1071 0
-1065 -1072 0
-1065 -1073 0
-1065 -1074 0
-1065 -1075 0
-1065 -1076 0
-1065 -1077 0
-1065 -1078 0
-1065 -1079 0
-1065 -1080 0
-1065 -1081 0
-1065 -1082 0
-1065 -1083 0
-1065 -1084 0
-1065 -1085 0
-1065 -1086 0
-1065 -1087 0
-1065 -1088 0
-1065 -1089 0
-1065 -1090 0
-1065 -1091 0
-1065 -1092 0
-1065 -1093 0
-1066 -1067 0
-1066 -1068 0
-1066 -1069 0
-1066 -1070 0
-1066 -1071 0
-1066 -1072 0
-1066 -1073 0
-1066 -1074 0
-1066 -1075 0
-1066 -1076 0
-1066 -1077 0
-1066 -1078 0
-1066 -1079 0
-1066 -1080 0
-1066 -1081 0
-1066 -1082 0
-1066 -1083 0
-1066 -1084 0
-1066 -1085 0
-1066 -1086 0
-1066 -1087 0
-1066 -1088 0
-1066 -1089 0
-1066 -1090 0
-1066 -1091 0
-1066 -1092 0
-1066 -1093 0
-1067 -1068 0
-1067 -1069 0
-1067 -1070 0
-1067 -1071 0
-1067 -1072 0
-1067 -1073 0
-1067 -1074 0
-1067 -1075 0
-1067 -1076 0
-1067 -1077 0
-1067 -1078 0
-1067 -1079 0
-1067 -1080 0
-1067 -1081 0
-1067 -1082 0
-1067 -1083 0
-1067 -1084 0
-1067 -1085 0
-1067 -1086 0
-1067 -1087 0
-1067 -1088 0
-1067 -1089 0
-1067 -1090 0
-1067 -1091 0
-1067 -1092 0
-1067 -1093 0
-1068 -1069 0
-1068 -1070 0
-1068 -1071 0
-1068 -1072 0
-1068 -1073 0
-1068 -1074 0
-1068 -1075 0
-1068 -1076 0
-1068 -1077 0
-1068 -1078 0
-1068 -1079 0
-1068 -1080 0
-1068 -1081 0
-1068 -1082 0
-1068 -1083 0
-1068 -1084 0
-1068 -1085 0
-1068 -1086 0
-1068 -1087 0
-1068 -1088 0
-1068 -1089 0
-1068 -1090 0
-1068 -1091 0
-1068 -1092 0
-1068 -1093 0
-1069 -1070 0
-1069 -1071 0
-1069 -1072 0
-1069 -1073 0
-1069 -1074 0
-1069 -1075 0
-1069 -1076 0
-1069 -1077 0
-1069 -1078 0
-1069 -1079 0
-1069 -1080 0
-1069 -1081 0
-1069 -1082 0
-1069 -1083 0
-1069 -1084 0
-1069 -1085 0
-1069 -1086 0
-1069 -1087 0
-1069 -1088 0
-1069 -1089 0
-1069 -1090 0
-1069 -1091 0
-1069 -1092 0
-1069 -1093 0
-1070 -1071 0
-1070 -1072 0
-1070 -1073 0
-1070 -1074 0
-1070 -1075 0
-1070 -1076 0
-1070 -1077 0
-1070 -1078 0
-1070 -1079 0
-1070 -1080 0
-1070 -1081 0
-1070 -1082 0
-1070 -1083 0
-1070 -1084 0
-1070 -1085 0
-1070 -1086 0
-1070 -1087 0
-1070 -1088 0
-1070 -1089 0
-1070 -1090 0
-1070 -1091 0
-1070 -1092 0
-1070 -1093 0
-1071 -1072 0
-1071 -1073 0
-1071 -1074 0
-1071 -1075 0
-1071 -1076 0
-1071 -1077 0
-1071 -1078 0
-1071 -1079 0
-1071 -1080 0
-1071 -1081 0
-1071 -1082 0
-1071 -1083 0
-1071 -1084 0
-1071 -1085 0
-1071 -1086 0
-1071 -1087 0
-1071 -1088 0
-1071 -1089 0
-1071 -1090 0
-1071 -1091 0
-1071 -1092 0
-1071 -1093 0
-1072 -1073 0
-1072 -1074 0
-1072 -1075 0
-1072 -1076 0
-1072 -1077 0
-1072 -1078 0
-1072 -1079 0
-1072 -1080 0
-1072 -1081 0
-1072 -1082 0
-1072 -1083 0
-1072 -1084 0
-1072 -1085 0
-1072 -1086 0
-1072 -1087 0
-1072 -1088 0
-1072 -1089 0
-1072 -1090 0
-1072 -1091 0
-1072 -1092 0
-1072 -1093 0
-1073 -1074 0
-1073 -1075 0
-1073 -1076 0
-1073 -1077 0
-1073 -1078 0
-1073 -1079 0
-1073 -1080 0
-1073 -1081 0
-1073 -1082 0
-1073 -1083 0
-1073 -1084 0
-1073 -1085 0
-1073 -1086 0
-1073 -1087 0
-1073 -1088 0
-1073 -1089 0
-1073 -1090 0
-1073 -1091 0
-1073 -1092 0
-1073 -1093 0
-1074 -1075 0
-1074 -1076 0
-1074 -1077 0
-1074 -1078 0
-1074 -1079 0
-1074 -1080 0
-1074 -1081 0
-1074 -1082 0
-1074 -1083 0
-1074 -1084 0
-1074 -1085 0
-1074 -1086 0
-1074 -1087 0
-1074 -1088 0
-1074 -1089 0
-1074 -1090 0
-1074 -1091 0
-1074 -1092 0
-1074 -1093 0
-1075 -1076 0
-1075 -1077 0
-1075 -1078 0
-1075 -1079 0
-1075 -1080 0
-1075 -1081 0
-1075 -1082 0
-1075 -1083 0
-1075 -1084 0
-1075 -1085 0
-1075 -1086 0
-1075 -1087 0
-1075 -1088 0
-1075 -1089 0
-1075 -1090 0
-1075 -1091 0
-1075 -1092 0
-1075 -1093 0
-1076 -1077 0
-1076 -1078 0
-1076 -1079 0
-1076 -1080 0
-1076 -1081 0
-1076 -1082 0
-1076 -1083 0
-1076 -1084 0
-1076 -1085 0
-1076 -1086 0
-1076 -1087 0
-1076 -1088 0
-1076 -1089 0
-1076 -1090 0
-1076 -1091 0
-1076 -1092 0
-1076 -1093 0
-1077 -1078 0
-1077 -1079 0
-1077 -1080 0
-1077 -1081 0
-1077 -1082 0
-1077 -1083 0
-1077 -1084 0
-1077 -1085 0
-1077 -1086 0
-1077 -1087 0
-1077 -1088 0
-1077 -1089 0
-1077 -1090 0
-1077 -1091 0
-1077 -1092 0
-1077 -1093 0
-1078 -1079 0
-1078 -1080 0
-1078 -1081 0
-1078 -1082 0
-1078 -1083 0
-1078 -1084 0
-1078 -1085 0
-1078 -1086 0
-1078 -1087 0
-1078 -1088 0
-1078 -1089 0
-1078 -1090 0
-1078 -1091 0
-1078 -1092 0
-1078 -1093 0
-1079 -1080 0
-1079 -1081 0
-1079 -1082 0
-1079 -1083 0
-1079 -1084 0
-1079 -1085 0
-1079 -1086 0
-1079 -1087 0
-1079 -1088 0
-1079 -1089 0
-1079 -1090 0
-1079 -1091 0
-1079 -1092 0
-1079 -1093 0
-1080 -1081 0
-1080 -1082 0
-1080 -1083 0
-1080 -1084 0
-1080 -1085 0
-1080 -1086 0
-1080 -1087 0
-1080 -1088 0
-1080 -1089 0
-1080 -1090 0
-1080 -1091 0
-1080 -1092 0
-1080 -1093 0
-1081 -1082 0
-1081 -1083 0
-1081 -1084 0
-1081 -1085 0
-1081 -1086 0
-1081 -1087 0
-1081 -1088 0
-1081 -1089 0
-1081 -1090 0
-1081 -1091 0
-1081 -1092 0
-1081 -1093 0
-1082 -1083 0
-1082 -1084 0
-1082 -1085 0
-1082 -1086 0
-1082 -1087 0
-1082 -1088 0
-1082 -1089 0
-1082 -1090 0
-1082 -1091 0
-1082 -1092 0
-1082 -1093 0
-1083 -1084 0
-1083 -1085 0
-1083 -1086 0
-1083 -1087 0
-1083 -1088 0
-1083 -1089 0
-1083 -1090 0
-1083 -1091 0
-1083 -1092 0
-1083 -1093 0
-1084 -1085 0
-1084 -1086 0
-1084 -1087 0
-1084 -1088 0
-1084 -1089 0
-1084 -1090 0
-1084 -1091 0
-1084 -1092 0
-1084 -1093 0
-1085 -1086 0
-1085 -1087 0
-1085 -1088 0
-1085 -1089 0
-1085 -1090 0
-1085 -1091 0
-1085 -1092 0
-1085 -1093 0
-1086 -1087 0
-1086 -1088 0
-1086 -1089 0
-1086 -1090 0
-1086 -1091 0
-1086 -1092 0
-1086 -1093 0
-1087 -1088 0
-1087 -1089 0
-1087 -1090 0
-1087 -1091 0
-1087 -1092 0
-1087 -1093 0
-1088 -1089 0
-1088 -1090 0
-1088 -1091 0
-1088 -1092 0
-1088 -1093 0
-1089 -1090 0
-1089 -1091 0
-1089 -1092 0
-1089 -1093 0
-1090 -1091 0
-1090 -1092 0
-1090 -1093 0
-1091 -1092 0
-1091 -1093 0
-1092 -1093 0
-1094 1010 1011 1012 1013 1014 1015 1016 1017 1018 1019 1020 1021 1022 1023 1024 1025 1026 1027 1028 1029 1030 1031 1032 1033 0
-1010 1094 0
-1011 1094 0
-1012 1094 0
-1013 1094 0
-1014 1094 0
-1015 1094 0
-1016 1094 0
-1017 1094 0
-1018 1094 0
-1019 1094 0
-1020 1094 0
-1021 1094 0
-1022 1094 0
-1023 1094 0
-1024 1094 0
-1025 1094 0
-1026 1094 0
-1027 1094 0
-1028 1094 0
-1029 1094 0
-1030 1094 0
-1031 1094 0
-1032 1094 0
-1033 1094 0
1094 -448 597 0
1094 448 -597 0
1094 -449 598 0
1094 449 -598 0
1094 -450 599 0
1094 450 -599 0
1094 -451 600 0
1094 451 -600 0
1094 -452 601 0
1094 452 -601 0
1094 -453 602 0
1094 453 -602 0
1094 -454 603 0
1094 454 -603 0
1094 -455 604 0
1094 455 -604 0
1094 -456 605 0
1094 456 -605 0
1094 -457 606 0
1094 457 -606 0
-1095 1034 1035 1036 1037 1038 1039 1040 1041 1042 1043 1044 1045 1046 1047 1048 1049 1050 1051 1052 1053 1054 1055 1056 1057 0
-1034 1095 0
-1035 1095 0
-1036 1095 0
-1037 1095 0
-1038 1095 0
-1039 1095 0
-1040 1095 0
-1041 1095 0
-1042 1095 0
-1043 1095 0
-1044 1095 0
-1045 1095 0
-1046 1095 0
-1047 1095 0
-1048 1095 0
-1049 1095 0
-1050 1095 0
-1051 1095 0
-1052 1095 0
-1053 1095 0
-1054 1095 0
-1055 1095 0
-1056 1095 0
-1057 1095 0
1095 -458 607 0
1095 458 -607 0
1095 -459 608 0
1095 459 -608 0
1095 -460 609 0
1095 460 -609 0
1095 -461 610 0
1095 461 -610 0
1095 -462 611 0
1095 462 -611 0
1095 -463 612 0
1095 463 -612 0
1095 -464 613 0
1095 464 -613 0
1095 -465 614 0
1095 465 -614 0
1095 -466 615 0
1095 466 -615 0
1095 -467 616 0
1095 467 -616 0
-1096 1058 1059 1060 1061 1062 1063 1064 1065 1066 1067 1068 1069 1070 1071 1072 1073 1074 1075 1076 1077 0
-1058 1096 0
-1059 1096 0
-1060 1096 0
-1061 1096 0
-1062 1096 0
-1063 1096 0
-1064 1096 0
-1065 1096 0
-1066 1096 0
-1067 1096 0
-1068 1096 0
-1069 1096 0
-1070 1096 0
-1071 1096 0
-1072 1096 0
-1073 1096 0
-1074 1096 0
-1075 1096 0
-1076 1096 0
-1077 1096 0
1096 -468 617 0
1096 468 -617 0
1096 -469 618 0
1096 469 -618 0
1096 -470 619 0
1096 470 -619 0
1096 -471 620 0
1096 471 -620 0
1096 -472 621 0
1096 472 -621 0
1096 -473 622 0
1096 473 -622 0
1096 -474 623 0
1096 474 -623 0
1096 -475 624 0
1096 475 -624 0
1096 -476 625 0
1096 476 -625 0
-1097 1078 1079 1080 1081 1082 1083 1084 1085 1086 1087 1088 1089 1090 1091 1092 1093 0
-1078 1097 0
-1079 1097 0
-1080 1097 0
-1081 1097 0
-1082 1097 0
-1083 1097 0
-1084 1097 0
-1085 1097 0
-1086 1097 0
-1087 1097 0
-1088 1097 0
-1089 1097 0
-1090 1097 0
-1091 1097 0
-1092 1097 0
-1093 1097 0
1097 -477 626 0
1097 477 -626 0
1097 -478 627 0
1097 478 -627 0
1097 -479 628 0
1097 479 -628 0
1097 -480 629 0
1097 480 -629 0
1097 -481 630 0
1097 481 -630 0
1097 -482 631 0
1097 482 -631 0
1097 -483 632 0
1097 483 -632 0
1097 -484 633 0
1097 484 -633 0
-1010 593 0
-1010 597 0
-1010 -459 0
-1010 -460 0
-1010 -461 0
-1010 -462 0
-1010 -463 0
-1010 -467 0
-1010 -464 604 0
-1010 -464 -448 -455 0
-1010 -464 -510 0
-1010 -464 -511 0
-1010 -464 -512 0
-1010 -464 -534 0
-1010 -464 -535 0
-1010 -464 -536 0
-1010 -464 -554 0
-1010 -464 -555 0
-1010 -464 -556 0
-1010 -465 605 0
-1010 -465 -448 -456 0
-1010 -465 -511 0
-1010 -465 -512 0
-1010 -465 -535 0
-1010 -465 -536 0
-1010 -465 -555 0
-1010 -465 -556 0
-1010 -466 606 0
-1010 -466 -448 -457 0
-1010 -466 -512 0
-1010 -466 -536 0
-1010 -466 -556 0
-1011 593 0
-1011 598 0
-1011 -458 0
-1011 -460 0
-1011 -461 0
-1011 -462 0
-1011 -463 0
-1011 -467 0
-1011 -464 604 0
-1011 -464 -449 -455 0
-1011 -464 -514 0
-1011 -464 -515 0
-1011 -464 -516 0
-1011 -464 -534 0
-1011 -464 -535 0
-1011 -464 -536 0
-1011 -464 -538 0
-1011 -464 -539 0
-1011 -464 -540 0
-1011 -464 -554 0
-1011 -464 -555 0
-1011 -464 -556 0
-1011 -464 -558 0
-1011 -464 -559 0
-1011 -464 -560 0
-1011 -465 605 0
-1011 -465 -449 -456 0
-1011 -465 -515 0
-1011 -465 -516 0
-1011 -465 -535 0
-1011 -465 -536 0
-1011 -465 -539 0
-1011 -465 -540 0
-1011 -465 -555 0
-1011 -465 -556 0
-1011 -465 -559 0
-1011 -465 -560 0
-1011 -466 606 0
-1011 -466 -449 -457 0
-1011 -466 -516 0
-1011 -466 -536 0
-1011 -466 -540 0
-1011 -466 -556 0
-1011 -466 -560 0
-1012 593 0
-1012 599 0
-1012 -458 0
-1012 -459 0
-1012 -461 0
-1012 -462 0
-1012 -463 0
-1012 -467 0
-1012 -464 604 0
-1012 -464 -450 -455 0
-1012 -464 -518 0
-1012 -464 -519 0
-1012 -464 -520 0
-1012 -464 -538 0
-1012 -464 -539 0
-1012 -464 -540 0
-1012 -464 -542 0
-1012 -464 -543 0
-1012 -464 -544 0
-1012 -464 -554 0
-1012 -464 -555 0
-1012 -464 -556 0
-1012 -464 -558 0
-1012 -464 -559 0
-1012 -464 -560 0
-1012 -464 -562 0
-1012 -464 -563 0
-1012 -464 -564 0
-1012 -465 605 0
-1012 -465 -450 -456 0
-1012 -465 -519 0
-1012 -465 -520 0
-1012 -465 -539 0
-1012 -465 -540 0
-1012 -465 -543 0
-1012 -465 -544 0
-1012 -465 -555 0
-1012 -465 -556 0
-1012 -465 -559 0
-1012 -465 -560 0
-1012 -465 -563 0
-1012 -465 -564 0
-1012 -466 606 0
-1012 -466 -450 -457 0
-1012 -466 -520 0
-1012 -466 -540 0
-1012 -466 -544 0
-1012 -466 -556 0
-1012 -466 -560 0
-1012 -466 -564 0
-1013 593 0
-1013 600 0
-1013 -458 0
-1013 -459 0
-1013 -460 0
-1013 -462 0
-1013 -463 0
-1013 -467 0
-1013 -464 604 0
-1013 -464 -451 -455 0
-1013 -464 -522 0
-1013 -464 -523 0
-1013 -464 -524 0
-1013 -464 -542 0
-1013 -464 -543 0
-1013 -464 -544 0
-1013 -464 -546 0
-1013 -464 -547 0
-1013 -464 -548 0
-1013 -464 -558 0
-1013 -464 -559 0
-1013 -464 -560 0
-1013 -464 -562 0
-1013 -464 -563 0
-1013 -464 -564 0
-1013 -464 -566 0
-1013 -464 -567 0
-1013 -464 -568 0
-1013 -465 605 0
-1013 -465 -451 -456 0
-1013 -465 -523 0
-1013 -465 -524 0
-1013 -465 -543 0
-1013 -465 -544 0
-1013 -465 -547 0
-1013 -465 -548 0
-1013 -465 -559 0
-1013 -465 -560 0
-1013 -465 -563 0
-1013 -465 -564 0
-1013 -465 -567 0
-1013 -465 -568 0
-1013 -466 606 0
-1013 -466 -451 -457 0
-1013 -466 -524 0
-1013 -466 -544 0
-1013 -466 -548 0
-1013 -466 -560 0
-1013 -466 -564 0
-1013 -466 -568 0
-1014 593 0
-1014 601 0
-1014 -458 0
-1014 -459 0
-1014 -460 0
-1014 -461 0
-1014 -463 0
-1014 -467 0
-1014 -464 604 0
-1014 -464 -452 -455 0
-1014 -464 -526 0
-1014 -464 -527 0
-1014 -464 -528 0
-1014 -464 -546 0
-1014 -464 -547 0
-1014 -464 -548 0
-1014 -464 -550 0
-1014 -464 -551 0
-1014 -464 -552 0
-1014 -464 -562 0
-1014 -464 -563 0
-1014 -464 -564 0
-1014 -464 -566 0
-1014 -464 -567 0
-1014 -464 -568 0
-1014 -465 605 0
-1014 -465 -452 -456 0
-1014 -465 -527 0
-1014 -465 -528 0
-1014 -465 -547 0
-1014 -465 -548 0
-1014 -465 -551 0
-1014 -465 -552 0
-1014 -465 -563 0
-1014 -465 -564 0
-1014 -465 -567 0
-1014 -465 -568 0
-1014 -466 606 0
-1014 -466 -452 -457 0
-1014 -466 -528 0
-1014 -466 -548 0
-1014 -466 -552 0
-1014 -466 -564 0
-1014 -466 -568 0
-1015 593 0
-1015 602 0
-1015 -458 0
-1015 -459 0
-1015 -460 0
-1015 -461 0
-1015 -462 0
-1015 -467 0
-1015 -464 604 0
-1015 -464 -453 -455 0
-1015 -464 -530 0
-1015 -464 -531 0
-1015 -464 -532 0
-1015 -464 -550 0
-1015 -464 -551 0
-1015 -464 -552 0
-1015 -464 -566 0
-1015 -464 -567 0
-1015 -464 -568 0
-1015 -465 605 0
-1015 -465 -453 -456 0
-1015 -465 -531 0
-1015 -465 -532 0
-1015 -465 -551 0
-1015 -465 -552 0
-1015 -465 -567 0
-1015 -465 -568 0
-1015 -466 606 0
-1015 -466 -453 -457 0
-1015 -466 -532 0
-1015 -466 -552 0
-1015 -466 -568 0
-1016 593 0
-1016 597 0
-1016 -469 0
-1016 -470 0
-1016 -471 0
-1016 -472 0
-1016 -476 0
-1016 -473 604 0
-1016 -473 -448 -455 0
-1016 -473 -510 0
-1016 -473 -511 0
-1016 -473 -512 0
-1016 -473 -534 0
-1016 -473 -535 0
-1016 -473 -536 0
-1016 -473 -554 0
-1016 -473 -555 0
-1016 -473 -556 0
-1016 -474 605 0
-1016 -474 -448 -456 0
-1016 -474 -511 0
-1016 -474 -512 0
-1016 -474 -535 0
-1016 -474 -536 0
-1016 -474 -555 0
-1016 -474 -556 0
-1016 -475 606 0
-1016 -475 -448 -457 0
-1016 -475 -512 0
-1016 -475 -536 0
-1016 -475 -556 0
-1017 593 0
-1017 598 0
-1017 -470 0
-1017 -471 0
-1017 -472 0
-1017 -476 0
-1017 -473 604 0
-1017 -473 -449 -455 0
-1017 -473 -514 0
-1017 -473 -515 0
-1017 -473 -516 0
-1017 -473 -534 0
-1017 -473 -535 0
-1017 -473 -536 0
-1017 -473 -538 0
-1017 -473 -539 0
-1017 -473 -540 0
-1017 -473 -554 0
-1017 -473 -555 0
-1017 -473 -556 0
-1017 -473 -558 0
-1017 -473 -559 0
-1017 -473 -560 0
-1017 -474 605 0
-1017 -474 -449 -456 0
-1017 -474 -515 0
-1017 -474 -516 0
-1017 -474 -535 0
-1017 -474 -536 0
-1017 -474 -539 0
-1017 -474 -540 0
-1017 -474 -555 0
-1017 -474 -556 0
-1017 -474 -559 0
-1017 -474 -560 0
-1017 -475 606 0
-1017 -475 -449 -457 0
-1017 -475 -516 0
-1017 -475 -536 0
-1017 -475 -540 0
-1017 -475 -556 0
-1017 -475 -560 0
-1018 593 0
-1018 599 0
-1018 -468 0
-1018 -471 0
-1018 -472 0
-1018 -476 0
-1018 -473 604 0
-1018 -473 -450 -455 0
-1018 -473 -518 0
-1018 -473 -519 0
-1018 -473 -520 0
-1018 -473 -538 0
-1018 -473 -539 0
-1018 -473 -540 0
-1018 -473 -542 0
-1018 -473 -543 0
-1018 -473 -544 0
-1018 -473 -554 0
-1018 -473 -555 0
-1018 -473 -556 0
-1018 -473 -558 0
-1018 -473 -559 0
-1018 -473 -560 0
-1018 -473 -562 0
-1018 -473 -563 0
-1018 -473 -564 0
-1018 -474 605 0
-1018 -474 -450 -456 0
-1018 -474 -519 0
-1018 -474 -520 0
-1018 -474 -539 0
-1018 -474 -540 0
-1018 -474 -543 0
-1018 -474 -544 0
-1018 -474 -555 0
-1018 -474 -556 0
-1018 -474 -559 0
-1018 -474 -560 0
-1018 -474 -563 0
-1018 -474 -564 0
-1018 -475 606 0
-1018 -475 -450 -457 0
-1018 -475 -520 0
-1018 -475 -540 0
-1018 -475 -544 0
-1018 -475 -556 0
-1018 -475 -560 0
-1018 -475 -564 0
-1019 593 0
-1019 600 0
-1019 -468 0
-1019 -469 0
-1019 -472 0
-1019 -476 0
-1019 -473 604 0
-1019 -473 -451 -455 0
-1019 -473 -522 0
-1019 -473 -523 0
-1019 -473 -524 0
-1019 -473 -542 0
-1019 -473 -543 0
-1019 -473 -544 0
-1019 -473 -546 0
-1019 -473 -547 0
-1019 -473 -548 0
-1019 -473 -558 0
-1019 -473 -559 0
-1019 -473 -560 0
-1019 -473 -562 0
-1019 -473 -563 0
-1019 -473 -564 0
-1019 -473 -566 0
-1019 -473 -567 0
-1019 -473 -568 0
-1019 -474 605 0
-1019 -474 -451 -456 0
-1019 -474 -523 0
-1019 -474 -524 0
-1019 -474 -543 0
-1019 -474 -544 0
-1019 -474 -547 0
-1019 -474 -548 0
-1019 -474 -559 0
-1019 -474 -560 0
-1019 -474 -563 0
-1019 -474 -564 0
-1019 -474 -567 0
-1019 -474 -568 0
-1019 -475 606 0
-1019 -475 -451 -457 0
-1019 -475 -524 0
-1019 -475 -544 0
-1019 -475 -548 0
-1019 -475 -560 0
-1019 -475 -564 0
-1019 -475 -568 0
-1020 593 0
-1020 601 0
-1020 -468 0
-1020 -469 0
-1020 -470 0
-1020 -476 0
-1020 -473 604 0
-1020 -473 -452 -455 0
-1020 -473 -526 0
-1020 -473 -527 0
-1020 -473 -528 0
-1020 -473 -546 0
-1020 -473 -547 0
-1020 -473 -548 0
-1020 -473 -550 0
-1020 -473 -551 0
-1020 -473 -552 0
-1020 -473 -562 0
-1020 -473 -563 0
-1020 -473 -564 0
-1020 -473 -566 0
-1020 -473 -567 0
-1020 -473 -568 0
-1020 -474 605 0
-1020 -474 -452 -456 0
-1020 -474 -527 0
-1020 -474 -528 0
-1020 -474 -547 0
-1020 -474 -548 0
-1020 -474 -551 0
-1020 -474 -552 0
-1020 -474 -563 0
-1020 -474 -564 0
-1020 -474 -567 0
-1020 -474 -568 0
-1020 -475 606 0
-1020 -475 -452 -457 0
-1020 -475 -528 0
-1020 -475 -548 0
-1020 -475 -552 0
-1020 -475 -564 0
-1020 -475 -568 0
-1021 593 0
-1021 602 0
-1021 -468 0
-1021 -469 0
-1021 -470 0
-1021 -471 0
-1021 -476 0
-1021 -473 604 0
-1021 -473 -453 -455 0
-1021 -473 -530 0
-1021 -473 -531 0
-1021 -473 -532 0
-1021 -473 -550 0
-1021 -473 -551 0
-1021 -473 -552 0
-1021 -473 -566 0
-1021 -473 -567 0
-1021 -473 -568 0
-1021 -474 605 0
-1021 -474 -453 -456 0
-1021 -474 -531 0
-1021 -474 -532 0
-1021 -474 -551 0
-1021 -474 -552 0
-1021 -474 -567 0
-1021 -474 -568 0
-1021 -475 606 0
-1021 -475 -453 -457 0
-1021 -475 -532 0
-1021 -475 -552 0
-1021 -475 -568 0
-1022 593 0
-1022 597 0
-1022 -478 0
-1022 -479 0
-1022 -480 0
-1022 -484 0
-1022 -481 604 0
-1022 -481 -448 -455 0
-1022 -481 -510 0
-1022 -481 -511 0
-1022 -481 -512 0
-1022 -481 -534 0
-1022 -481 -535 0
-1022 -481 -536 0
-1022 -481 -554 0
-1022 -481 -555 0
-1022 -481 -556 0
-1022 -482 605 0
-1022 -482 -448 -456 0
-1022 -482 -511 0
-1022 -482 -512 0
-1022 -482 -535 0
-1022 -482 -536 0
-1022 -482 -555 0
-1022 -482 -556 0
-1022 -483 606 0
-1022 -483 -448 -457 0
-1022 -483 -512 0
-1022 -483 -536 0
-1022 -483 -556 0
-1023 593 0
-1023 598 0
-1023 -479 0
-1023 -480 0
-1023 -484 0
-1023 -481 604 0
-1023 -481 -449 -455 0
-1023 -481 -514 0
-1023 -481 -515 0
-1023 -481 -516 0
-1023 -481 -534 0
-1023 -481 -535 0
-1023 -481 -536 0
-1023 -481 -538 0
-1023 -481 -539 0
-1023 -481 -540 0
-1023 -481 -554 0
-1023 -481 -555 0
-1023 -481 -556 0
-1023 -481 -558 0
-1023 -481 -559 0
-1023 -481 -560 0
-1023 -482 605 0
-1023 -482 -449 -456 0
-1023 -482 -515 0
-1023 -482 -516 0
-1023 -482 -535 0
-1023 -482 -536 0
-1023 -482 -539 0
-1023 -482 -540 0
-1023 -482 -555 0
-1023 -482 -556 0
-1023 -482 -559 0
-1023 -482 -560 0
-1023 -483 606 0
-1023 -483 -449 -457 0
-1023 -483 -516 0
-1023 -483 -536 0
-1023 -483 -540 0
-1023 -483 -556 0
-1023 -483 -560 0
-1024 593 0
-1024 599 0
-1024 -480 0
-1024 -484 0
-1024 -481 604 0
-1024 -481 -450 -455 0
-1024 -481 -518 0
-1024 -481 -519 0
-1024 -481 -520 0
-1024 -481 -538 0
-1024 -481 -539 0
-1024 -481 -540 0
-1024 -481 -542 0
-1024 -481 -543 0
-1024 -481 -544 0
-1024 -481 -554 0
-1024 -481 -555 0
-1024 -481 -556 0
-1024 -481 -558 0
-1024 -481 -559 0
-1024 -481 -560 0
-1024 -481 -562 0
-1024 -481 -563 0
-1024 -481 -564 0
-1024 -482 605 0
-1024 -482 -450 -456 0
-1024 -482 -519 0
-1024 -482 -520 0
-1024 -482 -539 0
-1024 -482 -540 0
-1024 -482 -543 0
-1024 -482 -544 0
-1024 -482 -555 0
-1024 -482 -556 0
-1024 -482 -559 0
-1024 -482 -560 0
-1024 -482 -563 0
-1024 -482 -564 0
-1024 -483 606 0
-1024 -483 -450 -457 0
-1024 -483 -520 0
-1024 -483 -540 0
-1024 -483 -544 0
-1024 -483 -556 0
-1024 -483 -560 0
-1024 -483 -564 0
-1025 593 0
-1025 600 0
-1025 -477 0
-1025 -484 0
-1025 -481 604 0
-1025 -481 -451 -455 0
-1025 -481 -522 0
-1025 -481 -523 0
-1025 -481 -524 0
-1025 -481 -542 0
-1025 -481 -543 0
-1025 -481 -544 0
-1025 -481 -546 0
-1025 -481 -547 0
-1025 -481 -548 0
-1025 -481 -558 0
-1025 -481 -559 0
-1025 -481 -560 0
-1025 -481 -562 0
-1025 -481 -563 0
-1025 -481 -564 0
-1025 -481 -566 0
-1025 -481 -567 0
-1025 -481 -568 0
-1025 -482 605 0
-1025 -482 -451 -456 0
-1025 -482 -523 0
-1025 -482 -524 0
-1025 -482 -543 0
-1025 -482 -544 0
-1025 -482 -547 0
-1025 -482 -548 0
-1025 -482 -559 0
-1025 -482 -560 0
-1025 -482 -563 0
-1025 -482 -564 0
-1025 -482 -567 0
-1025 -482 -568 0
-1025 -483 606 0
-1025 -483 -451 -457 0
-1025 -483 -524 0
-1025 -483 -544 0
-1025 -483 -548 0
-1025 -483 -560 0
-1025 -483 -564 0
-1025 -483 -568 0
-1026 593 0
-1026 601 0
-1026 -477 0
-1026 -478 0
-1026 -484 0
-1026 -481 604 0
-1026 -481 -452 -455 0
-1026 -481 -526 0
-1026 -481 -527 0
-1026 -481 -528 0
-1026 -481 -546 0
-1026 -481 -547 0
-1026 -481 -548 0
-1026 -481 -550 0
-1026 -481 -551 0
-1026 -481 -552 0
-1026 -481 -562 0
-1026 -481 -563 0
-1026 -481 -564 0
-1026 -481 -566 0
-1026 -481 -567 0
-1026 -481 -568 0
-1026 -482 605 0
-1026 -482 -452 -456 0
-1026 -482 -527 0
-1026 -482 -528 0
-1026 -482 -547 0
-1026 -482 -548 0
-1026 -482 -551 0
-1026 -482 -552 0
-1026 -482 -563 0
-1026 -482 -564 0
-1026 -482 -567 0
-1026 -482 -568 0
-1026 -483 606 0
-1026 -483 -452 -457 0
-1026 -483 -528 0
-1026 -483 -548 0
-1026 -483 -552 0
-1026 -483 -564 0
-1026 -483 -568 0
-1027 593 0
-1027 602 0
-1027 -477 0
-1027 -478 0
-1027 -479 0
-1027 -484 0
-1027 -481 604 0
-1027 -481 -453 -455 0
-1027 -481 -530 0
-1027 -481 -531 0
-1027 -481 -532 0
-1027 -481 -550 0
-1027 -481 -551 0
-1027 -481 -552 0
-1027 -481 -566 0
-1027 -481 -567 0
-1027 -481 -568 0
-1027 -482 605 0
-1027 -482 -453 -456 0
-1027 -482 -531 0
-1027 -482 -532 0
-1027 -482 -551 0
-1027 -482 -552 0
-1027 -482 -567 0
-1027 -482 -568 0
-1027 -483 606 0
-1027 -483 -453 -457 0
-1027 -483 -532 0
-1027 -483 -552 0
-1027 -483 -568 0
-1028 593 0
-1028 597 0
-1028 603 0
-1028 -448 -454 0
-1028 -509 0
-1028 -510 0
-1028 -511 0
-1028 -512 0
-1028 -533 0
-1028 -534 0
-1028 -535 0
-1028 -536 0
-1028 -553 0
-1028 -554 0
-1028 -555 0
-1028 -556 0
-1029 593 0
-1029 598 0
-1029 603 0
-1029 -449 -454 0
-1029 -513 0
-1029 -514 0
-1029 -515 0
-1029 -516 0
-1029 -533 0
-1029 -534 0
-1029 -535 0
-1029 -536 0
-1029 -537 0
-1029 -538 0
-1029 -539 0
-1029 -540 0
-1029 -553 0
-1029 -554 0
-1029 -555 0
-1029 -556 0
-1029 -557 0
-1029 -558 0
-1029 -559 0
-1029 -560 0
-1030 593 0
-1030 599 0
-1030 603 0
-1030 -450 -454 0
-1030 -517 0
-1030 -518 0
-1030 -519 0
-1030 -520 0
-1030 -537 0
-1030 -538 0
-1030 -539 0
-1030 -540 0
-1030 -541 0
-1030 -542 0
-1030 -543 0
-1030 -544 0
-1030 -553 0
-1030 -554 0
-1030 -555 0
-1030 -556 0
-1030 -557 0
-1030 -558 0
-1030 -559 0
-1030 -560 0
-1030 -561 0
-1030 -562 0
-1030 -563 0
-1030 -564 0
-1031 593 0
-1031 600 0
-1031 603 0
-1031 -451 -454 0
-1031 -521 0
-1031 -522 0
-1031 -523 0
-1031 -524 0
-1031 -541 0
-1031 -542 0
-1031 -543 0
-1031 -544 0
-1031 -545 0
-1031 -546 0
-1031 -547 0
-1031 -548 0
-1031 -557 0
-1031 -558 0
-1031 -559 0
-1031 -560 0
-1031 -561 0
-1031 -562 0
-1031 -563 0
-1031 -564 0
-1031 -565 0
-1031 -566 0
-1031 -567 0
-1031 -568 0
-1032 593 0
-1032 601 0
-1032 603 0
-1032 -452 -454 0
-1032 -525 0
-1032 -526 0
-1032 -527 0
-1032 -528 0
-1032 -545 0
-1032 -546 0
-1032 -547 0
-1032 -548 0
-1032 -549 0
-1032 -550 0
-1032 -551 0
-1032 -552 0
-1032 -561 0
-1032 -562 0
-1032 -563 0
-1032 -564 0
-1032 -565 0
-1032 -566 0
-1032 -567 0
-1032 -568 0
-1033 593 0
-1033 602 0
-1033 603 0
-1033 -453 -454 0
-1033 -529 0
-1033 -530 0
-1033 -531 0
-1033 -532 0
-1033 -549 0
-1033 -550 0
-1033 -551 0
-1033 -552 0
-1033 -565 0
-1033 -566 0
-1033 -567 0
-1033 -568 0
-1034 594 0
-1034 607 0
-1034 -449 0
-1034 -450 0
-1034 -451 0
-1034 -452 0
-1034 -453 0
-1034 -457 0
-1034 -454 614 0
-1034 -454 -458 -465 0
-1034 -454 -486 0
-1034 -454 -487 0
-1034 -454 -488 0
-1034 -454 -534 0
-1034 -454 -535 0
-1034 -454 -536 0
-1034 -454 -554 0
-1034 -454 -555 0
-1034 -454 -556 0
-1034 -455 615 0
-1034 -455 -458 -466 0
-1034 -455 -487 0
-1034 -455 -488 0
-1034 -455 -535 0
-1034 -455 -536 0
-1034 -455 -555 0
-1034 -455 -556 0
-1034 -456 616 0
-1034 -456 -458 -467 0
-1034 -456 -488 0
-1034 -456 -536 0
-1034 -456 -556 0
-1035 594 0
-1035 608 0
-1035 -448 0
-1035 -450 0
-1035 -451 0
-1035 -452 0
-1035 -453 0
-1035 -457 0
-1035 -454 614 0
-1035 -454 -459 -465 0
-1035 -454 -490 0
-1035 -454 -491 0
-1035 -454 -492 0
-1035 -454 -534 0
-1035 -454 -535 0
-1035 -454 -536 0
-1035 -454 -538 0
-1035 -454 -539 0
-1035 -454 -540 0
-1035 -454 -554 0
-1035 -454 -555 0
-1035 -454 -556 0
-1035 -454 -558 0
-1035 -454 -559 0
-1035 -454 -560 0
-1035 -455 615 0
-1035 -455 -459 -466 0
-1035 -455 -491 0
-1035 -455 -492 0
-1035 -455 -535 0
-1035 -455 -536 0
-1035 -455 -539 0
-1035 -455 -540 0
-1035 -455 -555 0
-1035 -455 -556 0
-1035 -455 -559 0
-1035 -455 -560 0
-1035 -456 616 0
-1035 -456 -459 -467 0
-1035 -456 -492 0
-1035 -456 -536 0
-1035 -456 -540 0
-1035 -456 -556 0
-1035 -456 -560 0
-1036 594 0
-1036 609 0
-1036 -448 0
-1036 -449 0
-1036 -451 0
-1036 -452 0
-1036 -453 0
-1036 -457 0
-1036 -454 614 0
-1036 -454 -460 -465 0
-1036 -454 -494 0
-1036 -454 -495 0
-1036 -454 -496 0
-1036 -454 -538 0
-1036 -454 -539 0
-1036 -454 -540 0
-1036 -454 -542 0
-1036 -454 -543 0
-1036 -454 -544 0
-1036 -454 -554 0
-1036 -454 -555 0
-1036 -454 -556 0
-1036 -454 -558 0
-1036 -454 -559 0
-1036 -454 -560 0
-1036 -454 -562 0
-1036 -454 -563 0
-1036 -454 -564 0
-1036 -455 615 0
-1036 -455 -460 -466 0
-1036 -455 -495 0
-1036 -455 -496 0
-1036 -455 -539 0
-1036 -455 -540 0
-1036 -455 -543 0
-1036 -455 -544 0
-1036 -455 -555 0
-1036 -455 -556 0
-1036 -455 -559 0
-1036 -455 -560 0
-1036 -455 -563 0
-1036 -455 -564 0
-1036 -456 616 0
-1036 -456 -460 -467 0
-1036 -456 -496 0
-1036 -456 -540 0
-1036 -456 -544 0
-1036 -456 -556 0
-1036 -456 -560 0
-1036 -456 -564 0
-1037 594 0
-1037 610 0
-1037 -448 0
-1037 -449 0
-1037 -450 0
-1037 -452 0
-1037 -453 0
-1037 -457 0
-1037 -454 614 0
-1037 -454 -461 -465 0
-1037 -454 -498 0
-1037 -454 -499 0
-1037 -454 -500 0
-1037 -454 -542 0
-1037 -454 -543 0
-1037 -454 -544 0
-1037 -454 -546 0
-1037 -454 -547 0
-1037 -454 -548 0
-1037 -454 -558 0
-1037 -454 -559 0
-1037 -454 -560 0
-1037 -454 -562 0
-1037 -454 -563 0
-1037 -454 -564 0
-1037 -454 -566 0
-1037 -454 -567 0
-1037 -454 -568 0
-1037 -455 615 0
-1037 -455 -461 -466 0
-1037 -455 -499 0
-1037 -455 -500 0
-1037 -455 -543 0
-1037 -455 -544 0
-1037 -455 -547 0
-1037 -455 -548 0
-1037 -455 -559 0
-1037 -455 -560 0
-1037 -455 -563 0
-1037 -455 -564 0
-1037 -455 -567 0
-1037 -455 -568 0
-1037 -456 616 0
-1037 -456 -461 -467 0
-1037 -456 -500 0
-1037 -456 -544 0
-1037 -456 -548 0
-1037 -456 -560 0
-1037 -456 -564 0
-1037 -456 -568 0
-1038 594 0
-1038 611 0
-1038 -448 0
-1038 -449 0
-1038 -450 0
-1038 -451 0
-1038 -453 0
-1038 -457 0
-1038 -454 614 0
-1038 -454 -462 -465 0
-1038 -454 -502 0
-1038 -454 -503 0
-1038 -454 -504 0
-1038 -454 -546 0
-1038 -454 -547 0
-1038 -454 -548 0
-1038 -454 -550 0
-1038 -454 -551 0
-1038 -454 -552 0
-1038 -454 -562 0
-1038 -454 -563 0
-1038 -454 -564 0
-1038 -454 -566 0
-1038 -454 -567 0
-1038 -454 -568 0
-1038 -455 615 0
-1038 -455 -462 -466 0
-1038 -455 -503 0
-1038 -455 -504 0
-1038 -455 -547 0
-1038 -455 -548 0
-1038 -455 -551 0
-1038 -455 -552 0
-1038 -455 -563 0
-1038 -455 -564 0
-1038 -455 -567 0
-1038 -455 -568 0
-1038 -456 616 0
-1038 -456 -462 -467 0
-1038 -456 -504 0
-1038 -456 -548 0
-1038 -456 -552 0
-1038 -456 -564 0
-1038 -456 -568 0
-1039 594 0
-1039 612 0
-1039 -448 0
-1039 -449 0
-1039 -450 0
-1039 -451 0
-1039 -452 0
-1039 -457 0
-1039 -454 614 0
-1039 -454 -463 -465 0
-1039 -454 -506 0
-1039 -454 -507 0
-1039 -454 -508 0
-1039 -454 -550 0
-1039 -454 -551 0
-1039 -454 -552 0
-1039 -454 -566 0
-1039 -454 -567 0
-1039 -454 -568 0
-1039 -455 615 0
-1039 -455 -463 -466 0
-1039 -455 -507 0
-1039 -455 -508 0
-1039 -455 -551 0
-1039 -455 -552 0
-1039 -455 -567 0
-1039 -455 -568 0
-1039 -456 616 0
-1039 -456 -463 -467 0
-1039 -456 -508 0
-1039 -456 -552 0
-1039 -456 -568 0
-1040 594 0
-1040 607 0
-1040 -469 0
-1040 -470 0
-1040 -471 0
-1040 -472 0
-1040 -476 0
-1040 -473 614 0
-1040 -473 -458 -465 0
-1040 -473 -486 0
-1040 -473 -487 0
-1040 -473 -488 0
-1040 -473 -534 0
-1040 -473 -535 0
-1040 -473 -536 0
-1040 -473 -554 0
-1040 -473 -555 0
-1040 -473 -556 0
-1040 -474 615 0
-1040 -474 -458 -466 0
-1040 -474 -487 0
-1040 -474 -488 0
-1040 -474 -535 0
-1040 -474 -536 0
-1040 -474 -555 0
-1040 -474 -556 0
-1040 -475 616 0
-1040 -475 -458 -467 0
-1040 -475 -488 0
-1040 -475 -536 0
-1040 -475 -556 0
-1041 594 0
-1041 608 0
-1041 -470 0
-1041 -471 0
-1041 -472 0
-1041 -476 0
-1041 -473 614 0
-1041 -473 -459 -465 0
-1041 -473 -490 0
-1041 -473 -491 0
-1041 -473 -492 0
-1041 -473 -534 0
-1041 -473 -535 0
-1041 -473 -536 0
-1041 -473 -538 0
-1041 -473 -539 0
-1041 -473 -540 0
-1041 -473 -554 0
-1041 -473 -555 0
-1041 -473 -556 0
-1041 -473 -558 0
-1041 -473 -559 0
-1041 -473 -560 0
-1041 -474 615 0
-1041 -474 -459 -466 0
-1041 -474 -491 0
-1041 -474 -492 0
-1041 -474 -535 0
-1041 -474 -536 0
-1041 -474 -539 0
-1041 -474 -540 0
-1041 -474 -555 0
-1041 -474 -556 0
-1041 -474 -559 0
-1041 -474 -560 0
-1041 -475 616 0
-1041 -475 -459 -467 0
-1041 -475 -492 0
-1041 -475 -536 0
-1041 -475 -540 0
-1041 -475 -556 0
-1041 -475 -560 0
-1042 594 0
-1042 609 0
-1042 -468 0
-1042 -471 0
-1042 -472 0
-1042 -476 0
-1042 -473 614 0
-1042 -473 -460 -465 0
-1042 -473 -494 0
-1042 -473 -495 0
-1042 -473 -496 0
-1042 -473 -538 0
-1042 -473 -539 0
-1042 -473 -540 0
-1042 -473 -542 0
-1042 -473 -543 0
-1042 -473 -544 0
-1042 -473 -554 0
-1042 -473 -555 0
-1042 -473 -556 0
-1042 -473 -558 0
-1042 -473 -559 0
-1042 -473 -560 0
-1042 -473 -562 0
-1042 -473 -563 0
-1042 -473 -564 0
-1042 -474 615 0
-1042 -474 -460 -466 0
-1042 -474 -495 0
-1042 -474 -496 0
-1042 -474 -539 0
-1042 -474 -540 0
-1042 -474 -543 0
-1042 -474 -544 0
-1042 -474 -555 0
-1042 -474 -556 0
-1042 -474 -559 0
-1042 -474 -560 0
-1042 -474 -563 0
-1042 -474 -564 0
-1042 -475 616 0
-1042 -475 -460 -467 0
-1042 -475 -496 0
-1042 -475 -540 0
-1042 -475 -544 0
-1042 -475 -556 0
-1042 -475 -560 0
-1042 -475 -564 0
-1043 594 0
-1043 610 0
-1043 -468 0
-1043 -469 0
-1043 -472 0
-1043 -476 0
-1043 -473 614 0
-1043 -473 -461 -465 0
-1043 -473 -498 0
-1043 -473 -499 0
-1043 -473 -500 0
-1043 -473 -542 0
-1043 -473 -543 0
-1043 -473 -544 0
-1043 -473 -546 0
-1043 -473 -547 0
-1043 -473 -548 0
-1043 -473 -558 0
-1043 -473 -559 0
-1043 -473 -560 0
-1043 -473 -562 0
-1043 -473 -563 0
-1043 -473 -564 0
-1043 -473 -566 0
-1043 -473 -567 0
-1043 -473 -568 0
-1043 -474 615 0
-1043 -474 -461 -466 0
-1043 -474 -499 0
-1043 -474 -500 0
-1043 -474 -543 0
-1043 -474 -544 0
-1043 -474 -547 0
-1043 -474 -548 0
-1043 -474 -559 0
-1043 -474 -560 0
-1043 -474 -563 0
-1043 -474 -564 0
-1043 -474 -567 0
-1043 -474 -568 0
-1043 -475 616 0
-1043 -475 -461 -467 0
-1043 -475 -500 0
-1043 -475 -544 0
-1043 -475 -548 0
-1043 -475 -560 0
-1043 -475 -564 0
-1043 -475 -568 0
-1044 594 0
-1044 611 0
-1044 -468 0
-1044 -469 0
-1044 -470 0
-1044 -476 0
-1044 -473 614 0
-1044 -473 -462 -465 0
-1044 -473 -502 0
-1044 -473 -503 0
-1044 -473 -504 0
-1044 -473 -546 0
-1044 -473 -547 0
-1044 -473 -548 0
-1044 -473 -550 0
-1044 -473 -551 0
-1044 -473 -552 0
-1044 -473 -562 0
-1044 -473 -563 0
-1044 -473 -564 0
-1044 -473 -566 0
-1044 -473 -567 0
-1044 -473 -568 0
-1044 -474 615 0
-1044 -474 -462 -466 0
-1044 -474 -503 0
-1044 -474 -504 0
-1044 -474 -547 0
-1044 -474 -548 0
-1044 -474 -551 0
-1044 -474 -552 0
-1044 -474 -563 0
-1044 -474 -564 0
-1044 -474 -567 0
-1044 -474 -568 0
-1044 -475 616 0
-1044 -475 -462 -467 0
-1044 -475 -504 0
-1044 -475 -548 0
-1044 -475 -552 0
-1044 -475 -564 0
-1044 -475 -568 0
-1045 594 0
-1045 612 0
-1045 -468 0
-1045 -469 0
-1045 -470 0
-1045 -471 0
-1045 -476 0
-1045 -473 614 0
-1045 -473 -463 -465 0
-1045 -473 -506 0
-1045 -473 -507 0
-1045 -473 -508 0
-1045 -473 -550 0
-1045 -473 -551 0
-1045 -473 -552 0
-1045 -473 -566 0
-1045 -473 -567 0
-1045 -473 -568 0
-1045 -474 615 0
-1045 -474 -463 -466 0
-1045 -474 -507 0
-1045 -474 -508 0
-1045 -474 -551 0
-1045 -474 -552 0
-1045 -474 -567 0
-1045 -474 -568 0
-1045 -475 616 0
-1045 -475 -463 -467 0
-1045 -475 -508 0
-1045 -475 -552 0
-1045 -475 -568 0
-1046 594 0
-1046 607 0
-1046 -478 0
-1046 -479 0
-1046 -480 0
-1046 -484 0
-1046 -481 614 0
-1046 -481 -458 -465 0
-1046 -481 -486 0
-1046 -481 -487 0
-1046 -481 -488 0
-1046 -481 -534 0
-1046 -481 -535 0
-1046 -481 -536 0
-1046 -481 -554 0
-1046 -481 -555 0
-1046 -481 -556 0
-1046 -482 615 0
-1046 -482 -458 -466 0
-1046 -482 -487 0
-1046 -482 -488 0
-1046 -482 -535 0
-1046 -482 -536 0
-1046 -482 -555 0
-1046 -482 -556 0
-1046 -483 616 0
-1046 -483 -458 -467 0
-1046 -483 -488 0
-1046 -483 -536 0
-1046 -483 -556 0
-1047 594 0
-1047 608 0
-1047 -479 0
-1047 -480 0
-1047 -484 0
-1047 -481 614 0
-1047 -481 -459 -465 0
-1047 -481 -490 0
-1047 -481 -491 0
-1047 -481 -492 0
-1047 -481 -534 0
-1047 -481 -535 0
-1047 -481 -536 0
-1047 -481 -538 0
-1047 -481 -539 0
-1047 -481 -540 0
-1047 -481 -554 0
-1047 -481 -555 0
-1047 -481 -556 0
-1047 -481 -558 0
-1047 -481 -559 0
-1047 -481 -560 0
-1047 -482 615 0
-1047 -482 -459 -466 0
-1047 -482 -491 0
-1047 -482 -492 0
-1047 -482 -535 0
-1047 -482 -536 0
-1047 -482 -539 0
-1047 -482 -540 0
-1047 -482 -555 0
-1047 -482 -556 0
-1047 -482 -559 0
-1047 -482 -560 0
-1047 -483 616 0
-1047 -483 -459 -467 0
-1047 -483 -492 0
-1047 -483 -536 0
-1047 -483 -540 0
-1047 -483 -556 0
-1047 -483 -560 0
-1048 594 0
-1048 609 0
-1048 -480 0
-1048 -484 0
-1048 -481 614 0
-1048 -481 -460 -465 0
-1048 -481 -494 0
-1048 -481 -495 0
-1048 -481 -496 0
-1048 -481 -538 0
-1048 -481 -539 0
-1048 -481 -540 0
-1048 -481 -542 0
-1048 -481 -543 0
-1048 -481 -544 0
-1048 -481 -554 0
-1048 -481 -555 0
-1048 -481 -556 0
-1048 -481 -558 0
-1048 -481 -559 0
-1048 -481 -560 0
-1048 -481 -562 0
-1048 -481 -563 0
-1048 -481 -564 0
-1048 -482 615 0
-1048 -482 -460 -466 0
-1048 -482 -495 0
-1048 -482 -496 0
-1048 -482 -539 0
-1048 -482 -540 0
-1048 -482 -543 0
-1048 -482 -544 0
-1048 -482 -555 0
-1048 -482 -556 0
-1048 -482 -559 0
-1048 -482 -560 0
-1048 -482 -563 0
-1048 -482 -564 0
-1048 -483 616 0
-1048 -483 -460 -467 0
-1048 -483 -496 0
-1048 -483 -540 0
-1048 -483 -544 0
-1048 -483 -556 0
-1048 -483 -560 0
-1048 -483 -564 0
-1049 594 0
-1049 610 0
-1049 -477 0
-1049 -484 0
-1049 -481 614 0
-1049 -481 -461 -465 0
-1049 -481 -498 0
-1049 -481 -499 0
-1049 -481 -500 0
-1049 -481 -542 0
-1049 -481 -543 0
-1049 -481 -544 0
-1049 -481 -546 0
-1049 -481 -547 0
-1049 -481 -548 0
-1049 -481 -558 0
-1049 -481 -559 0
-1049 -481 -560 0
-1049 -481 -562 0
-1049 -481 -563 0
-1049 -481 -564 0
-1049 -481 -566 0
-1049 -481 -567 0
-1049 -481 -568 0
-1049 -482 615 0
-1049 -482 -461 -466 0
-1049 -482 -499 0
-1049 -482 -500 0
-1049 -482 -543 0
-1049 -482 -544 0
-1049 -482 -547 0
-1049 -482 -548 0
-1049 -482 -559 0
-1049 -482 -560 0
-1049 -482 -563 0
-1049 -482 -564 0
-1049 -482 -567 0
-1049 -482 -568 0
-1049 -483 616 0
-1049 -483 -461 -467 0
-1049 -483 -500 0
-1049 -483 -544 0
-1049 -483 -548 0
-1049 -483 -560 0
-1049 -483 -564 0
-1049 -483 -568 0
-1050 594 0
-1050 611 0
-1050 -477 0
-1050 -478 0
-1050 -484 0
-1050 -481 614 0
-1050 -481 -462 -465 0
-1050 -481 -502 0
-1050 -481 -503 0
-1050 -481 -504 0
-1050 -481 -546 0
-1050 -481 -547 0
-1050 -481 -548 0
-1050 -481 -550 0
-1050 -481 -551 0
-1050 -481 -552 0
-1050 -481 -562 0
-1050 -481 -563 0
-1050 -481 -564 0
-1050 -481 -566 0
-1050 -481 -567 0
-1050 -481 -568 0
-1050 -482 615 0
-1050 -482 -462 -466 0
-1050 -482 -503 0
-1050 -482 -504 0
-1050 -482 -547 0
-1050 -482 -548 0
-1050 -482 -551 0
-1050 -482 -552 0
-1050 -482 -563 0
-1050 -482 -564 0
-1050 -482 -567 0
-1050 -482 -568 0
-1050 -483 616 0
-1050 -483 -462 -467 0
-1050 -483 -504 0
-1050 -483 -548 0
-1050 -483 -552 0
-1050 -483 -564 0
-1050 -483 -568 0
-1051 594 0
-1051 612 0
-1051 -477 0
-1051 -478 0
-1051 -479 0
-1051 -484 0
-1051 -481 614 0
-1051 -481 -463 -465 0
-1051 -481 -506 0
-1051 -481 -507 0
-1051 -481 -508 0
-1051 -481 -550 0
-1051 -481 -551 0
-1051 -481 -552 0
-1051 -481 -566 0
-1051 -481 -567 0
-1051 -481 -568 0
-1051 -482 615 0
-1051 -482 -463 -466 0
-1051 -482 -507 0
-1051 -482 -508 0
-1051 -482 -551 0
-1051 -482 -552 0
-1051 -482 -567 0
-1051 -482 -568 0
-1051 -483 616 0
-1051 -483 -463 -467 0
-1051 -483 -508 0
-1051 -483 -552 0
-1051 -483 -568 0
-1052 594 0
-1052 607 0
-1052 613 0
-1052 -458 -464 0
-1052 -485 0
-1052 -486 0
-1052 -487 0
-1052 -488 0
-1052 -533 0
-1052 -534 0
-1052 -535 0
-1052 -536 0
-1052 -553 0
-1052 -554 0
-1052 -555 0
-1052 -556 0
-1053 594 0
-1053 608 0
-1053 613 0
-1053 -459 -464 0
-1053 -489 0
-1053 -490 0
-1053 -491 0
-1053 -492 0
-1053 -533 0
-1053 -534 0
-1053 -535 0
-1053 -536 0
-1053 -537 0
-1053 -538 0
-1053 -539 0
-1053 -540 0
-1053 -553 0
-1053 -554 0
-1053 -555 0
-1053 -556 0
-1053 -557 0
-1053 -558 0
-1053 -559 0
-1053 -560 0
-1054 594 0
-1054 609 0
-1054 613 0
-1054 -460 -464 0
-1054 -493 0
-1054 -494 0
-1054 -495 0
-1054 -496 0
-1054 -537 0
-1054 -538 0
-1054 -539 0
-1054 -540 0
-1054 -541 0
-1054 -542 0
-1054 -543 0
-1054 -544 0
-1054 -553 0
-1054 -554 0
-1054 -555 0
-1054 -556 0
-1054 -557 0
-1054 -558 0
-1054 -559 0
-1054 -560 0
-1054 -561 0
-1054 -562 0
-1054 -563 0
-1054 -564 0
-1055 594 0
-1055 610 0
-1055 613 0
-1055 -461 -464 0
-1055 -497 0
-1055 -498 0
-1055 -499 0
-1055 -500 0
-1055 -541 0
-1055 -542 0
-1055 -543 0
-1055 -544 0
-1055 -545 0
-1055 -546 0
-1055 -547 0
-1055 -548 0
-1055 -557 0
-1055 -558 0
-1055 -559 0
-1055 -560 0
-1055 -561 0
-1055 -562 0
-1055 -563 0
-1055 -564 0
-1055 -565 0
-1055 -566 0
-1055 -567 0
-1055 -568 0
-1056 594 0
-1056 611 0
-1056 613 0
-1056 -462 -464 0
-1056 -501 0
-1056 -502 0
-1056 -503 0
-1056 -504 0
-1056 -545 0
-1056 -546 0
-1056 -547 0
-1056 -548 0
-1056 -549 0
-1056 -550 0
-1056 -551 0
-1056 -552 0
-1056 -561 0
-1056 -562 0
-1056 -563 0
-1056 -564 0
-1056 -565 0
-1056 -566 0
-1056 -567 0
-1056 -568 0
-1057 594 0
-1057 612 0
-1057 613 0
-1057 -463 -464 0
-1057 -505 0
-1057 -506 0
-1057 -507 0
-1057 -508 0
-1057 -549 0
-1057 -550 0
-1057 -551 0
-1057 -552 0
-1057 -565 0
-1057 -566 0
-1057 -567 0
-1057 -568 0
-1058 595 0
-1058 617 0
-1058 -450 0
-1058 -451 0
-1058 -452 0
-1058 -453 0
-1058 -457 0
-1058 -454 623 0
-1058 -454 -468 -474 0
-1058 -454 -486 0
-1058 -454 -487 0
-1058 -454 -488 0
-1058 -454 -490 0
-1058 -454 -491 0
-1058 -454 -492 0
-1058 -454 -510 0
-1058 -454 -511 0
-1058 -454 -512 0
-1058 -454 -514 0
-1058 -454 -515 0
-1058 -454 -516 0
-1058 -454 -554 0
-1058 -454 -555 0
-1058 -454 -556 0
-1058 -454 -558 0
-1058 -454 -559 0
-1058 -454 -560 0
-1058 -455 624 0
-1058 -455 -468 -475 0
-1058 -455 -487 0
-1058 -455 -488 0
-1058 -455 -491 0
-1058 -455 -492 0
-1058 -455 -511 0
-1058 -455 -512 0
-1058 -455 -515 0
-1058 -455 -516 0
-1058 -455 -555 0
-1058 -455 -556 0
-1058 -455 -559 0
-1058 -455 -560 0
-1058 -456 625 0
-1058 -456 -468 -476 0
-1058 -456 -488 0
-1058 -456 -492 0
-1058 -456 -512 0
-1058 -456 -516 0
-1058 -456 -556 0
-1058 -456 -560 0
-1059 595 0
-1059 618 0
-1059 -448 0
-1059 -451 0
-1059 -452 0
-1059 -453 0
-1059 -457 0
-1059 -454 623 0
-1059 -454 -469 -474 0
-1059 -454 -490 0
-1059 -454 -491 0
-1059 -454 -492 0
-1059 -454 -494 0
-1059 -454 -495 0
-1059 -454 -496 0
-1059 -454 -514 0
-1059 -454 -515 0
-1059 -454 -516 0
-1059 -454 -518 0
-1059 -454 -519 0
-1059 -454 -520 0
-1059 -454 -554 0
-1059 -454 -555 0
-1059 -454 -556 0
-1059 -454 -558 0
-1059 -454 -559 0
-1059 -454 -560 0
-1059 -454 -562 0
-1059 -454 -563 0
-1059 -454 -564 0
-1059 -455 624 0
-1059 -455 -469 -475 0
-1059 -455 -491 0
-1059 -455 -492 0
-1059 -455 -495 0
-1059 -455 -496 0
-1059 -455 -515 0
-1059 -455 -516 0
-1059 -455 -519 0
-1059 -455 -520 0
-1059 -455 -555 0
-1059 -455 -556 0
-1059 -455 -559 0
-1059 -455 -560 0
-1059 -455 -563 0
-1059 -455 -564 0
-1059 -456 625 0
-1059 -456 -469 -476 0
-1059 -456 -492 0
-1059 -456 -496 0
-1059 -456 -516 0
-1059 -456 -520 0
-1059 -456 -556 0
-1059 -456 -560 0
-1059 -456 -564 0
-1060 595 0
-1060 619 0
-1060 -448 0
-1060 -449 0
-1060 -452 0
-1060 -453 0
-1060 -457 0
-1060 -454 623 0
-1060 -454 -470 -474 0
-1060 -454 -494 0
-1060 -454 -495 0
-1060 -454 -496 0
-1060 -454 -498 0
-1060 -454 -499 0
-1060 -454 -500 0
-1060 -454 -518 0
-1060 -454 -519 0
-1060 -454 -520 0
-1060 -454 -522 0
-1060 -454 -523 0
-1060 -454 -524 0
-1060 -454 -554 0
-1060 -454 -555 0
-1060 -454 -556 0
-1060 -454 -558 0
-1060 -454 -559 0
-1060 -454 -560 0
-1060 -454 -562 0
-1060 -454 -563 0
-1060 -454 -564 0
-1060 -454 -566 0
-1060 -454 -567 0
-1060 -454 -568 0
-1060 -455 624 0
-1060 -455 -470 -475 0
-1060 -455 -495 0
-1060 -455 -496 0
-1060 -455 -499 0
-1060 -455 -500 0
-1060 -455 -519 0
-1060 -455 -520 0
-1060 -455 -523 0
-1060 -455 -524 0
-1060 -455 -555 0
-1060 -455 -556 0
-1060 -455 -559 0
-1060 -455 -560 0
-1060 -455 -563 0
-1060 -455 -564 0
-1060 -455 -567 0
-1060 -455 -568 0
-1060 -456 625 0
-1060 -456 -470 -476 0
-1060 -456 -496 0
-1060 -456 -500 0
-1060 -456 -520 0
-1060 -456 -524 0
-1060 -456 -556 0
-1060 -456 -560 0
-1060 -456 -564 0
-1060 -456 -568 0
-1061 595 0
-1061 620 0
-1061 -448 0
-1061 -449 0
-1061 -450 0
-1061 -453 0
-1061 -457 0
-1061 -454 623 0
-1061 -454 -471 -474 0
-1061 -454 -498 0
-1061 -454 -499 0
-1061 -454 -500 0
-1061 -454 -502 0
-1061 -454 -503 0
-1061 -454 -504 0
-1061 -454 -522 0
-1061 -454 -523 0
-1061 -454 -524 0
-1061 -454 -526 0
-1061 -454 -527 0
-1061 -454 -528 0
-1061 -454 -558 0
-1061 -454 -559 0
-1061 -454 -560 0
-1061 -454 -562 0
-1061 -454 -563 0
-1061 -454 -564 0
-1061 -454 -566 0
-1061 -454 -567 0
-1061 -454 -568 0
-1061 -455 624 0
-1061 -455 -471 -475 0
-1061 -455 -499 0
-1061 -455 -500 0
-1061 -455 -503 0
-1061 -455 -504 0
-1061 -455 -523 0
-1061 -455 -524 0
-1061 -455 -527 0
-1061 -455 -528 0
-1061 -455 -559 0
-1061 -455 -560 0
-1061 -455 -563 0
-1061 -455 -564 0
-1061 -455 -567 0
-1061 -455 -568 0
-1061 -456 625 0
-1061 -456 -471 -476 0
-1061 -456 -500 0
-1061 -456 -504 0
-1061 -456 -524 0
-1061 -456 -528 0
-1061 -456 -560 0
-1061 -456 -564 0
-1061 -456 -568 0
-1062 595 0
-1062 621 0
-1062 -448 0
-1062 -449 0
-1062 -450 0
-1062 -451 0
-1062 -457 0
-1062 -454 623 0
-1062 -454 -472 -474 0
-1062 -454 -502 0
-1062 -454 -503 0
-1062 -454 -504 0
-1062 -454 -506 0
-1062 -454 -507 0
-1062 -454 -508 0
-1062 -454 -526 0
-1062 -454 -527 0
-1062 -454 -528 0
-1062 -454 -530 0
-1062 -454 -531 0
-1062 -454 -532 0
-1062 -454 -562 0
-1062 -454 -563 0
-1062 -454 -564 0
-1062 -454 -566 0
-1062 -454 -567 0
-1062 -454 -568 0
-1062 -455 624 0
-1062 -455 -472 -475 0
-1062 -455 -503 0
-1062 -455 -504 0
-1062 -455 -507 0
-1062 -455 -508 0
-1062 -455 -527 0
-1062 -455 -528 0
-1062 -455 -531 0
-1062 -455 -532 0
-1062 -455 -563 0
-1062 -455 -564 0
-1062 -455 -567 0
-1062 -455 -568 0
-1062 -456 625 0
-1062 -456 -472 -476 0
-1062 -456 -504 0
-1062 -456 -508 0
-1062 -456 -528 0
-1062 -456 -532 0
-1062 -456 -564 0
-1062 -456 -568 0
-1063 595 0
-1063 617 0
-1063 -460 0
-1063 -461 0
-1063 -462 0
-1063 -463 0
-1063 -467 0
-1063 -464 623 0
-1063 -464 -468 -474 0
-1063 -464 -486 0
-1063 -464 -487 0
-1063 -464 -488 0
-1063 -464 -490 0
-1063 -464 -491 0
-1063 -464 -492 0
-1063 -464 -510 0
-1063 -464 -511 0
-1063 -464 -512 0
-1063 -464 -514 0
-1063 -464 -515 0
-1063 -464 -516 0
-1063 -464 -554 0
-1063 -464 -555 0
-1063 -464 -556 0
-1063 -464 -558 0
-1063 -464 -559 0
-1063 -464 -560 0
-1063 -465 624 0
-1063 -465 -468 -475 0
-1063 -465 -487 0
-1063 -465 -488 0
-1063 -465 -491 0
-1063 -465 -492 0
-1063 -465 -511 0
-1063 -465 -512 0
-1063 -465 -515 0
-1063 -465 -516 0
-1063 -465 -555 0
-1063 -465 -556 0
-1063 -465 -559 0
-1063 -465 -560 0
-1063 -466 625 0
-1063 -466 -468 -476 0
-1063 -466 -488 0
-1063 -466 -492 0
-1063 -466 -512 0
-1063 -466 -516 0
-1063 -466 -556 0
-1063 -466 -560 0
-1064 595 0
-1064 618 0
-1064 -458 0
-1064 -461 0
-1064 -462 0
-1064 -463 0
-1064 -467 0
-1064 -464 623 0
-1064 -464 -469 -474 0
-1064 -464 -490 0
-1064 -464 -491 0
-1064 -464 -492 0
-1064 -464 -494 0
-1064 -464 -495 0
-1064 -464 -496 0
-1064 -464 -514 0
-1064 -464 -515 0
-1064 -464 -516 0
-1064 -464 -518 0
-1064 -464 -519 0
-1064 -464 -520 0
-1064 -464 -554 0
-1064 -464 -555 0
-1064 -464 -556 0
-1064 -464 -558 0
-1064 -464 -559 0
-1064 -464 -560 0
-1064 -464 -562 0
-1064 -464 -563 0
-1064 -464 -564 0
-1064 -465 624 0
-1064 -465 -469 -475 0
-1064 -465 -491 0
-1064 -465 -492 0
-1064 -465 -495 0
-1064 -465 -496 0
-1064 -465 -515 0
-1064 -465 -516 0
-1064 -465 -519 0
-1064 -465 -520 0
-1064 -465 -555 0
-1064 -465 -556 0
-1064 -465 -559 0
-1064 -465 -560 0
-1064 -465 -563 0
-1064 -465 -564 0
-1064 -466 625 0
-1064 -466 -469 -476 0
-1064 -466 -492 0
-1064 -466 -496 0
-1064 -466 -516 0
-1064 -466 -520 0
-1064 -466 -556 0
-1064 -466 -560 0
-1064 -466 -564 0
-1065 595 0
-1065 619 0
-1065 -458 0
-1065 -459 0
-1065 -462 0
-1065 -463 0
-1065 -467 0
-1065 -464 623 0
-1065 -464 -470 -474 0
-1065 -464 -494 0
-1065 -464 -495 0
-1065 -464 -496 0
-1065 -464 -498 0
-1065 -464 -499 0
-1065 -464 -500 0
-1065 -464 -518 0
-1065 -464 -519 0
-1065 -464 -520 0
-1065 -464 -522 0
-1065 -464 -523 0
-1065 -464 -524 0
-1065 -464 -554 0
-1065 -464 -555 0
-1065 -464 -556 0
-1065 -464 -558 0
-1065 -464 -559 0
-1065 -464 -560 0
-1065 -464 -562 0
-1065 -464 -563 0
-1065 -464 -564 0
-1065 -464 -566 0
-1065 -464 -567 0
-1065 -464 -568 0
-1065 -465 624 0
-1065 -465 -470 -475 0
-1065 -465 -495 0
-1065 -465 -496 0
-1065 -465 -499 0
-1065 -465 -500 0
-1065 -465 -519 0
-1065 -465 -520 0
-1065 -465 -523 0
-1065 -465 -524 0
-1065 -465 -555 0
-1065 -465 -556 0
-1065 -465 -559 0
-1065 -465 -560 0
-1065 -465 -563 0
-1065 -465 -564 0
-1065 -465 -567 0
-1065 -465 -568 0
-1065 -466 625 0
-1065 -466 -470 -476 0
-1065 -466 -496 0
-1065 -466 -500 0
-1065 -466 -520 0
-1065 -466 -524 0
-1065 -466 -556 0
-1065 -466 -560 0
-1065 -466 -564 0
-1065 -466 -568 0
-1066 595 0
-1066 620 0
-1066 -458 0
-1066 -459 0
-1066 -460 0
-1066 -463 0
-1066 -467 0
-1066 -464 623 0
-1066 -464 -471 -474 0
-1066 -464 -498 0
-1066 -464 -499 0
-1066 -464 -500 0
-1066 -464 -502 0
-1066 -464 -503 0
-1066 -464 -504 0
-1066 -464 -522 0
-1066 -464 -523 0
-1066 -464 -524 0
-1066 -464 -526 0
-1066 -464 -527 0
-1066 -464 -528 0
-1066 -464 -558 0
-1066 -464 -559 0
-1066 -464 -560 0
-1066 -464 -562 0
-1066 -464 -563 0
-1066 -464 -564 0
-1066 -464 -566 0
-1066 -464 -567 0
-1066 -464 -568 0
-1066 -465 624 0
-1066 -465 -471 -475 0
-1066 -465 -499 0
-1066 -465 -500 0
-1066 -465 -503 0
-1066 -465 -504 0
-1066 -465 -523 0
-1066 -465 -524 0
-1066 -465 -527 0
-1066 -465 -528 0
-1066 -465 -559 0
-1066 -465 -560 0
-1066 -465 -563 0
-1066 -465 -564 0
-1066 -465 -567 0
-1066 -465 -568 0
-1066 -466 625 0
-1066 -466 -471 -476 0
-1066 -466 -500 0
-1066 -466 -504 0
-1066 -466 -524 0
-1066 -466 -528 0
-1066 -466 -560 0
-1066 -466 -564 0
-1066 -466 -568 0
-1067 595 0
-1067 621 0
-1067 -458 0
-1067 -459 0
-1067 -460 0
-1067 -461 0
-1067 -467 0
-1067 -464 623 0
-1067 -464 -472 -474 0
-1067 -464 -502 0
-1067 -464 -503 0
-1067 -464 -504 0
-1067 -464 -506 0
-1067 -464 -507 0
-1067 -464 -508 0
-1067 -464 -526 0
-1067 -464 -527 0
-1067 -464 -528 0
-1067 -464 -530 0
-1067 -464 -531 0
-1067 -464 -532 0
-1067 -464 -562 0
-1067 -464 -563 0
-1067 -464 -564 0
-1067 -464 -566 0
-1067 -464 -567 0
-1067 -464 -568 0
-1067 -465 624 0
-1067 -465 -472 -475 0
-1067 -465 -503 0
-1067 -465 -504 0
-1067 -465 -507 0
-1067 -465 -508 0
-1067 -465 -527 0
-1067 -465 -528 0
-1067 -465 -531 0
-1067 -465 -532 0
-1067 -465 -563 0
-1067 -465 -564 0
-1067 -465 -567 0
-1067 -465 -568 0
-1067 -466 625 0
-1067 -466 -472 -476 0
-1067 -466 -504 0
-1067 -466 -508 0
-1067 -466 -528 0
-1067 -466 -532 0
-1067 -466 -564 0
-1067 -466 -568 0
-1068 595 0
-1068 617 0
-1068 -479 0
-1068 -480 0
-1068 -484 0
-1068 -481 623 0
-1068 -481 -468 -474 0
-1068 -481 -486 0
-1068 -481 -487 0
-1068 -481 -488 0
-1068 -481 -490 0
-1068 -481 -491 0
-1068 -481 -492 0
-1068 -481 -510 0
-1068 -481 -511 0
-1068 -481 -512 0
-1068 -481 -514 0
-1068 -481 -515 0
-1068 -481 -516 0
-1068 -481 -554 0
-1068 -481 -555 0
-1068 -481 -556 0
-1068 -481 -558 0
-1068 -481 -559 0
-1068 -481 -560 0
-1068 -482 624 0
-1068 -482 -468 -475 0
-1068 -482 -487 0
-1068 -482 -488 0
-1068 -482 -491 0
-1068 -482 -492 0
-1068 -482 -511 0
-1068 -482 -512 0
-1068 -482 -515 0
-1068 -482 -516 0
-1068 -482 -555 0
-1068 -482 -556 0
-1068 -482 -559 0
-1068 -482 -560 0
-1068 -483 625 0
-1068 -483 -468 -476 0
-1068 -483 -488 0
-1068 -483 -492 0
-1068 -483 -512 0
-1068 -483 -516 0
-1068 -483 -556 0
-1068 -483 -560 0
-1069 595 0
-1069 618 0
-1069 -480 0
-1069 -484 0
-1069 -481 623 0
-1069 -481 -469 -474 0
-1069 -481 -490 0
-1069 -481 -491 0
-1069 -481 -492 0
-1069 -481 -494 0
-1069 -481 -495 0
-1069 -481 -496 0
-1069 -481 -514 0
-1069 -481 -515 0
-1069 -481 -516 0
-1069 -481 -518 0
-1069 -481 -519 0
-1069 -481 -520 0
-1069 -481 -554 0
-1069 -481 -555 0
-1069 -481 -556 0
-1069 -481 -558 0
-1069 -481 -559 0
-1069 -481 -560 0
-1069 -481 -562 0
-1069 -481 -563 0
-1069 -481 -564 0
-1069 -482 624 0
-1069 -482 -469 -475 0
-1069 -482 -491 0
-1069 -482 -492 0
-1069 -482 -495 0
-1069 -482 -496 0
-1069 -482 -515 0
-1069 -482 -516 0
-1069 -482 -519 0
-1069 -482 -520 0
-1069 -482 -555 0
-1069 -482 -556 0
-1069 -482 -559 0
-1069 -482 -560 0
-1069 -482 -563 0
-1069 -482 -564 0
-1069 -483 625 0
-1069 -483 -469 -476 0
-1069 -483 -492 0
-1069 -483 -496 0
-1069 -483 -516 0
-1069 -483 -520 0
-1069 -483 -556 0
-1069 -483 -560 0
-1069 -483 -564 0
-1070 595 0
-1070 619 0
-1070 -484 0
-1070 -481 623 0
-1070 -481 -470 -474 0
-1070 -481 -494 0
-1070 -481 -495 0
-1070 -481 -496 0
-1070 -481 -498 0
-1070 -481 -499 0
-1070 -481 -500 0
-1070 -481 -518 0
-1070 -481 -519 0
-1070 -481 -520 0
-1070 -481 -522 0
-1070 -481 -523 0
-1070 -481 -524 0
-1070 -481 -554 0
-1070 -481 -555 0
-1070 -481 -556 0
-1070 -481 -558 0
-1070 -481 -559 0
-1070 -481 -560 0
-1070 -481 -562 0
-1070 -481 -563 0
-1070 -481 -564 0
-1070 -481 -566 0
-1070 -481 -567 0
-1070 -481 -568 0
-1070 -482 624 0
-1070 -482 -470 -475 0
-1070 -482 -495 0
-1070 -482 -496 0
-1070 -482 -499 0
-1070 -482 -500 0
-1070 -482 -519 0
-1070 -482 -520 0
-1070 -482 -523 0
-1070 -482 -524 0
-1070 -482 -555 0
-1070 -482 -556 0
-1070 -482 -559 0
-1070 -482 -560 0
-1070 -482 -563 0
-1070 -482 -564 0
-1070 -482 -567 0
-1070 -482 -568 0
-1070 -483 625 0
-1070 -483 -470 -476 0
-1070 -483 -496 0
-1070 -483 -500 0
-1070 -483 -520 0
-1070 -483 -524 0
-1070 -483 -556 0
-1070 -483 -560 0
-1070 -483 -564 0
-1070 -483 -568 0
-1071 595 0
-1071 620 0
-1071 -477 0
-1071 -484 0
-1071 -481 623 0
-1071 -481 -471 -474 0
-1071 -481 -498 0
-1071 -481 -499 0
-1071 -481 -500 0
-1071 -481 -502 0
-1071 -481 -503 0
-1071 -481 -504 0
-1071 -481 -522 0
-1071 -481 -523 0
-1071 -481 -524 0
-1071 -481 -526 0
-1071 -481 -527 0
-1071 -481 -528 0
-1071 -481 -558 0
-1071 -481 -559 0
-1071 -481 -560 0
-1071 -481 -562 0
-1071 -481 -563 0
-1071 -481 -564 0
-1071 -481 -566 0
-1071 -481 -567 0
-1071 -481 -568 0
-1071 -482 624 0
-1071 -482 -471 -475 0
-1071 -482 -499 0
-1071 -482 -500 0
-1071 -482 -503 0
-1071 -482 -504 0
-1071 -482 -523 0
-1071 -482 -524 0
-1071 -482 -527 0
-1071 -482 -528 0
-1071 -482 -559 0
-1071 -482 -560 0
-1071 -482 -563 0
-1071 -482 -564 0
-1071 -482 -567 0
-1071 -482 -568 0
-1071 -483 625 0
-1071 -483 -471 -476 0
-1071 -483 -500 0
-1071 -483 -504 0
-1071 -483 -524 0
-1071 -483 -528 0
-1071 -483 -560 0
-1071 -483 -564 0
-1071 -483 -568 0
-1072 595 0
-1072 621 0
-1072 -477 0
-1072 -478 0
-1072 -484 0
-1072 -481 623 0
-1072 -481 -472 -474 0
-1072 -481 -502 0
-1072 -481 -503 0
-1072 -481 -504 0
-1072 -481 -506 0
-1072 -481 -507 0
-1072 -481 -508 0
-1072 -481 -526 0
-1072 -481 -527 0
-1072 -481 -528 0
-1072 -481 -530 0
-1072 -481 -531 0
-1072 -481 -532 0
-1072 -481 -562 0
-1072 -481 -563 0
-1072 -481 -564 0
-1072 -481 -566 0
-1072 -481 -567 0
-1072 -481 -568 0
-1072 -482 624 0
-1072 -482 -472 -475 0
-1072 -482 -503 0
-1072 -482 -504 0
-1072 -482 -507 0
-1072 -482 -508 0
-1072 -482 -527 0
-1072 -482 -528 0
-1072 -482 -531 0
-1072 -482 -532 0
-1072 -482 -563 0
-1072 -482 -564 0
-1072 -482 -567 0
-1072 -482 -568 0
-1072 -483 625 0
-1072 -483 -472 -476 0
-1072 -483 -504 0
-1072 -483 -508 0
-1072 -483 -528 0
-1072 -483 -532 0
-1072 -483 -564 0
-1072 -483 -568 0
-1073 595 0
-1073 617 0
-1073 622 0
-1073 -468 -473 0
-1073 -485 0
-1073 -486 0
-1073 -487 0
-1073 -488 0
-1073 -489 0
-1073 -490 0
-1073 -491 0
-1073 -492 0
-1073 -509 0
-1073 -510 0
-1073 -511 0
-1073 -512 0
-1073 -513 0
-1073 -514 0
-1073 -515 0
-1073 -516 0
-1073 -553 0
-1073 -554 0
-1073 -555 0
-1073 -556 0
-1073 -557 0
-1073 -558 0
-1073 -559 0
-1073 -560 0
-1074 595 0
-1074 618 0
-1074 622 0
-1074 -469 -473 0
-1074 -489 0
-1074 -490 0
-1074 -491 0
-1074 -492 0
-1074 -493 0
-1074 -494 0
-1074 -495 0
-1074 -496 0
-1074 -513 0
-1074 -514 0
-1074 -515 0
-1074 -516 0
-1074 -517 0
-1074 -518 0
-1074 -519 0
-1074 -520 0
-1074 -553 0
-1074 -554 0
-1074 -555 0
-1074 -556 0
-1074 -557 0
-1074 -558 0
-1074 -559 0
-1074 -560 0
-1074 -561 0
-1074 -562 0
-1074 -563 0
-1074 -564 0
-1075 595 0
-1075 619 0
-1075 622 0
-1075 -470 -473 0
-1075 -493 0
-1075 -494 0
-1075 -495 0
-1075 -496 0
-1075 -497 0
-1075 -498 0
-1075 -499 0
-1075 -500 0
-1075 -517 0
-1075 -518 0
-1075 -519 0
-1075 -520 0
-1075 -521 0
-1075 -522 0
-1075 -523 0
-1075 -524 0
-1075 -553 0
-1075 -554 0
-1075 -555 0
-1075 -556 0
-1075 -557 0
-1075 -558 0
-1075 -559 0
-1075 -560 0
-1075 -561 0
-1075 -562 0
-1075 -563 0
-1075 -564 0
-1075 -565 0
-1075 -566 0
-1075 -567 0
-1075 -568 0
-1076 595 0
-1076 620 0
-1076 622 0
-1076 -471 -473 0
-1076 -497 0
-1076 -498 0
-1076 -499 0
-1076 -500 0
-1076 -501 0
-1076 -502 0
-1076 -503 0
-1076 -504 0
-1076 -521 0
-1076 -522 0
-1076 -523 0
-1076 -524 0
-1076 -525 0
-1076 -526 0
-1076 -527 0
-1076 -528 0
-1076 -557 0
-1076 -558 0
-1076 -559 0
-1076 -560 0
-1076 -561 0
-1076 -562 0
-1076 -563 0
-1076 -564 0
-1076 -565 0
-1076 -566 0
-1076 -567 0
-1076 -568 0
-1077 595 0
-1077 621 0
-1077 622 0
-1077 -472 -473 0
-1077 -501 0
-1077 -502 0
-1077 -503 0
-1077 -504 0
-1077 -505 0
-1077 -506 0
-1077 -507 0
-1077 -508 0
-1077 -525 0
-1077 -526 0
-1077 -527 0
-1077 -528 0
-1077 -529 0
-1077 -530 0
-1077 -531 0
-1077 -532 0
-1077 -561 0
-1077 -562 0
-1077 -563 0
-1077 -564 0
-1077 -565 0
-1077 -566 0
-1077 -567 0
-1077 -568 0
-1078 596 0
-1078 626 0
-1078 -451 0
-1078 -452 0
-1078 -453 0
-1078 -457 0
-1078 -454 631 0
-1078 -454 -477 -482 0
-1078 -454 -486 0
-1078 -454 -487 0
-1078 -454 -488 0
-1078 -454 -490 0
-1078 -454 -491 0
-1078 -454 -492 0
-1078 -454 -494 0
-1078 -454 -495 0
-1078 -454 -496 0
-1078 -454 -510 0
-1078 -454 -511 0
-1078 -454 -512 0
-1078 -454 -514 0
-1078 -454 -515 0
-1078 -454 -516 0
-1078 -454 -518 0
-1078 -454 -519 0
-1078 -454 -520 0
-1078 -454 -534 0
-1078 -454 -535 0
-1078 -454 -536 0
-1078 -454 -538 0
-1078 -454 -539 0
-1078 -454 -540 0
-1078 -454 -542 0
-1078 -454 -543 0
-1078 -454 -544 0
-1078 -455 632 0
-1078 -455 -477 -483 0
-1078 -455 -487 0
-1078 -455 -488 0
-1078 -455 -491 0
-1078 -455 -492 0
-1078 -455 -495 0
-1078 -455 -496 0
-1078 -455 -511 0
-1078 -455 -512 0
-1078 -455 -515 0
-1078 -455 -516 0
-1078 -455 -519 0
-1078 -455 -520 0
-1078 -455 -535 0
-1078 -455 -536 0
-1078 -455 -539 0
-1078 -455 -540 0
-1078 -455 -543 0
-1078 -455 -544 0
-1078 -456 633 0
-1078 -456 -477 -484 0
-1078 -456 -488 0
-1078 -456 -492 0
-1078 -456 -496 0
-1078 -456 -512 0
-1078 -456 -516 0
-1078 -456 -520 0
-1078 -456 -536 0
-1078 -456 -540 0
-1078 -456 -544 0
-1079 596 0
-1079 627 0
-1079 -448 0
-1079 -452 0
-1079 -453 0
-1079 -457 0
-1079 -454 631 0
-1079 -454 -478 -482 0
-1079 -454 -490 0
-1079 -454 -491 0
-1079 -454 -492 0
-1079 -454 -494 0
-1079 -454 -495 0
-1079 -454 -496 0
-1079 -454 -498 0
-1079 -454 -499 0
-1079 -454 -500 0
-1079 -454 -514 0
-1079 -454 -515 0
-1079 -454 -516 0
-1079 -454 -518 0
-1079 -454 -519 0
-1079 -454 -520 0
-1079 -454 -522 0
-1079 -454 -523 0
-1079 -454 -524 0
-1079 -454 -534 0
-1079 -454 -535 0
-1079 -454 -536 0
-1079 -454 -538 0
-1079 -454 -539 0
-1079 -454 -540 0
-1079 -454 -542 0
-1079 -454 -543 0
-1079 -454 -544 0
-1079 -454 -546 0
-1079 -454 -547 0
-1079 -454 -548 0
-1079 -455 632 0
-1079 -455 -478 -483 0
-1079 -455 -491 0
-1079 -455 -492 0
-1079 -455 -495 0
-1079 -455 -496 0
-1079 -455 -499 0
-1079 -455 -500 0
-1079 -455 -515 0
-1079 -455 -516 0
-1079 -455 -519 0
-1079 -455 -520 0
-1079 -455 -523 0
-1079 -455 -524 0
-1079 -455 -535 0
-1079 -455 -536 0
-1079 -455 -539 0
-1079 -455 -540 0
-1079 -455 -543 0
-1079 -455 -544 0
-1079 -455 -547 0
-1079 -455 -548 0
-1079 -456 633 0
-1079 -456 -478 -484 0
-1079 -456 -492 0
-1079 -456 -496 0
-1079 -456 -500 0
-1079 -456 -516 0
-1079 -456 -520 0
-1079 -456 -524 0
-1079 -456 -536 0
-1079 -456 -540 0
-1079 -456 -544 0
-1079 -456 -548 0
-1080 596 0
-1080 628 0
-1080 -448 0
-1080 -449 0
-1080 -453 0
-1080 -457 0
-1080 -454 631 0
-1080 -454 -479 -482 0
-1080 -454 -494 0
-1080 -454 -495 0
-1080 -454 -496 0
-1080 -454 -498 0
-1080 -454 -499 0
-1080 -454 -500 0
-1080 -454 -502 0
-1080 -454 -503 0
-1080 -454 -504 0
-1080 -454 -518 0
-1080 -454 -519 0
-1080 -454 -520 0
-1080 -454 -522 0
-1080 -454 -523 0
-1080 -454 -524 0
-1080 -454 -526 0
-1080 -454 -527 0
-1080 -454 -528 0
-1080 -454 -538 0
-1080 -454 -539 0
-1080 -454 -540 0
-1080 -454 -542 0
-1080 -454 -543 0
-1080 -454 -544 0
-1080 -454 -546 0
-1080 -454 -547 0
-1080 -454 -548 0
-1080 -454 -550 0
-1080 -454 -551 0
-1080 -454 -552 0
-1080 -455 632 0
-1080 -455 -479 -483 0
-1080 -455 -495 0
-1080 -455 -496 0
-1080 -455 -499 0
-1080 -455 -500 0
-1080 -455 -503 0
-1080 -455 -504 0
-1080 -455 -519 0
-1080 -455 -520 0
-1080 -455 -523 0
-1080 -455 -524 0
-1080 -455 -527 0
-1080 -455 -528 0
-1080 -455 -539 0
-1080 -455 -540 0
-1080 -455 -543 0
-1080 -455 -544 0
-1080 -455 -547 0
-1080 -455 -548 0
-1080 -455 -551 0
-1080 -455 -552 0
-1080 -456 633 0
-1080 -456 -479 -484 0
-1080 -456 -496 0
-1080 -456 -500 0
-1080 -456 -504 0
-1080 -456 -520 0
-1080 -456 -524 0
-1080 -456 -528 0
-1080 -456 -540 0
-1080 -456 -544 0
-1080 -456 -548 0
-1080 -456 -552 0
-1081 596 0
-1081 629 0
-1081 -448 0
-1081 -449 0
-1081 -450 0
-1081 -457 0
-1081 -454 631 0
-1081 -454 -480 -482 0
-1081 -454 -498 0
-1081 -454 -499 0
-1081 -454 -500 0
-1081 -454 -502 0
-1081 -454 -503 0
-1081 -454 -504 0
-1081 -454 -506 0
-1081 -454 -507 0
-1081 -454 -508 0
-1081 -454 -522 0
-1081 -454 -523 0
-1081 -454 -524 0
-1081 -454 -526 0
-1081 -454 -527 0
-1081 -454 -528 0
-1081 -454 -530 0
-1081 -454 -531 0
-1081 -454 -532 0
-1081 -454 -542 0
-1081 -454 -543 0
-1081 -454 -544 0
-1081 -454 -546 0
-1081 -454 -547 0
-1081 -454 -548 0
-1081 -454 -550 0
-1081 -454 -551 0
-1081 -454 -552 0
-1081 -455 632 0
-1081 -455 -480 -483 0
-1081 -455 -499 0
-1081 -455 -500 0
-1081 -455 -503 0
-1081 -455 -504 0
-1081 -455 -507 0
-1081 -455 -508 0
-1081 -455 -523 0
-1081 -455 -524 0
-1081 -455 -527 0
-1081 -455 -528 0
-1081 -455 -531 0
-1081 -455 -532 0
-1081 -455 -543 0
-1081 -455 -544 0
-1081 -455 -547 0
-1081 -455 -548 0
-1081 -455 -551 0
-1081 -455 -552 0
-1081 -456 633 0
-1081 -456 -480 -484 0
-1081 -456 -500 0
-1081 -456 -504 0
-1081 -456 -508 0
-1081 -456 -524 0
-1081 -456 -528 0
-1081 -456 -532 0
-1081 -456 -544 0
-1081 -456 -548 0
-1081 -456 -552 0
-1082 596 0
-1082 626 0
-1082 -461 0
-1082 -462 0
-1082 -463 0
-1082 -467 0
-1082 -464 631 0
-1082 -464 -477 -482 0
-1082 -464 -486 0
-1082 -464 -487 0
-1082 -464 -488 0
-1082 -464 -490 0
-1082 -464 -491 0
-1082 -464 -492 0
-1082 -464 -494 0
-1082 -464 -495 0
-1082 -464 -496 0
-1082 -464 -510 0
-1082 -464 -511 0
-1082 -464 -512 0
-1082 -464 -514 0
-1082 -464 -515 0
-1082 -464 -516 0
-1082 -464 -518 0
-1082 -464 -519 0
-1082 -464 -520 0
-1082 -464 -534 0
-1082 -464 -535 0
-1082 -464 -536 0
-1082 -464 -538 0
-1082 -464 -539 0
-1082 -464 -540 0
-1082 -464 -542 0
-1082 -464 -543 0
-1082 -464 -544 0
-1082 -465 632 0
-1082 -465 -477 -483 0
-1082 -465 -487 0
-1082 -465 -488 0
-1082 -465 -491 0
-1082 -465 -492 0
-1082 -465 -495 0
-1082 -465 -496 0
-1082 -465 -511 0
-1082 -465 -512 0
-1082 -465 -515 0
-1082 -465 -516 0
-1082 -465 -519 0
-1082 -465 -520 0
-1082 -465 -535 0
-1082 -465 -536 0
-1082 -465 -539 0
-1082 -465 -540 0
-1082 -465 -543 0
-1082 -465 -544 0
-1082 -466 633 0
-1082 -466 -477 -484 0
-1082 -466 -488 0
-1082 -466 -492 0
-1082 -466 -496 0
-1082 -466 -512 0
-1082 -466 -516 0
-1082 -466 -520 0
-1082 -466 -536 0
-1082 -466 -540 0
-1082 -466 -544 0
-1083 596 0
-1083 627 0
-1083 -458 0
-1083 -462 0
-1083 -463 0
-1083 -467 0
-1083 -464 631 0
-1083 -464 -478 -482 0
-1083 -464 -490 0
-1083 -464 -491 0
-1083 -464 -492 0
-1083 -464 -494 0
-1083 -464 -495 0
-1083 -464 -496 0
-1083 -464 -498 0
-1083 -464 -499 0
-1083 -464 -500 0
-1083 -464 -514 0
-1083 -464 -515 0
-1083 -464 -516 0
-1083 -464 -518 0
-1083 -464 -519 0
-1083 -464 -520 0
-1083 -464 -522 0
-1083 -464 -523 0
-1083 -464 -524 0
-1083 -464 -534 0
-1083 -464 -535 0
-1083 -464 -536 0
-1083 -464 -538 0
-1083 -464 -539 0
-1083 -464 -540 0
-1083 -464 -542 0
-1083 -464 -543 0
-1083 -464 -544 0
-1083 -464 -546 0
-1083 -464 -547 0
-1083 -464 -548 0
-1083 -465 632 0
-1083 -465 -478 -483 0
-1083 -465 -491 0
-1083 -465 -492 0
-1083 -465 -495 0
-1083 -465 -496 0
-1083 -465 -499 0
-1083 -465 -500 0
-1083 -465 -515 0
-1083 -465 -516 0
-1083 -465 -519 0
-1083 -465 -520 0
-1083 -465 -523 0
-1083 -465 -524 0
-1083 -465 -535 0
-1083 -465 -536 0
-1083 -465 -539 0
-1083 -465 -540 0
-1083 -465 -543 0
-1083 -465 -544 0
-1083 -465 -547 0
-1083 -465 -548 0
-1083 -466 633 0
-1083 -466 -478 -484 0
-1083 -466 -492 0
-1083 -466 -496 0
-1083 -466 -500 0
-1083 -466 -516 0
-1083 -466 -520 0
-1083 -466 -524 0
-1083 -466 -536 0
-1083 -466 -540 0
-1083 -466 -544 0
-1083 -466 -548 0
-1084 596 0
-1084 628 0
-1084 -458 0
-1084 -459 0
-1084 -463 0
-1084 -467 0
-1084 -464 631 0
-1084 -464 -479 -482 0
-1084 -464 -494 0
-1084 -464 -495 0
-1084 -464 -496 0
-1084 -464 -498 0
-1084 -464 -499 0
-1084 -464 -500 0
-1084 -464 -502 0
-1084 -464 -503 0
-1084 -464 -504 0
-1084 -464 -518 0
-1084 -464 -519 0
-1084 -464 -520 0
-1084 -464 -522 0
-1084 -464 -523 0
-1084 -464 -524 0
-1084 -464 -526 0
-1084 -464 -527 0
-1084 -464 -528 0
-1084 -464 -538 0
-1084 -464 -539 0
-1084 -464 -540 0
-1084 -464 -542 0
-1084 -464 -543 0
-1084 -464 -544 0
-1084 -464 -546 0
-1084 -464 -547 0
-1084 -464 -548 0
-1084 -464 -550 0
-1084 -464 -551 0
-1084 -464 -552 0
-1084 -465 632 0
-1084 -465 -479 -483 0
-1084 -465 -495 0
-1084 -465 -496 0
-1084 -465 -499 0
-1084 -465 -500 0
-1084 -465 -503 0
-1084 -465 -504 0
-1084 -465 -519 0
-1084 -465 -520 0
-1084 -465 -523 0
-1084 -465 -524 0
-1084 -465 -527 0
-1084 -465 -528 0
-1084 -465 -539 0
-1084 -465 -540 0
-1084 -465 -543 0
-1084 -465 -544 0
-1084 -465 -547 0
-1084 -465 -548 0
-1084 -465 -551 0
-1084 -465 -552 0
-1084 -466 633 0
-1084 -466 -479 -484 0
-1084 -466 -496 0
-1084 -466 -500 0
-1084 -466 -504 0
-1084 -466 -520 0
-1084 -466 -524 0
-1084 -466 -528 0
-1084 -466 -540 0
-1084 -466 -544 0
-1084 -466 -548 0
-1084 -466 -552 0
-1085 596 0
-1085 629 0
-1085 -458 0
-1085 -459 0
-1085 -460 0
-1085 -467 0
-1085 -464 631 0
-1085 -464 -480 -482 0
-1085 -464 -498 0
-1085 -464 -499 0
-1085 -464 -500 0
-1085 -464 -502 0
-1085 -464 -503 0
-1085 -464 -504 0
-1085 -464 -506 0
-1085 -464 -507 0
-1085 -464 -508 0
-1085 -464 -522 0
-1085 -464 -523 0
-1085 -464 -524 0
-1085 -464 -526 0
-1085 -464 -527 0
-1085 -464 -528 0
-1085 -464 -530 0
-1085 -464 -531 0
-1085 -464 -532 0
-1085 -464 -542 0
-1085 -464 -543 0
-1085 -464 -544 0
-1085 -464 -546 0
-1085 -464 -547 0
-1085 -464 -548 0
-1085 -464 -550 0
-1085 -464 -551 0
-1085 -464 -552 0
-1085 -465 632 0
-1085 -465 -480 -483 0
-1085 -465 -499 0
-1085 -465 -500 0
-1085 -465 -503 0
-1085 -465 -504 0
-1085 -465 -507 0
-1085 -465 -508 0
-1085 -465 -523 0
-1085 -465 -524 0
-1085 -465 -527 0
-1085 -465 -528 0
-1085 -465 -531 0
-1085 -465 -532 0
-1085 -465 -543 0
-1085 -465 -544 0
-1085 -465 -547 0
-1085 -465 -548 0
-1085 -465 -551 0
-1085 -465 -552 0
-1085 -466 633 0
-1085 -466 -480 -484 0
-1085 -466 -500 0
-1085 -466 -504 0
-1085 -466 -508 0
-1085 -466 -524 0
-1085 -466 -528 0
-1085 -466 -532 0
-1085 -466 -544 0
-1085 -466 -548 0
-1085 -466 -552 0
-1086 596 0
-1086 626 0
-1086 -471 0
-1086 -472 0
-1086 -476 0
-1086 -473 631 0
-1086 -473 -477 -482 0
-1086 -473 -486 0
-1086 -473 -487 0
-1086 -473 -488 0
-1086 -473 -490 0
-1086 -473 -491 0
-1086 -473 -492 0
-1086 -473 -494 0
-1086 -473 -495 0
-1086 -473 -496 0
-1086 -473 -510 0
-1086 -473 -511 0
-1086 -473 -512 0
-1086 -473 -514 0
-1086 -473 -515 0
-1086 -473 -516 0
-1086 -473 -518 0
-1086 -473 -519 0
-1086 -473 -520 0
-1086 -473 -534 0
-1086 -473 -535 0
-1086 -473 -536 0
-1086 -473 -538 0
-1086 -473 -539 0
-1086 -473 -540 0
-1086 -473 -542 0
-1086 -473 -543 0
-1086 -473 -544 0
-1086 -474 632 0
-1086 -474 -477 -483 0
-1086 -474 -487 0
-1086 -474 -488 0
-1086 -474 -491 0
-1086 -474 -492 0
-1086 -474 -495 0
-1086 -474 -496 0
-1086 -474 -511 0
-1086 -474 -512 0
-1086 -474 -515 0
-1086 -474 -516 0
-1086 -474 -519 0
-1086 -474 -520 0
-1086 -474 -535 0
-1086 -474 -536 0
-1086 -474 -539 0
-1086 -474 -540 0
-1086 -474 -543 0
-1086 -474 -544 0
-1086 -475 633 0
-1086 -475 -477 -484 0
-1086 -475 -488 0
-1086 -475 -492 0
-1086 -475 -496 0
-1086 -475 -512 0
-1086 -475 -516 0
-1086 -475 -520 0
-1086 -475 -536 0
-1086 -475 -540 0
-1086 -475 -544 0
-1087 596 0
-1087 627 0
-1087 -472 0
-1087 -476 0
-1087 -473 631 0
-1087 -473 -478 -482 0
-1087 -473 -490 0
-1087 -473 -491 0
-1087 -473 -492 0
-1087 -473 -494 0
-1087 -473 -495 0
-1087 -473 -496 0
-1087 -473 -498 0
-1087 -473 -499 0
-1087 -473 -500 0
-1087 -473 -514 0
-1087 -473 -515 0
-1087 -473 -516 0
-1087 -473 -518 0
-1087 -473 -519 0
-1087 -473 -520 0
-1087 -473 -522 0
-1087 -473 -523 0
-1087 -473 -524 0
-1087 -473 -534 0
-1087 -473 -535 0
-1087 -473 -536 0
-1087 -473 -538 0
-1087 -473 -539 0
-1087 -473 -540 0
-1087 -473 -542 0
-1087 -473 -543 0
-1087 -473 -544 0
-1087 -473 -546 0
-1087 -473 -547 0
-1087 -473 -548 0
-1087 -474 632 0
-1087 -474 -478 -483 0
-1087 -474 -491 0
-1087 -474 -492 0
-1087 -474 -495 0
-1087 -474 -496 0
-1087 -474 -499 0
-1087 -474 -500 0
-1087 -474 -515 0
-1087 -474 -516 0
-1087 -474 -519 0
-1087 -474 -520 0
-1087 -474 -523 0
-1087 -474 -524 0
-1087 -474 -535 0
-1087 -474 -536 0
-1087 -474 -539 0
-1087 -474 -540 0
-1087 -474 -543 0
-1087 -474 -544 0
-1087 -474 -547 0
-1087 -474 -548 0
-1087 -475 633 0
-1087 -475 -478 -484 0
-1087 -475 -492 0
-1087 -475 -496 0
-1087 -475 -500 0
-1087 -475 -516 0
-1087 -475 -520 0
-1087 -475 -524 0
-1087 -475 -536 0
-1087 -475 -540 0
-1087 -475 -544 0
-1087 -475 -548 0
-1088 596 0
-1088 628 0
-1088 -468 0
-1088 -476 0
-1088 -473 631 0
-1088 -473 -479 -482 0
-1088 -473 -494 0
-1088 -473 -495 0
-1088 -473 -496 0
-1088 -473 -498 0
-1088 -473 -499 0
-1088 -473 -500 0
-1088 -473 -502 0
-1088 -473 -503 0
-1088 -473 -504 0
-1088 -473 -518 0
-1088 -473 -519 0
-1088 -473 -520 0
-1088 -473 -522 0
-1088 -473 -523 0
-1088 -473 -524 0
-1088 -473 -526 0
-1088 -473 -527 0
-1088 -473 -528 0
-1088 -473 -538 0
-1088 -473 -539 0
-1088 -473 -540 0
-1088 -473 -542 0
-1088 -473 -543 0
-1088 -473 -544 0
-1088 -473 -546 0
-1088 -473 -547 0
-1088 -473 -548 0
-1088 -473 -550 0
-1088 -473 -551 0
-1088 -473 -552 0
-1088 -474 632 0
-1088 -474 -479 -483 0
-1088 -474 -495 0
-1088 -474 -496 0
-1088 -474 -499 0
-1088 -474 -500 0
-1088 -474 -503 0
-1088 -474 -504 0
-1088 -474 -519 0
-1088 -474 -520 0
-1088 -474 -523 0
-1088 -474 -524 0
-1088 -474 -527 0
-1088 -474 -528 0
-1088 -474 -539 0
-1088 -474 -540 0
-1088 -474 -543 0
-1088 -474 -544 0
-1088 -474 -547 0
-1088 -474 -548 0
-1088 -474 -551 0
-1088 -474 -552 0
-1088 -475 633 0
-1088 -475 -479 -484 0
-1088 -475 -496 0
-1088 -475 -500 0
-1088 -475 -504 0
-1088 -475 -520 0
-1088 -475 -524 0
-1088 -475 -528 0
-1088 -475 -540 0
-1088 -475 -544 0
-1088 -475 -548 0
-1088 -475 -552 0
-1089 596 0
-1089 629 0
-1089 -468 0
-1089 -469 0
-1089 -476 0
-1089 -473 631 0
-1089 -473 -480 -482 0
-1089 -473 -498 0
-1089 -473 -499 0
-1089 -473 -500 0
-1089 -473 -502 0
-1089 -473 -503 0
-1089 -473 -504 0
-1089 -473 -506 0
-1089 -473 -507 0
-1089 -473 -508 0
-1089 -473 -522 0
-1089 -473 -523 0
-1089 -473 -524 0
-1089 -473 -526 0
-1089 -473 -527 0
-1089 -473 -528 0
-1089 -473 -530 0
-1089 -473 -531 0
-1089 -473 -532 0
-1089 -473 -542 0
-1089 -473 -543 0
-1089 -473 -544 0
-1089 -473 -546 0
-1089 -473 -547 0
-1089 -473 -548 0
-1089 -473 -550 0
-1089 -473 -551 0
-1089 -473 -552 0
-1089 -474 632 0
-1089 -474 -480 -483 0
-1089 -474 -499 0
-1089 -474 -500 0
-1089 -474 -503 0
-1089 -474 -504 0
-1089 -474 -507 0
-1089 -474 -508 0
-1089 -474 -523 0
-1089 -474 -524 0
-1089 -474 -527 0
-1089 -474 -528 0
-1089 -474 -531 0
-1089 -474 -532 0
-1089 -474 -543 0
-1089 -474 -544 0
-1089 -474 -547 0
-1089 -474 -548 0
-1089 -474 -551 0
-1089 -474 -552 0
-1089 -475 633 0
-1089 -475 -480 -484 0
-1089 -475 -500 0
-1089 -475 -504 0
-1089 -475 -508 0
-1089 -475 -524 0
-1089 -475 -528 0
-1089 -475 -532 0
-1089 -475 -544 0
-1089 -475 -548 0
-1089 -475 -552 0
-1090 596 0
-1090 626 0
-1090 630 0
-1090 -477 -481 0
-1090 -485 0
-1090 -486 0
-1090 -487 0
-1090 -488 0
-1090 -489 0
-1090 -490 0
-1090 -491 0
-1090 -492 0
-1090 -493 0
-1090 -494 0
-1090 -495 0
-1090 -496 0
-1090 -509 0
-1090 -510 0
-1090 -511 0
-1090 -512 0
-1090 -513 0
-1090 -514 0
-1090 -515 0
-1090 -516 0
-1090 -517 0
-1090 -518 0
-1090 -519 0
-1090 -520 0
-1090 -533 0
-1090 -534 0
-1090 -535 0
-1090 -536 0
-1090 -537 0
-1090 -538 0
-1090 -539 0
-1090 -540 0
-1090 -541 0
-1090 -542 0
-1090 -543 0
-1090 -544 0
-1091 596 0
-1091 627 0
-1091 630 0
-1091 -478 -481 0
-1091 -489 0
-1091 -490 0
-1091 -491 0
-1091 -492 0
-1091 -493 0
-1091 -494 0
-1091 -495 0
-1091 -496 0
-1091 -497 0
-1091 -498 0
-1091 -499 0
-1091 -500 0
-1091 -513 0
-1091 -514 0
-1091 -515 0
-1091 -516 0
-1091 -517 0
-1091 -518 0
-1091 -519 0
-1091 -520 0
-1091 -521 0
-1091 -522 0
-1091 -523 0
-1091 -524 0
-1091 -533 0
-1091 -534 0
-1091 -535 0
-1091 -536 0
-1091 -537 0
-1091 -538 0
-1091 -539 0
-1091 -540 0
-1091 -541 0
-1091 -542 0
-1091 -543 0
-1091 -544 0
-1091 -545 0
-1091 -546 0
-1091 -547 0
-1091 -548 0
-1092 596 0
-1092 628 0
-1092 630 0
-1092 -479 -481 0
-1092 -493 0
-1092 -494 0
-1092 -495 0
-1092 -496 0
-1092 -497 0
-1092 -498 0
-1092 -499 0
-1092 -500 0
-1092 -501 0
-1092 -502 0
-1092 -503 0
-1092 -504 0
-1092 -517 0
-1092 -518 0
-1092 -519 0
-1092 -520 0
-1092 -521 0
-1092 -522 0
-1092 -523 0
-1092 -524 0
-1092 -525 0
-1092 -526 0
-1092 -527 0
-1092 -528 0
-1092 -537 0
-1092 -538 0
-1092 -539 0
-1092 -540 0
-1092 -541 0
-1092 -542 0
-1092 -543 0
-1092 -544 0
-1092 -545 0
-1092 -546 0
-1092 -547 0
-1092 -548 0
-1092 -549 0
-1092 -550 0
-1092 -551 0
-1092 -552 0
-1093 596 0
-1093 629 0
-1093 630 0
-1093 -480 -481 0
-1093 -497 0
-1093 -498 0
-1093 -499 0
-1093 -500 0
-1093 -501 0
-1093 -502 0
-1093 -503 0
-1093 -504 0
-1093 -505 0
-1093 -506 0
-1093 -507 0
-1093 -508 0
-1093 -521 0
-1093 -522 0
-1093 -523 0
-1093 -524 0
-1093 -525 0
-1093 -526 0
-1093 -527 0
-1093 -528 0
-1093 -529 0
-1093 -530 0
-1093 -531 0
-1093 -532 0
-1093 -541 0
-1093 -542 0
-1093 -543 0
-1093 -544 0
-1093 -545 0
-1093 -546 0
-1093 -547 0
-1093 -548 0
-1093 -549 0
-1093 -550 0
-1093 -551 0
-1093 -552 0
