p cnf 1334 46706
1 2 3 4 5 6 0
-1 -2 0
-1 -3 0
-1 -4 0
-1 -5 0
-1 -6 0
-2 -3 0
-2 -4 0
-2 -5 0
-2 -6 0
-3 -4 0
-3 -5 0
-3 -6 0
-4 -5 0
-4 -6 0
-5 -6 0
7 8 9 10 0
-7 -8 0
-7 -9 0
-7 -10 0
-8 -9 0
-8 -10 0
-9 -10 0
11 12 13 14 15 16 0
-11 -12 0
-11 -13 0
-11 -14 0
-11 -15 0
-11 -16 0
-12 -13 0
-12 -14 0
-12 -15 0
-12 -16 0
-13 -14 0
-13 -15 0
-13 -16 0
-14 -15 0
-14 -16 0
-15 -16 0
17 18 19 20 0
-17 -18 0
-17 -19 0
-17 -20 0
-18 -19 0
-18 -20 0
-19 -20 0
21 22 23 24 25 0
-21 -22 0
-21 -23 0
-21 -24 0
-21 -25 0
-22 -23 0
-22 -24 0
-22 -25 0
-23 -24 0
-23 -25 0
-24 -25 0
26 27 28 29 0
-26 -27 0
-26 -28 0
-26 -29 0
-27 -28 0
-27 -29 0
-28 -29 0
30 31 32 33 0
-30 -31 0
-30 -32 0
-30 -33 0
-31 -32 0
-31 -33 0
-32 -33 0
34 35 36 37 0
-34 -35 0
-34 -36 0
-34 -37 0
-35 -36 0
-35 -37 0
-36 -37 0
-38 1 0
-38 7 0
-1 -7 38 0
-39 1 0
-39 8 0
-1 -8 39 0
-40 1 0
-40 9 0
-1 -9 40 0
-41 1 0
-41 10 0
-1 -10 41 0
-42 2 0
-42 7 0
-2 -7 42 0
-43 2 0
-43 8 0
-2 -8 43 0
-44 2 0
-44 9 0
-2 -9 44 0
-45 2 0
-45 10 0
-2 -10 45 0
-46 3 0
-46 7 0
-3 -7 46 0
-47 3 0
-47 8 0
-3 -8 47 0
-48 3 0
-48 9 0
-3 -9 48 0
-49 3 0
-49 10 0
-3 -10 49 0
-50 4 0
-50 7 0
-4 -7 50 0
-51 4 0
-51 8 0
-4 -8 51 0
-52 4 0
-52 9 0
-4 -9 52 0
-53 4 0
-53 10 0
-4 -10 53 0
-54 5 0
-54 7 0
-5 -7 54 0
-55 5 0
-55 8 0
-5 -8 55 0
-56 5 0
-56 9 0
-5 -9 56 0
-57 5 0
-57 10 0
-5 -10 57 0
-58 6 0
-58 7 0
-6 -7 58 0
-59 6 0
-59 8 0
-6 -8 59 0
-60 6 0
-60 9 0
-6 -9 60 0
-61 6 0
-61 10 0
-6 -10 61 0
-62 11 0
-62 17 0
-11 -17 62 0
-63 11 0
-63 18 0
-11 -18 63 0
-64 11 0
-64 19 0
-11 -19 64 0
-65 11 0
-65 20 0
-11 -20 65 0
-66 12 0
-66 17 0
-12 -17 66 0
-67 12 0
-67 18 0
-12 -18 67 0
-68 12 0
-68 19 0
-12 -19 68 0
-69 12 0
-69 20 0
-12 -20 69 0
-70 13 0
-70 17 0
-13 -17 70 0
-71 13 0
-71 18 0
-13 -18 71 0
-72 13 0
-72 19 0
-13 -19 72 0
-73 13 0
-73 20 0
-13 -20 73 0
-74 14 0
-74 17 0
-14 -17 74 0
-75 14 0
-75 18 0
-14 -18 75 0
-76 14 0
-76 19 0
-14 -19 76 0
-77 14 0
-77 20 0
-14 -20 77 0
-78 15 0
-78 17 0
-15 -17 78 0
-79 15 0
-79 18 0
-15 -18 79 0
-80 15 0
-80 19 0
-15 -19 80 0
-81 15 0
-81 20 0
-15 -20 81 0
-82 16 0
-82 17 0
-16 -17 82 0
-83 16 0
-83 18 0
-16 -18 83 0
-84 16 0
-84 19 0
-16 -19 84 0
-85 16 0
-85 20 0
-16 -20 85 0
-86 21 0
-86 26 0
-21 -26 86 0
-87 21 0
-87 27 0
-21 -27 87 0
-88 21 0
-88 28 0
-21 -28 88 0
-89 21 0
-89 29 0
-21 -29 89 0
-90 22 0
-90 26 0
-22 -26 90 0
-91 22 0
-91 27 0
-22 -27 91 0
-92 22 0
-92 28 0
-22 -28 92 0
-93 22 0
-93 29 0
-22 -29 93 0
-94 23 0
-94 26 0
-23 -26 94 0
-95 23 0
-95 27 0
-23 -27 95 0
-96 23 0
-96 28 0
-23 -28 96 0
-97 23 0
-97 29 0
-23 -29 97 0
-98 24 0
-98 26 0
-24 -26 98 0
-99 24 0
-99 27 0
-24 -27 99 0
-100 24 0
-100 28 0
-24 -28 100 0
-101 24 0
-101 29 0
-24 -29 101 0
-102 25 0
-102 26 0
-25 -26 102 0
-103 25 0
-103 27 0
-25 -27 103 0
-104 25 0
-104 28 0
-25 -28 104 0
-105 25 0
-105 29 0
-25 -29 105 0
-106 30 0
-106 34 0
-30 -34 106 0
-107 30 0
-107 35 0
-30 -35 107 0
-108 30 0
-108 36 0
-30 -36 108 0
-109 30 0
-109 37 0
-30 -37 109 0
-110 31 0
-110 34 0
-31 -34 110 0
-111 31 0
-111 35 0
-31 -35 111 0
-112 31 0
-112 36 0
-31 -36 112 0
-113 31 0
-113 37 0
-31 -37 113 0
-114 32 0
-114 34 0
-32 -34 114 0
-115 32 0
-115 35 0
-32 -35 115 0
-116 32 0
-116 36 0
-32 -36 116 0
-117 32 0
-117 37 0
-32 -37 117 0
-118 33 0
-118 34 0
-33 -34 118 0
-119 33 0
-119 35 0
-33 -35 119 0
-120 33 0
-120 36 0
-33 -36 120 0
-121 33 0
-121 37 0
-33 -37 121 0
-122 38 62 86 106 0
-38 122 0
-62 122 0
-86 122 0
-106 122 0
-123 39 63 87 107 0
-39 123 0
-63 123 0
-87 123 0
-107 123 0
-124 40 64 88 108 0
-40 124 0
-64 124 0
-88 124 0
-108 124 0
-125 41 65 89 109 0
-41 125 0
-65 125 0
-89 125 0
-109 125 0
-126 42 66 86 90 106 110 0
-42 126 0
-66 126 0
-86 126 0
-90 126 0
-106 126 0
-110 126 0
-127 43 67 87 91 107 111 0
-43 127 0
-67 127 0
-87 127 0
-91 127 0
-107 127 0
-111 127 0
-128 44 68 88 92 108 112 0
-44 128 0
-68 128 0
-88 128 0
-92 128 0
-108 128 0
-112 128 0
-129 45 69 89 93 109 113 0
-45 129 0
-69 129 0
-89 129 0
-93 129 0
-109 129 0
-113 129 0
-130 46 70 90 94 106 110 114 0
-46 130 0
-70 130 0
-90 130 0
-94 130 0
-106 130 0
-110 130 0
-114 130 0
-131 47 71 91 95 107 111 115 0
-47 131 0
-71 131 0
-91 131 0
-95 131 0
-107 131 0
-111 131 0
-115 131 0
-132 48 72 92 96 108 112 116 0
-48 132 0
-72 132 0
-92 132 0
-96 132 0
-108 132 0
-112 132 0
-116 132 0
-133 49 73 93 97 109 113 117 0
-49 133 0
-73 133 0
-93 133 0
-97 133 0
-109 133 0
-113 133 0
-117 133 0
-134 50 74 94 98 110 114 118 0
-50 134 0
-74 134 0
-94 134 0
-98 134 0
-110 134 0
-114 134 0
-118 134 0
-135 51 75 95 99 111 115 119 0
-51 135 0
-75 135 0
-95 135 0
-99 135 0
-111 135 0
-115 135 0
-119 135 0
-136 52 76 96 100 112 116 120 0
-52 136 0
-76 136 0
-96 136 0
-100 136 0
-112 136 0
-116 136 0
-120 136 0
-137 53 77 97 101 113 117 121 0
-53 137 0
-77 137 0
-97 137 0
-101 137 0
-113 137 0
-117 137 0
-121 137 0
-138 54 78 98 102 114 118 0
-54 138 0
-78 138 0
-98 138 0
-102 138 0
-114 138 0
-118 138 0
-139 55 79 99 103 115 119 0
-55 139 0
-79 139 0
-99 139 0
-103 139 0
-115 139 0
-119 139 0
-140 56 80 100 104 116 120 0
-56 140 0
-80 140 0
-100 140 0
-104 140 0
-116 140 0
-120 140 0
-141 57 81 101 105 117 121 0
-57 141 0
-81 141 0
-101 141 0
-105 141 0
-117 141 0
-121 141 0
-142 58 82 102 118 0
-58 142 0
-82 142 0
-102 142 0
-118 142 0
-143 59 83 103 119 0
-59 143 0
-83 143 0
-103 143 0
-119 143 0
-144 60 84 104 120 0
-60 144 0
-84 144 0
-104 144 0
-120 144 0
-145 61 85 105 121 0
-61 145 0
-85 145 0
-105 145 0
-121 145 0
-38 -62 0
-38 -86 0
-38 -106 0
-39 -63 0
-39 -87 0
-39 -107 0
-40 -64 0
-40 -88 0
-40 -108 0
-41 -65 0
-41 -89 0
-41 -109 0
-42 -66 0
-42 -86 0
-42 -90 0
-42 -106 0
-42 -110 0
-43 -67 0
-43 -87 0
-43 -91 0
-43 -107 0
-43 -111 0
-44 -68 0
-44 -88 0
-44 -92 0
-44 -108 0
-44 -112 0
-45 -69 0
-45 -89 0
-45 -93 0
-45 -109 0
-45 -113 0
-46 -70 0
-46 -90 0
-46 -94 0
-46 -106 0
-46 -110 0
-46 -114 0
-47 -71 0
-47 -91 0
-47 -95 0
-47 -107 0
-47 -111 0
-47 -115 0
-48 -72 0
-48 -92 0
-48 -96 0
-48 -108 0
-48 -112 0
-48 -116 0
-49 -73 0
-49 -93 0
-49 -97 0
-49 -109 0
-49 -113 0
-49 -117 0
-50 -74 0
-50 -94 0
-50 -98 0
-50 -110 0
-50 -114 0
-50 -118 0
-51 -75 0
-51 -95 0
-51 -99 0
-51 -111 0
-51 -115 0
-51 -119 0
-52 -76 0
-52 -96 0
-52 -100 0
-52 -112 0
-52 -116 0
-52 -120 0
-53 -77 0
-53 -97 0
-53 -101 0
-53 -113 0
-53 -117 0
-53 -121 0
-54 -78 0
-54 -98 0
-54 -102 0
-54 -114 0
-54 -118 0
-55 -79 0
-55 -99 0
-55 -103 0
-55 -115 0
-55 -119 0
-56 -80 0
-56 -100 0
-56 -104 0
-56 -116 0
-56 -120 0
-57 -81 0
-57 -101 0
-57 -105 0
-57 -117 0
-57 -121 0
-58 -82 0
-58 -102 0
-58 -118 0
-59 -83 0
-59 -103 0
-59 -119 0
-60 -84 0
-60 -104 0
-60 -120 0
-61 -85 0
-61 -105 0
-61 -121 0
-62 -86 0
-62 -106 0
-63 -87 0
-63 -107 0
-64 -88 0
-64 -108 0
-65 -89 0
-65 -109 0
-66 -86 0
-66 -90 0
-66 -106 0
-66 -110 0
-67 -87 0
-67 -91 0
-67 -107 0
-67 -111 0
-68 -88 0
-68 -92 0
-68 -108 0
-68 -112 0
-69 -89 0
-69 -93 0
-69 -109 0
-69 -113 0
-70 -90 0
-70 -94 0
-70 -106 0
-70 -110 0
-70 -114 0
-71 -91 0
-71 -95 0
-71 -107 0
-71 -111 0
-71 -115 0
-72 -92 0
-72 -96 0
-72 -108 0
-72 -112 0
-72 -116 0
-73 -93 0
-73 -97 0
-73 -109 0
-73 -113 0
-73 -117 0
-74 -94 0
-74 -98 0
-74 -110 0
-74 -114 0
-74 -118 0
-75 -95 0
-75 -99 0
-75 -111 0
-75 -115 0
-75 -119 0
-76 -96 0
-76 -100 0
-76 -112 0
-76 -116 0
-76 -120 0
-77 -97 0
-77 -101 0
-77 -113 0
-77 -117 0
-77 -121 0
-78 -98 0
-78 -102 0
-78 -114 0
-78 -118 0
-79 -99 0
-79 -103 0
-79 -115 0
-79 -119 0
-80 -100 0
-80 -104 0
-80 -116 0
-80 -120 0
-81 -101 0
-81 -105 0
-81 -117 0
-81 -121 0
-82 -102 0
-82 -118 0
-83 -103 0
-83 -119 0
-84 -104 0
-84 -120 0
-85 -105 0
-85 -121 0
-86 -106 0
-86 -110 0
-87 -107 0
-87 -111 0
-88 -108 0
-88 -112 0
-89 -109 0
-89 -113 0
-90 -106 0
-90 -110 0
-90 -114 0
-91 -107 0
-91 -111 0
-91 -115 0
-92 -108 0
-92 -112 0
-92 -116 0
-93 -109 0
-93 -113 0
-93 -117 0
-94 -106 0
-94 -110 0
-94 -114 0
-94 -118 0
-95 -107 0
-95 -111 0
-95 -115 0
-95 -119 0
-96 -108 0
-96 -112 0
-96 -116 0
-96 -120 0
-97 -109 0
-97 -113 0
-97 -117 0
-97 -121 0
-98 -110 0
-98 -114 0
-98 -118 0
-99 -111 0
-99 -115 0
-99 -119 0
-100 -112 0
-100 -116 0
-100 -120 0
-101 -113 0
-101 -117 0
-101 -121 0
-102 -114 0
-102 -118 0
-103 -115 0
-103 -119 0
-104 -116 0
-104 -120 0
-105 -117 0
-105 -121 0
-38 146 63 64 65 87 88 89 107 108 109 0
-38 -146 -63 0
-38 -146 -64 0
-38 -146 -65 0
-38 -146 -87 0
-38 -146 -88 0
-38 -146 -89 0
-38 -146 -107 0
-38 -146 -108 0
-38 -146 -109 0
-39 122 0
-39 146 64 65 88 89 108 109 0
-39 -146 -64 0
-39 -146 -65 0
-39 -146 -88 0
-39 -146 -89 0
-39 -146 -108 0
-39 -146 -109 0
-40 123 0
-40 146 65 89 109 0
-40 -146 -65 0
-40 -146 -89 0
-40 -146 -109 0
-41 124 0
-41 146 0
-42 146 67 68 69 87 88 89 91 92 93 107 108 109 111 112 113 0
-42 -146 -67 0
-42 -146 -68 0
-42 -146 -69 0
-42 -146 -87 0
-42 -146 -88 0
-42 -146 -89 0
-42 -146 -91 0
-42 -146 -92 0
-42 -146 -93 0
-42 -146 -107 0
-42 -146 -108 0
-42 -146 -109 0
-42 -146 -111 0
-42 -146 -112 0
-42 -146 -113 0
-43 126 0
-43 146 68 69 88 89 92 93 108 109 112 113 0
-43 -146 -68 0
-43 -146 -69 0
-43 -146 -88 0
-43 -146 -89 0
-43 -146 -92 0
-43 -146 -93 0
-43 -146 -108 0
-43 -146 -109 0
-43 -146 -112 0
-43 -146 -113 0
-44 127 0
-44 146 69 89 93 109 113 0
-44 -146 -69 0
-44 -146 -89 0
-44 -146 -93 0
-44 -146 -109 0
-44 -146 -113 0
-45 128 0
-45 146 0
-46 146 71 72 73 91 92 93 95 96 97 107 108 109 111 112 113 115 116 117 0
-46 -146 -71 0
-46 -146 -72 0
-46 -146 -73 0
-46 -146 -91 0
-46 -146 -92 0
-46 -146 -93 0
-46 -146 -95 0
-46 -146 -96 0
-46 -146 -97 0
-46 -146 -107 0
-46 -146 -108 0
-46 -146 -109 0
-46 -146 -111 0
-46 -146 -112 0
-46 -146 -113 0
-46 -146 -115 0
-46 -146 -116 0
-46 -146 -117 0
-47 130 0
-47 146 72 73 92 93 96 97 108 109 112 113 116 117 0
-47 -146 -72 0
-47 -146 -73 0
-47 -146 -92 0
-47 -146 -93 0
-47 -146 -96 0
-47 -146 -97 0
-47 -146 -108 0
-47 -146 -109 0
-47 -146 -112 0
-47 -146 -113 0
-47 -146 -116 0
-47 -146 -117 0
-48 131 0
-48 146 73 93 97 109 113 117 0
-48 -146 -73 0
-48 -146 -93 0
-48 -146 -97 0
-48 -146 -109 0
-48 -146 -113 0
-48 -146 -117 0
-49 132 0
-49 146 0
-50 146 75 76 77 95 96 97 99 100 101 111 112 113 115 116 117 119 120 121 0
-50 -146 -75 0
-50 -146 -76 0
-50 -146 -77 0
-50 -146 -95 0
-50 -146 -96 0
-50 -146 -97 0
-50 -146 -99 0
-50 -146 -100 0
-50 -146 -101 0
-50 -146 -111 0
-50 -146 -112 0
-50 -146 -113 0
-50 -146 -115 0
-50 -146 -116 0
-50 -146 -117 0
-50 -146 -119 0
-50 -146 -120 0
-50 -146 -121 0
-51 134 0
-51 146 76 77 96 97 100 101 112 113 116 117 120 121 0
-51 -146 -76 0
-51 -146 -77 0
-51 -146 -96 0
-51 -146 -97 0
-51 -146 -100 0
-51 -146 -101 0
-51 -146 -112 0
-51 -146 -113 0
-51 -146 -116 0
-51 -146 -117 0
-51 -146 -120 0
-51 -146 -121 0
-52 135 0
-52 146 77 97 101 113 117 121 0
-52 -146 -77 0
-52 -146 -97 0
-52 -146 -101 0
-52 -146 -113 0
-52 -146 -117 0
-52 -146 -121 0
-53 136 0
-53 146 0
-54 146 79 80 81 99 100 101 103 104 105 115 116 117 119 120 121 0
-54 -146 -79 0
-54 -146 -80 0
-54 -146 -81 0
-54 -146 -99 0
-54 -146 -100 0
-54 -146 -101 0
-54 -146 -103 0
-54 -146 -104 0
-54 -146 -105 0
-54 -146 -115 0
-54 -146 -116 0
-54 -146 -117 0
-54 -146 -119 0
-54 -146 -120 0
-54 -146 -121 0
-55 138 0
-55 146 80 81 100 101 104 105 116 117 120 121 0
-55 -146 -80 0
-55 -146 -81 0
-55 -146 -100 0
-55 -146 -101 0
-55 -146 -104 0
-55 -146 -105 0
-55 -146 -116 0
-55 -146 -117 0
-55 -146 -120 0
-55 -146 -121 0
-56 139 0
-56 146 81 101 105 117 121 0
-56 -146 -81 0
-56 -146 -101 0
-56 -146 -105 0
-56 -146 -117 0
-56 -146 -121 0
-57 140 0
-57 146 0
-58 146 83 84 85 103 104 105 119 120 121 0
-58 -146 -83 0
-58 -146 -84 0
-58 -146 -85 0
-58 -146 -103 0
-58 -146 -104 0
-58 -146 -105 0
-58 -146 -119 0
-58 -146 -120 0
-58 -146 -121 0
-59 142 0
-59 146 84 85 104 105 120 121 0
-59 -146 -84 0
-59 -146 -85 0
-59 -146 -104 0
-59 -146 -105 0
-59 -146 -120 0
-59 -146 -121 0
-60 143 0
-60 146 85 105 121 0
-60 -146 -85 0
-60 -146 -105 0
-60 -146 -121 0
-61 144 0
-61 146 0
-62 147 39 40 41 87 88 89 107 108 109 0
-62 -147 -39 0
-62 -147 -40 0
-62 -147 -41 0
-62 -147 -87 0
-62 -147 -88 0
-62 -147 -89 0
-62 -147 -107 0
-62 -147 -108 0
-62 -147 -109 0
-63 122 0
-63 147 40 41 88 89 108 109 0
-63 -147 -40 0
-63 -147 -41 0
-63 -147 -88 0
-63 -147 -89 0
-63 -147 -108 0
-63 -147 -109 0
-64 123 0
-64 147 41 89 109 0
-64 -147 -41 0
-64 -147 -89 0
-64 -147 -109 0
-65 124 0
-65 147 0
-66 147 43 44 45 87 88 89 91 92 93 107 108 109 111 112 113 0
-66 -147 -43 0
-66 -147 -44 0
-66 -147 -45 0
-66 -147 -87 0
-66 -147 -88 0
-66 -147 -89 0
-66 -147 -91 0
-66 -147 -92 0
-66 -147 -93 0
-66 -147 -107 0
-66 -147 -108 0
-66 -147 -109 0
-66 -147 -111 0
-66 -147 -112 0
-66 -147 -113 0
-67 126 0
-67 147 44 45 88 89 92 93 108 109 112 113 0
-67 -147 -44 0
-67 -147 -45 0
-67 -147 -88 0
-67 -147 -89 0
-67 -147 -92 0
-67 -147 -93 0
-67 -147 -108 0
-67 -147 -109 0
-67 -147 -112 0
-67 -147 -113 0
-68 127 0
-68 147 45 89 93 109 113 0
-68 -147 -45 0
-68 -147 -89 0
-68 -147 -93 0
-68 -147 -109 0
-68 -147 -113 0
-69 128 0
-69 147 0
-70 147 47 48 49 91 92 93 95 96 97 107 108 109 111 112 113 115 116 117 0
-70 -147 -47 0
-70 -147 -48 0
-70 -147 -49 0
-70 -147 -91 0
-70 -147 -92 0
-70 -147 -93 0
-70 -147 -95 0
-70 -147 -96 0
-70 -147 -97 0
-70 -147 -107 0
-70 -147 -108 0
-70 -147 -109 0
-70 -147 -111 0
-70 -147 -112 0
-70 -147 -113 0
-70 -147 -115 0
-70 -147 -116 0
-70 -147 -117 0
-71 130 0
-71 147 48 49 92 93 96 97 108 109 112 113 116 117 0
-71 -147 -48 0
-71 -147 -49 0
-71 -147 -92 0
-71 -147 -93 0
-71 -147 -96 0
-71 -147 -97 0
-71 -147 -108 0
-71 -147 -109 0
-71 -147 -112 0
-71 -147 -113 0
-71 -147 -116 0
-71 -147 -117 0
-72 131 0
-72 147 49 93 97 109 113 117 0
-72 -147 -49 0
-72 -147 -93 0
-72 -147 -97 0
-72 -147 -109 0
-72 -147 -113 0
-72 -147 -117 0
-73 132 0
-73 147 0
-74 147 51 52 53 95 96 97 99 100 101 111 112 113 115 116 117 119 120 121 0
-74 -147 -51 0
-74 -147 -52 0
-74 -147 -53 0
-74 -147 -95 0
-74 -147 -96 0
-74 -147 -97 0
-74 -147 -99 0
-74 -147 -100 0
-74 -147 -101 0
-74 -147 -111 0
-74 -147 -112 0
-74 -147 -113 0
-74 -147 -115 0
-74 -147 -116 0
-74 -147 -117 0
-74 -147 -119 0
-74 -147 -120 0
-74 -147 -121 0
-75 134 0
-75 147 52 53 96 97 100 101 112 113 116 117 120 121 0
-75 -147 -52 0
-75 -147 -53 0
-75 -147 -96 0
-75 -147 -97 0
-75 -147 -100 0
-75 -147 -101 0
-75 -147 -112 0
-75 -147 -113 0
-75 -147 -116 0
-75 -147 -117 0
-75 -147 -120 0
-75 -147 -121 0
-76 135 0
-76 147 53 97 101 113 117 121 0
-76 -147 -53 0
-76 -147 -97 0
-76 -147 -101 0
-76 -147 -113 0
-76 -147 -117 0
-76 -147 -121 0
-77 136 0
-77 147 0
-78 147 55 56 57 99 100 101 103 104 105 115 116 117 119 120 121 0
-78 -147 -55 0
-78 -147 -56 0
-78 -147 -57 0
-78 -147 -99 0
-78 -147 -100 0
-78 -147 -101 0
-78 -147 -103 0
-78 -147 -104 0
-78 -147 -105 0
-78 -147 -115 0
-78 -147 -116 0
-78 -147 -117 0
-78 -147 -119 0
-78 -147 -120 0
-78 -147 -121 0
-79 138 0
-79 147 56 57 100 101 104 105 116 117 120 121 0
-79 -147 -56 0
-79 -147 -57 0
-79 -147 -100 0
-79 -147 -101 0
-79 -147 -104 0
-79 -147 -105 0
-79 -147 -116 0
-79 -147 -117 0
-79 -147 -120 0
-79 -147 -121 0
-80 139 0
-80 147 57 101 105 117 121 0
-80 -147 -57 0
-80 -147 -101 0
-80 -147 -105 0
-80 -147 -117 0
-80 -147 -121 0
-81 140 0
-81 147 0
-82 147 59 60 61 103 104 105 119 120 121 0
-82 -147 -59 0
-82 -147 -60 0
-82 -147 -61 0
-82 -147 -103 0
-82 -147 -104 0
-82 -147 -105 0
-82 -147 -119 0
-82 -147 -120 0
-82 -147 -121 0
-83 142 0
-83 147 60 61 104 105 120 121 0
-83 -147 -60 0
-83 -147 -61 0
-83 -147 -104 0
-83 -147 -105 0
-83 -147 -120 0
-83 -147 -121 0
-84 143 0
-84 147 61 105 121 0
-84 -147 -61 0
-84 -147 -105 0
-84 -147 -121 0
-85 144 0
-85 147 0
-86 148 39 40 41 43 44 45 63 64 65 67 68 69 107 108 109 111 112 113 0
-86 -148 -39 0
-86 -148 -40 0
-86 -148 -41 0
-86 -148 -43 0
-86 -148 -44 0
-86 -148 -45 0
-86 -148 -63 0
-86 -148 -64 0
-86 -148 -65 0
-86 -148 -67 0
-86 -148 -68 0
-86 -148 -69 0
-86 -148 -107 0
-86 -148 -108 0
-86 -148 -109 0
-86 -148 -111 0
-86 -148 -112 0
-86 -148 -113 0
-87 122 126 0
-87 148 40 41 44 45 64 65 68 69 108 109 112 113 0
-87 -148 -40 0
-87 -148 -41 0
-87 -148 -44 0
-87 -148 -45 0
-87 -148 -64 0
-87 -148 -65 0
-87 -148 -68 0
-87 -148 -69 0
-87 -148 -108 0
-87 -148 -109 0
-87 -148 -112 0
-87 -148 -113 0
-88 123 127 0
-88 148 41 45 65 69 109 113 0
-88 -148 -41 0
-88 -148 -45 0
-88 -148 -65 0
-88 -148 -69 0
-88 -148 -109 0
-88 -148 -113 0
-89 124 128 0
-89 148 0
-90 148 43 44 45 47 48 49 67 68 69 71 72 73 107 108 109 111 112 113 115 116 117 0
-90 -148 -43 0
-90 -148 -44 0
-90 -148 -45 0
-90 -148 -47 0
-90 -148 -48 0
-90 -148 -49 0
-90 -148 -67 0
-90 -148 -68 0
-90 -148 -69 0
-90 -148 -71 0
-90 -148 -72 0
-90 -148 -73 0
-90 -148 -107 0
-90 -148 -108 0
-90 -148 -109 0
-90 -148 -111 0
-90 -148 -112 0
-90 -148 -113 0
-90 -148 -115 0
-90 -148 -116 0
-90 -148 -117 0
-91 126 130 0
-91 148 44 45 48 49 68 69 72 73 108 109 112 113 116 117 0
-91 -148 -44 0
-91 -148 -45 0
-91 -148 -48 0
-91 -148 -49 0
-91 -148 -68 0
-91 -148 -69 0
-91 -148 -72 0
-91 -148 -73 0
-91 -148 -108 0
-91 -148 -109 0
-91 -148 -112 0
-91 -148 -113 0
-91 -148 -116 0
-91 -148 -117 0
-92 127 131 0
-92 148 45 49 69 73 109 113 117 0
-92 -148 -45 0
-92 -148 -49 0
-92 -148 -69 0
-92 -148 -73 0
-92 -148 -109 0
-92 -148 -113 0
-92 -148 -117 0
-93 128 132 0
-93 148 0
-94 148 47 48 49 51 52 53 71 72 73 75 76 77 107 108 109 111 112 113 115 116 117 119 120 121 0
-94 -148 -47 0
-94 -148 -48 0
-94 -148 -49 0
-94 -148 -51 0
-94 -148 -52 0
-94 -148 -53 0
-94 -148 -71 0
-94 -148 -72 0
-94 -148 -73 0
-94 -148 -75 0
-94 -148 -76 0
-94 -148 -77 0
-94 -148 -107 0
-94 -148 -108 0
-94 -148 -109 0
-94 -148 -111 0
-94 -148 -112 0
-94 -148 -113 0
-94 -148 -115 0
-94 -148 -116 0
-94 -148 -117 0
-94 -148 -119 0
-94 -148 -120 0
-94 -148 -121 0
-95 130 134 0
-95 148 48 49 52 53 72 73 76 77 108 109 112 113 116 117 120 121 0
-95 -148 -48 0
-95 -148 -49 0
-95 -148 -52 0
-95 -148 -53 0
-95 -148 -72 0
-95 -148 -73 0
-95 -148 -76 0
-95 -148 -77 0
-95 -148 -108 0
-95 -148 -109 0
-95 -148 -112 0
-95 -148 -113 0
-95 -148 -116 0
-95 -148 -117 0
-95 -148 -120 0
-95 -148 -121 0
-96 131 135 0
-96 148 49 53 73 77 109 113 117 121 0
-96 -148 -49 0
-96 -148 -53 0
-96 -148 -73 0
-96 -148 -77 0
-96 -148 -109 0
-96 -148 -113 0
-96 -148 -117 0
-96 -148 -121 0
-97 132 136 0
-97 148 0
-98 148 51 52 53 55 56 57 75 76 77 79 80 81 111 112 113 115 116 117 119 120 121 0
-98 -148 -51 0
-98 -148 -52 0
-98 -148 -53 0
-98 -148 -55 0
-98 -148 -56 0
-98 -148 -57 0
-98 -148 -75 0
-98 -148 -76 0
-98 -148 -77 0
-98 -148 -79 0
-98 -148 -80 0
-98 -148 -81 0
-98 -148 -111 0
-98 -148 -112 0
-98 -148 -113 0
-98 -148 -115 0
-98 -148 -116 0
-98 -148 -117 0
-98 -148 -119 0
-98 -148 -120 0
-98 -148 -121 0
-99 134 138 0
-99 148 52 53 56 57 76 77 80 81 112 113 116 117 120 121 0
-99 -148 -52 0
-99 -148 -53 0
-99 -148 -56 0
-99 -148 -57 0
-99 -148 -76 0
-99 -148 -77 0
-99 -148 -80 0
-99 -148 -81 0
-99 -148 -112 0
-99 -148 -113 0
-99 -148 -116 0
-99 -148 -117 0
-99 -148 -120 0
-99 -148 -121 0
-100 135 139 0
-100 148 53 57 77 81 113 117 121 0
-100 -148 -53 0
-100 -148 -57 0
-100 -148 -77 0
-100 -148 -81 0
-100 -148 -113 0
-100 -148 -117 0
-100 -148 -121 0
-101 136 140 0
-101 148 0
-102 148 55 56 57 59 60 61 79 80 81 83 84 85 115 116 117 119 120 121 0
-102 -148 -55 0
-102 -148 -56 0
-102 -148 -57 0
-102 -148 -59 0
-102 -148 -60 0
-102 -148 -61 0
-102 -148 -79 0
-102 -148 -80 0
-102 -148 -81 0
-102 -148 -83 0
-102 -148 -84 0
-102 -148 -85 0
-102 -148 -115 0
-102 -148 -116 0
-102 -148 -117 0
-102 -148 -119 0
-102 -148 -120 0
-102 -148 -121 0
-103 138 142 0
-103 148 56 57 60 61 80 81 84 85 116 117 120 121 0
-103 -148 -56 0
-103 -148 -57 0
-103 -148 -60 0
-103 -148 -61 0
-103 -148 -80 0
-103 -148 -81 0
-103 -148 -84 0
-103 -148 -85 0
-103 -148 -116 0
-103 -148 -117 0
-103 -148 -120 0
-103 -148 -121 0
-104 139 143 0
-104 148 57 61 81 85 117 121 0
-104 -148 -57 0
-104 -148 -61 0
-104 -148 -81 0
-104 -148 -85 0
-104 -148 -117 0
-104 -148 -121 0
-105 140 144 0
-105 148 0
-106 149 39 40 41 43 44 45 47 48 49 63 64 65 67 68 69 71 72 73 87 88 89 91 92 93 95 96 97 0
-106 -149 -39 0
-106 -149 -40 0
-106 -149 -41 0
-106 -149 -43 0
-106 -149 -44 0
-106 -149 -45 0
-106 -149 -47 0
-106 -149 -48 0
-106 -149 -49 0
-106 -149 -63 0
-106 -149 -64 0
-106 -149 -65 0
-106 -149 -67 0
-106 -149 -68 0
-106 -149 -69 0
-106 -149 -71 0
-106 -149 -72 0
-106 -149 -73 0
-106 -149 -87 0
-106 -149 -88 0
-106 -149 -89 0
-106 -149 -91 0
-106 -149 -92 0
-106 -149 -93 0
-106 -149 -95 0
-106 -149 -96 0
-106 -149 -97 0
-107 122 126 0
-107 122 130 0
-107 126 130 0
-107 149 40 41 44 45 48 49 64 65 68 69 72 73 88 89 92 93 96 97 0
-107 -149 -40 0
-107 -149 -41 0
-107 -149 -44 0
-107 -149 -45 0
-107 -149 -48 0
-107 -149 -49 0
-107 -149 -64 0
-107 -149 -65 0
-107 -149 -68 0
-107 -149 -69 0
-107 -149 -72 0
-107 -149 -73 0
-107 -149 -88 0
-107 -149 -89 0
-107 -149 -92 0
-107 -149 -93 0
-107 -149 -96 0
-107 -149 -97 0
-108 123 127 0
-108 123 131 0
-108 127 131 0
-108 149 41 45 49 65 69 73 89 93 97 0
-108 -149 -41 0
-108 -149 -45 0
-108 -149 -49 0
-108 -149 -65 0
-108 -149 -69 0
-108 -149 -73 0
-108 -149 -89 0
-108 -149 -93 0
-108 -149 -97 0
-109 124 128 0
-109 124 132 0
-109 128 132 0
-109 149 0
-110 149 43 44 45 47 48 49 51 52 53 67 68 69 71 72 73 75 76 77 87 88 89 91 92 93 95 96 97 99 100 101 0
-110 -149 -43 0
-110 -149 -44 0
-110 -149 -45 0
-110 -149 -47 0
-110 -149 -48 0
-110 -149 -49 0
-110 -149 -51 0
-110 -149 -52 0
-110 -149 -53 0
-110 -149 -67 0
-110 -149 -68 0
-110 -149 -69 0
-110 -149 -71 0
-110 -149 -72 0
-110 -149 -73 0
-110 -149 -75 0
-110 -149 -76 0
-110 -149 -77 0
-110 -149 -87 0
-110 -149 -88 0
-110 -149 -89 0
-110 -149 -91 0
-110 -149 -92 0
-110 -149 -93 0
-110 -149 -95 0
-110 -149 -96 0
-110 -149 -97 0
-110 -149 -99 0
-110 -149 -100 0
-110 -149 -101 0
-111 126 130 0
-111 126 134 0
-111 130 134 0
-111 149 44 45 48 49 52 53 68 69 72 73 76 77 88 89 92 93 96 97 100 101 0
-111 -149 -44 0
-111 -149 -45 0
-111 -149 -48 0
-111 -149 -49 0
-111 -149 -52 0
-111 -149 -53 0
-111 -149 -68 0
-111 -149 -69 0
-111 -149 -72 0
-111 -149 -73 0
-111 -149 -76 0
-111 -149 -77 0
-111 -149 -88 0
-111 -149 -89 0
-111 -149 -92 0
-111 -149 -93 0
-111 -149 -96 0
-111 -149 -97 0
-111 -149 -100 0
-111 -149 -101 0
-112 127 131 0
-112 127 135 0
-112 131 135 0
-112 149 45 49 53 69 73 77 89 93 97 101 0
-112 -149 -45 0
-112 -149 -49 0
-112 -149 -53 0
-112 -149 -69 0
-112 -149 -73 0
-112 -149 -77 0
-112 -149 -89 0
-112 -149 -93 0
-112 -149 -97 0
-112 -149 -101 0
-113 128 132 0
-113 128 136 0
-113 132 136 0
-113 149 0
-114 149 47 48 49 51 52 53 55 56 57 71 72 73 75 76 77 79 80 81 91 92 93 95 96 97 99 100 101 103 104 105 0
-114 -149 -47 0
-114 -149 -48 0
-114 -149 -49 0
-114 -149 -51 0
-114 -149 -52 0
-114 -149 -53 0
-114 -149 -55 0
-114 -149 -56 0
-114 -149 -57 0
-114 -149 -71 0
-114 -149 -72 0
-114 -149 -73 0
-114 -149 -75 0
-114 -149 -76 0
-114 -149 -77 0
-114 -149 -79 0
-114 -149 -80 0
-114 -149 -81 0
-114 -149 -91 0
-114 -149 -92 0
-114 -149 -93 0
-114 -149 -95 0
-114 -149 -96 0
-114 -149 -97 0
-114 -149 -99 0
-114 -149 -100 0
-114 -149 -101 0
-114 -149 -103 0
-114 -149 -104 0
-114 -149 -105 0
-115 130 134 0
-115 130 138 0
-115 134 138 0
-115 149 48 49 52 53 56 57 72 73 76 77 80 81 92 93 96 97 100 101 104 105 0
-115 -149 -48 0
-115 -149 -49 0
-115 -149 -52 0
-115 -149 -53 0
-115 -149 -56 0
-115 -149 -57 0
-115 -149 -72 0
-115 -149 -73 0
-115 -149 -76 0
-115 -149 -77 0
-115 -149 -80 0
-115 -149 -81 0
-115 -149 -92 0
-115 -149 -93 0
-115 -149 -96 0
-115 -149 -97 0
-115 -149 -100 0
-115 -149 -101 0
-115 -149 -104 0
-115 -149 -105 0
-116 131 135 0
-116 131 139 0
-116 135 139 0
-116 149 49 53 57 73 77 81 93 97 101 105 0
-116 -149 -49 0
-116 -149 -53 0
-116 -149 -57 0
-116 -149 -73 0
-116 -149 -77 0
-116 -149 -81 0
-116 -149 -93 0
-116 -149 -97 0
-116 -149 -101 0
-116 -149 -105 0
-117 132 136 0
-117 132 140 0
-117 136 140 0
-117 149 0
-118 149 51 52 53 55 56 57 59 60 61 75 76 77 79 80 81 83 84 85 95 96 97 99 100 101 103 104 105 0
-118 -149 -51 0
-118 -149 -52 0
-118 -149 -53 0
-118 -149 -55 0
-118 -149 -56 0
-118 -149 -57 0
-118 -149 -59 0
-118 -149 -60 0
-118 -149 -61 0
-118 -149 -75 0
-118 -149 -76 0
-118 -149 -77 0
-118 -149 -79 0
-118 -149 -80 0
-118 -149 -81 0
-118 -149 -83 0
-118 -149 -84 0
-118 -149 -85 0
-118 -149 -95 0
-118 -149 -96 0
-118 -149 -97 0
-118 -149 -99 0
-118 -149 -100 0
-118 -149 -101 0
-118 -149 -103 0
-118 -149 -104 0
-118 -149 -105 0
-119 134 138 0
-119 134 142 0
-119 138 142 0
-119 149 52 53 56 57 60 61 76 77 80 81 84 85 96 97 100 101 104 105 0
-119 -149 -52 0
-119 -149 -53 0
-119 -149 -56 0
-119 -149 -57 0
-119 -149 -60 0
-119 -149 -61 0
-119 -149 -76 0
-119 -149 -77 0
-119 -149 -80 0
-119 -149 -81 0
-119 -149 -84 0
-119 -149 -85 0
-119 -149 -96 0
-119 -149 -97 0
-119 -149 -100 0
-119 -149 -101 0
-119 -149 -104 0
-119 -149 -105 0
-120 135 139 0
-120 135 143 0
-120 139 143 0
-120 149 53 57 61 77 81 85 97 101 105 0
-120 -149 -53 0
-120 -149 -57 0
-120 -149 -61 0
-120 -149 -77 0
-120 -149 -81 0
-120 -149 -85 0
-120 -149 -97 0
-120 -149 -101 0
-120 -149 -105 0
-121 136 140 0
-121 136 144 0
-121 140 144 0
-121 149 0
150 151 152 153 154 155 0
-150 -151 0
-150 -152 0
-150 -153 0
-150 -154 0
-150 -155 0
-151 -152 0
-151 -153 0
-151 -154 0
-151 -155 0
-152 -153 0
-152 -154 0
-152 -155 0
-153 -154 0
-153 -155 0
-154 -155 0
156 157 158 159 0
-156 -157 0
-156 -158 0
-156 -159 0
-157 -158 0
-157 -159 0
-158 -159 0
160 161 162 163 164 165 0
-160 -161 0
-160 -162 0
-160 -163 0
-160 -164 0
-160 -165 0
-161 -162 0
-161 -163 0
-161 -164 0
-161 -165 0
-162 -163 0
-162 -164 0
-162 -165 0
-163 -164 0
-163 -165 0
-164 -165 0
166 167 168 169 0
-166 -167 0
-166 -168 0
-166 -169 0
-167 -168 0
-167 -169 0
-168 -169 0
170 171 172 173 174 0
-170 -171 0
-170 -172 0
-170 -173 0
-170 -174 0
-171 -172 0
-171 -173 0
-171 -174 0
-172 -173 0
-172 -174 0
-173 -174 0
175 176 177 178 0
-175 -176 0
-175 -177 0
-175 -178 0
-176 -177 0
-176 -178 0
-177 -178 0
179 180 181 182 0
-179 -180 0
-179 -181 0
-179 -182 0
-180 -181 0
-180 -182 0
-181 -182 0
183 184 185 186 0
-183 -184 0
-183 -185 0
-183 -186 0
-184 -185 0
-184 -186 0
-185 -186 0
-187 150 0
-187 156 0
-150 -156 187 0
-188 150 0
-188 157 0
-150 -157 188 0
-189 150 0
-189 158 0
-150 -158 189 0
-190 150 0
-190 159 0
-150 -159 190 0
-191 151 0
-191 156 0
-151 -156 191 0
-192 151 0
-192 157 0
-151 -157 192 0
-193 151 0
-193 158 0
-151 -158 193 0
-194 151 0
-194 159 0
-151 -159 194 0
-195 152 0
-195 156 0
-152 -156 195 0
-196 152 0
-196 157 0
-152 -157 196 0
-197 152 0
-197 158 0
-152 -158 197 0
-198 152 0
-198 159 0
-152 -159 198 0
-199 153 0
-199 156 0
-153 -156 199 0
-200 153 0
-200 157 0
-153 -157 200 0
-201 153 0
-201 158 0
-153 -158 201 0
-202 153 0
-202 159 0
-153 -159 202 0
-203 154 0
-203 156 0
-154 -156 203 0
-204 154 0
-204 157 0
-154 -157 204 0
-205 154 0
-205 158 0
-154 -158 205 0
-206 154 0
-206 159 0
-154 -159 206 0
-207 155 0
-207 156 0
-155 -156 207 0
-208 155 0
-208 157 0
-155 -157 208 0
-209 155 0
-209 158 0
-155 -158 209 0
-210 155 0
-210 159 0
-155 -159 210 0
-211 160 0
-211 166 0
-160 -166 211 0
-212 160 0
-212 167 0
-160 -167 212 0
-213 160 0
-213 168 0
-160 -168 213 0
-214 160 0
-214 169 0
-160 -169 214 0
-215 161 0
-215 166 0
-161 -166 215 0
-216 161 0
-216 167 0
-161 -167 216 0
-217 161 0
-217 168 0
-161 -168 217 0
-218 161 0
-218 169 0
-161 -169 218 0
-219 162 0
-219 166 0
-162 -166 219 0
-220 162 0
-220 167 0
-162 -167 220 0
-221 162 0
-221 168 0
-162 -168 221 0
-222 162 0
-222 169 0
-162 -169 222 0
-223 163 0
-223 166 0
-163 -166 223 0
-224 163 0
-224 167 0
-163 -167 224 0
-225 163 0
-225 168 0
-163 -168 225 0
-226 163 0
-226 169 0
-163 -169 226 0
-227 164 0
-227 166 0
-164 -166 227 0
-228 164 0
-228 167 0
-164 -167 228 0
-229 164 0
-229 168 0
-164 -168 229 0
-230 164 0
-230 169 0
-164 -169 230 0
-231 165 0
-231 166 0
-165 -166 231 0
-232 165 0
-232 167 0
-165 -167 232 0
-233 165 0
-233 168 0
-165 -168 233 0
-234 165 0
-234 169 0
-165 -169 234 0
-235 170 0
-235 175 0
-170 -175 235 0
-236 170 0
-236 176 0
-170 -176 236 0
-237 170 0
-237 177 0
-170 -177 237 0
-238 170 0
-238 178 0
-170 -178 238 0
-239 171 0
-239 175 0
-171 -175 239 0
-240 171 0
-240 176 0
-171 -176 240 0
-241 171 0
-241 177 0
-171 -177 241 0
-242 171 0
-242 178 0
-171 -178 242 0
-243 172 0
-243 175 0
-172 -175 243 0
-244 172 0
-244 176 0
-172 -176 244 0
-245 172 0
-245 177 0
-172 -177 245 0
-246 172 0
-246 178 0
-172 -178 246 0
-247 173 0
-247 175 0
-173 -175 247 0
-248 173 0
-248 176 0
-173 -176 248 0
-249 173 0
-249 177 0
-173 -177 249 0
-250 173 0
-250 178 0
-173 -178 250 0
-251 174 0
-251 175 0
-174 -175 251 0
-252 174 0
-252 176 0
-174 -176 252 0
-253 174 0
-253 177 0
-174 -177 253 0
-254 174 0
-254 178 0
-174 -178 254 0
-255 179 0
-255 183 0
-179 -183 255 0
-256 179 0
-256 184 0
-179 -184 256 0
-257 179 0
-257 185 0
-179 -185 257 0
-258 179 0
-258 186 0
-179 -186 258 0
-259 180 0
-259 183 0
-180 -183 259 0
-260 180 0
-260 184 0
-180 -184 260 0
-261 180 0
-261 185 0
-180 -185 261 0
-262 180 0
-262 186 0
-180 -186 262 0
-263 181 0
-263 183 0
-181 -183 263 0
-264 181 0
-264 184 0
-181 -184 264 0
-265 181 0
-265 185 0
-181 -185 265 0
-266 181 0
-266 186 0
-181 -186 266 0
-267 182 0
-267 183 0
-182 -183 267 0
-268 182 0
-268 184 0
-182 -184 268 0
-269 182 0
-269 185 0
-182 -185 269 0
-270 182 0
-270 186 0
-182 -186 270 0
-271 187 211 235 255 0
-187 271 0
-211 271 0
-235 271 0
-255 271 0
-272 188 212 236 256 0
-188 272 0
-212 272 0
-236 272 0
-256 272 0
-273 189 213 237 257 0
-189 273 0
-213 273 0
-237 273 0
-257 273 0
-274 190 214 238 258 0
-190 274 0
-214 274 0
-238 274 0
-258 274 0
-275 191 215 235 239 255 259 0
-191 275 0
-215 275 0
-235 275 0
-239 275 0
-255 275 0
-259 275 0
-276 192 216 236 240 256 260 0
-192 276 0
-216 276 0
-236 276 0
-240 276 0
-256 276 0
-260 276 0
-277 193 217 237 241 257 261 0
-193 277 0
-217 277 0
-237 277 0
-241 277 0
-257 277 0
-261 277 0
-278 194 218 238 242 258 262 0
-194 278 0
-218 278 0
-238 278 0
-242 278 0
-258 278 0
-262 278 0
-279 195 219 239 243 255 259 263 0
-195 279 0
-219 279 0
-239 279 0
-243 279 0
-255 279 0
-259 279 0
-263 279 0
-280 196 220 240 244 256 260 264 0
-196 280 0
-220 280 0
-240 280 0
-244 280 0
-256 280 0
-260 280 0
-264 280 0
-281 197 221 241 245 257 261 265 0
-197 281 0
-221 281 0
-241 281 0
-245 281 0
-257 281 0
-261 281 0
-265 281 0
-282 198 222 242 246 258 262 266 0
-198 282 0
-222 282 0
-242 282 0
-246 282 0
-258 282 0
-262 282 0
-266 282 0
-283 199 223 243 247 259 263 267 0
-199 283 0
-223 283 0
-243 283 0
-247 283 0
-259 283 0
-263 283 0
-267 283 0
-284 200 224 244 248 260 264 268 0
-200 284 0
-224 284 0
-244 284 0
-248 284 0
-260 284 0
-264 284 0
-268 284 0
-285 201 225 245 249 261 265 269 0
-201 285 0
-225 285 0
-245 285 0
-249 285 0
-261 285 0
-265 285 0
-269 285 0
-286 202 226 246 250 262 266 270 0
-202 286 0
-226 286 0
-246 286 0
-250 286 0
-262 286 0
-266 286 0
-270 286 0
-287 203 227 247 251 263 267 0
-203 287 0
-227 287 0
-247 287 0
-251 287 0
-263 287 0
-267 287 0
-288 204 228 248 252 264 268 0
-204 288 0
-228 288 0
-248 288 0
-252 288 0
-264 288 0
-268 288 0
-289 205 229 249 253 265 269 0
-205 289 0
-229 289 0
-249 289 0
-253 289 0
-265 289 0
-269 289 0
-290 206 230 250 254 266 270 0
-206 290 0
-230 290 0
-250 290 0
-254 290 0
-266 290 0
-270 290 0
-291 207 231 251 267 0
-207 291 0
-231 291 0
-251 291 0
-267 291 0
-292 208 232 252 268 0
-208 292 0
-232 292 0
-252 292 0
-268 292 0
-293 209 233 253 269 0
-209 293 0
-233 293 0
-253 293 0
-269 293 0
-294 210 234 254 270 0
-210 294 0
-234 294 0
-254 294 0
-270 294 0
-187 -211 0
-187 -235 0
-187 -255 0
-188 -212 0
-188 -236 0
-188 -256 0
-189 -213 0
-189 -237 0
-189 -257 0
-190 -214 0
-190 -238 0
-190 -258 0
-191 -215 0
-191 -235 0
-191 -239 0
-191 -255 0
-191 -259 0
-192 -216 0
-192 -236 0
-192 -240 0
-192 -256 0
-192 -260 0
-193 -217 0
-193 -237 0
-193 -241 0
-193 -257 0
-193 -261 0
-194 -218 0
-194 -238 0
-194 -242 0
-194 -258 0
-194 -262 0
-195 -219 0
-195 -239 0
-195 -243 0
-195 -255 0
-195 -259 0
-195 -263 0
-196 -220 0
-196 -240 0
-196 -244 0
-196 -256 0
-196 -260 0
-196 -264 0
-197 -221 0
-197 -241 0
-197 -245 0
-197 -257 0
-197 -261 0
-197 -265 0
-198 -222 0
-198 -242 0
-198 -246 0
-198 -258 0
-198 -262 0
-198 -266 0
-199 -223 0
-199 -243 0
-199 -247 0
-199 -259 0
-199 -263 0
-199 -267 0
-200 -224 0
-200 -244 0
-200 -248 0
-200 -260 0
-200 -264 0
-200 -268 0
-201 -225 0
-201 -245 0
-201 -249 0
-201 -261 0
-201 -265 0
-201 -269 0
-202 -226 0
-202 -246 0
-202 -250 0
-202 -262 0
-202 -266 0
-202 -270 0
-203 -227 0
-203 -247 0
-203 -251 0
-203 -263 0
-203 -267 0
-204 -228 0
-204 -248 0
-204 -252 0
-204 -264 0
-204 -268 0
-205 -229 0
-205 -249 0
-205 -253 0
-205 -265 0
-205 -269 0
-206 -230 0
-206 -250 0
-206 -254 0
-206 -266 0
-206 -270 0
-207 -231 0
-207 -251 0
-207 -267 0
-208 -232 0
-208 -252 0
-208 -268 0
-209 -233 0
-209 -253 0
-209 -269 0
-210 -234 0
-210 -254 0
-210 -270 0
-211 -235 0
-211 -255 0
-212 -236 0
-212 -256 0
-213 -237 0
-213 -257 0
-214 -238 0
-214 -258 0
-215 -235 0
-215 -239 0
-215 -255 0
-215 -259 0
-216 -236 0
-216 -240 0
-216 -256 0
-216 -260 0
-217 -237 0
-217 -241 0
-217 -257 0
-217 -261 0
-218 -238 0
-218 -242 0
-218 -258 0
-218 -262 0
-219 -239 0
-219 -243 0
-219 -255 0
-219 -259 0
-219 -263 0
-220 -240 0
-220 -244 0
-220 -256 0
-220 -260 0
-220 -264 0
-221 -241 0
-221 -245 0
-221 -257 0
-221 -261 0
-221 -265 0
-222 -242 0
-222 -246 0
-222 -258 0
-222 -262 0
-222 -266 0
-223 -243 0
-223 -247 0
-223 -259 0
-223 -263 0
-223 -267 0
-224 -244 0
-224 -248 0
-224 -260 0
-224 -264 0
-224 -268 0
-225 -245 0
-225 -249 0
-225 -261 0
-225 -265 0
-225 -269 0
-226 -246 0
-226 -250 0
-226 -262 0
-226 -266 0
-226 -270 0
-227 -247 0
-227 -251 0
-227 -263 0
-227 -267 0
-228 -248 0
-228 -252 0
-228 -264 0
-228 -268 0
-229 -249 0
-229 -253 0
-229 -265 0
-229 -269 0
-230 -250 0
-230 -254 0
-230 -266 0
-230 -270 0
-231 -251 0
-231 -267 0
-232 -252 0
-232 -268 0
-233 -253 0
-233 -269 0
-234 -254 0
-234 -270 0
-235 -255 0
-235 -259 0
-236 -256 0
-236 -260 0
-237 -257 0
-237 -261 0
-238 -258 0
-238 -262 0
-239 -255 0
-239 -259 0
-239 -263 0
-240 -256 0
-240 -260 0
-240 -264 0
-241 -257 0
-241 -261 0
-241 -265 0
-242 -258 0
-242 -262 0
-242 -266 0
-243 -255 0
-243 -259 0
-243 -263 0
-243 -267 0
-244 -256 0
-244 -260 0
-244 -264 0
-244 -268 0
-245 -257 0
-245 -261 0
-245 -265 0
-245 -269 0
-246 -258 0
-246 -262 0
-246 -266 0
-246 -270 0
-247 -259 0
-247 -263 0
-247 -267 0
-248 -260 0
-248 -264 0
-248 -268 0
-249 -261 0
-249 -265 0
-249 -269 0
-250 -262 0
-250 -266 0
-250 -270 0
-251 -263 0
-251 -267 0
-252 -264 0
-252 -268 0
-253 -265 0
-253 -269 0
-254 -266 0
-254 -270 0
-187 295 212 213 214 236 237 238 256 257 258 0
-187 -295 -212 0
-187 -295 -213 0
-187 -295 -214 0
-187 -295 -236 0
-187 -295 -237 0
-187 -295 -238 0
-187 -295 -256 0
-187 -295 -257 0
-187 -295 -258 0
-188 271 0
-188 295 213 214 237 238 257 258 0
-188 -295 -213 0
-188 -295 -214 0
-188 -295 -237 0
-188 -295 -238 0
-188 -295 -257 0
-188 -295 -258 0
-189 272 0
-189 295 214 238 258 0
-189 -295 -214 0
-189 -295 -238 0
-189 -295 -258 0
-190 273 0
-190 295 0
-191 295 216 217 218 236 237 238 240 241 242 256 257 258 260 261 262 0
-191 -295 -216 0
-191 -295 -217 0
-191 -295 -218 0
-191 -295 -236 0
-191 -295 -237 0
-191 -295 -238 0
-191 -295 -240 0
-191 -295 -241 0
-191 -295 -242 0
-191 -295 -256 0
-191 -295 -257 0
-191 -295 -258 0
-191 -295 -260 0
-191 -295 -261 0
-191 -295 -262 0
-192 275 0
-192 295 217 218 237 238 241 242 257 258 261 262 0
-192 -295 -217 0
-192 -295 -218 0
-192 -295 -237 0
-192 -295 -238 0
-192 -295 -241 0
-192 -295 -242 0
-192 -295 -257 0
-192 -295 -258 0
-192 -295 -261 0
-192 -295 -262 0
-193 276 0
-193 295 218 238 242 258 262 0
-193 -295 -218 0
-193 -295 -238 0
-193 -295 -242 0
-193 -295 -258 0
-193 -295 -262 0
-194 277 0
-194 295 0
-195 295 220 221 222 240 241 242 244 245 246 256 257 258 260 261 262 264 265 266 0
-195 -295 -220 0
-195 -295 -221 0
-195 -295 -222 0
-195 -295 -240 0
-195 -295 -241 0
-195 -295 -242 0
-195 -295 -244 0
-195 -295 -245 0
-195 -295 -246 0
-195 -295 -256 0
-195 -295 -257 0
-195 -295 -258 0
-195 -295 -260 0
-195 -295 -261 0
-195 -295 -262 0
-195 -295 -264 0
-195 -295 -265 0
-195 -295 -266 0
-196 279 0
-196 295 221 222 241 242 245 246 257 258 261 262 265 266 0
-196 -295 -221 0
-196 -295 -222 0
-196 -295 -241 0
-196 -295 -242 0
-196 -295 -245 0
-196 -295 -246 0
-196 -295 -257 0
-196 -295 -258 0
-196 -295 -261 0
-196 -295 -262 0
-196 -295 -265 0
-196 -295 -266 0
-197 280 0
-197 295 222 242 246 258 262 266 0
-197 -295 -222 0
-197 -295 -242 0
-197 -295 -246 0
-197 -295 -258 0
-197 -295 -262 0
-197 -295 -266 0
-198 281 0
-198 295 0
-199 295 224 225 226 244 245 246 248 249 250 260 261 262 264 265 266 268 269 270 0
-199 -295 -224 0
-199 -295 -225 0
-199 -295 -226 0
-199 -295 -244 0
-199 -295 -245 0
-199 -295 -246 0
-199 -295 -248 0
-199 -295 -249 0
-199 -295 -250 0
-199 -295 -260 0
-199 -295 -261 0
-199 -295 -262 0
-199 -295 -264 0
-199 -295 -265 0
-199 -295 -266 0
-199 -295 -268 0
-199 -295 -269 0
-199 -295 -270 0
-200 283 0
-200 295 225 226 245 246 249 250 261 262 265 266 269 270 0
-200 -295 -225 0
-200 -295 -226 0
-200 -295 -245 0
-200 -295 -246 0
-200 -295 -249 0
-200 -295 -250 0
-200 -295 -261 0
-200 -295 -262 0
-200 -295 -265 0
-200 -295 -266 0
-200 -295 -269 0
-200 -295 -270 0
-201 284 0
-201 295 226 246 250 262 266 270 0
-201 -295 -226 0
-201 -295 -246 0
-201 -295 -250 0
-201 -295 -262 0
-201 -295 -266 0
-201 -295 -270 0
-202 285 0
-202 295 0
-203 295 228 229 230 248 249 250 252 253 254 264 265 266 268 269 270 0
-203 -295 -228 0
-203 -295 -229 0
-203 -295 -230 0
-203 -295 -248 0
-203 -295 -249 0
-203 -295 -250 0
-203 -295 -252 0
-203 -295 -253 0
-203 -295 -254 0
-203 -295 -264 0
-203 -295 -265 0
-203 -295 -266 0
-203 -295 -268 0
-203 -295 -269 0
-203 -295 -270 0
-204 287 0
-204 295 229 230 249 250 253 254 265 266 269 270 0
-204 -295 -229 0
-204 -295 -230 0
-204 -295 -249 0
-204 -295 -250 0
-204 -295 -253 0
-204 -295 -254 0
-204 -295 -265 0
-204 -295 -266 0
-204 -295 -269 0
-204 -295 -270 0
-205 288 0
-205 295 230 250 254 266 270 0
-205 -295 -230 0
-205 -295 -250 0
-205 -295 -254 0
-205 -295 -266 0
-205 -295 -270 0
-206 289 0
-206 295 0
-207 295 232 233 234 252 253 254 268 269 270 0
-207 -295 -232 0
-207 -295 -233 0
-207 -295 -234 0
-207 -295 -252 0
-207 -295 -253 0
-207 -295 -254 0
-207 -295 -268 0
-207 -295 -269 0
-207 -295 -270 0
-208 291 0
-208 295 233 234 253 254 269 270 0
-208 -295 -233 0
-208 -295 -234 0
-208 -295 -253 0
-208 -295 -254 0
-208 -295 -269 0
-208 -295 -270 0
-209 292 0
-209 295 234 254 270 0
-209 -295 -234 0
-209 -295 -254 0
-209 -295 -270 0
-210 293 0
-210 295 0
-211 296 188 189 190 236 237 238 256 257 258 0
-211 -296 -188 0
-211 -296 -189 0
-211 -296 -190 0
-211 -296 -236 0
-211 -296 -237 0
-211 -296 -238 0
-211 -296 -256 0
-211 -296 -257 0
-211 -296 -258 0
-212 271 0
-212 296 189 190 237 238 257 258 0
-212 -296 -189 0
-212 -296 -190 0
-212 -296 -237 0
-212 -296 -238 0
-212 -296 -257 0
-212 -296 -258 0
-213 272 0
-213 296 190 238 258 0
-213 -296 -190 0
-213 -296 -238 0
-213 -296 -258 0
-214 273 0
-214 296 0
-215 296 192 193 194 236 237 238 240 241 242 256 257 258 260 261 262 0
-215 -296 -192 0
-215 -296 -193 0
-215 -296 -194 0
-215 -296 -236 0
-215 -296 -237 0
-215 -296 -238 0
-215 -296 -240 0
-215 -296 -241 0
-215 -296 -242 0
-215 -296 -256 0
-215 -296 -257 0
-215 -296 -258 0
-215 -296 -260 0
-215 -296 -261 0
-215 -296 -262 0
-216 275 0
-216 296 193 194 237 238 241 242 257 258 261 262 0
-216 -296 -193 0
-216 -296 -194 0
-216 -296 -237 0
-216 -296 -238 0
-216 -296 -241 0
-216 -296 -242 0
-216 -296 -257 0
-216 -296 -258 0
-216 -296 -261 0
-216 -296 -262 0
-217 276 0
-217 296 194 238 242 258 262 0
-217 -296 -194 0
-217 -296 -238 0
-217 -296 -242 0
-217 -296 -258 0
-217 -296 -262 0
-218 277 0
-218 296 0
-219 296 196 197 198 240 241 242 244 245 246 256 257 258 260 261 262 264 265 266 0
-219 -296 -196 0
-219 -296 -197 0
-219 -296 -198 0
-219 -296 -240 0
-219 -296 -241 0
-219 -296 -242 0
-219 -296 -244 0
-219 -296 -245 0
-219 -296 -246 0
-219 -296 -256 0
-219 -296 -257 0
-219 -296 -258 0
-219 -296 -260 0
-219 -296 -261 0
-219 -296 -262 0
-219 -296 -264 0
-219 -296 -265 0
-219 -296 -266 0
-220 279 0
-220 296 197 198 241 242 245 246 257 258 261 262 265 266 0
-220 -296 -197 0
-220 -296 -198 0
-220 -296 -241 0
-220 -296 -242 0
-220 -296 -245 0
-220 -296 -246 0
-220 -296 -257 0
-220 -296 -258 0
-220 -296 -261 0
-220 -296 -262 0
-220 -296 -265 0
-220 -296 -266 0
-221 280 0
-221 296 198 242 246 258 262 266 0
-221 -296 -198 0
-221 -296 -242 0
-221 -296 -246 0
-221 -296 -258 0
-221 -296 -262 0
-221 -296 -266 0
-222 281 0
-222 296 0
-223 296 200 201 202 244 245 246 248 249 250 260 261 262 264 265 266 268 269 270 0
-223 -296 -200 0
-223 -296 -201 0
-223 -296 -202 0
-223 -296 -244 0
-223 -296 -245 0
-223 -296 -246 0
-223 -296 -248 0
-223 -296 -249 0
-223 -296 -250 0
-223 -296 -260 0
-223 -296 -261 0
-223 -296 -262 0
-223 -296 -264 0
-223 -296 -265 0
-223 -296 -266 0
-223 -296 -268 0
-223 -296 -269 0
-223 -296 -270 0
-224 283 0
-224 296 201 202 245 246 249 250 261 262 265 266 269 270 0
-224 -296 -201 0
-224 -296 -202 0
-224 -296 -245 0
-224 -296 -246 0
-224 -296 -249 0
-224 -296 -250 0
-224 -296 -261 0
-224 -296 -262 0
-224 -296 -265 0
-224 -296 -266 0
-224 -296 -269 0
-224 -296 -270 0
-225 284 0
-225 296 202 246 250 262 266 270 0
-225 -296 -202 0
-225 -296 -246 0
-225 -296 -250 0
-225 -296 -262 0
-225 -296 -266 0
-225 -296 -270 0
-226 285 0
-226 296 0
-227 296 204 205 206 248 249 250 252 253 254 264 265 266 268 269 270 0
-227 -296 -204 0
-227 -296 -205 0
-227 -296 -206 0
-227 -296 -248 0
-227 -296 -249 0
-227 -296 -250 0
-227 -296 -252 0
-227 -296 -253 0
-227 -296 -254 0
-227 -296 -264 0
-227 -296 -265 0
-227 -296 -266 0
-227 -296 -268 0
-227 -296 -269 0
-227 -296 -270 0
-228 287 0
-228 296 205 206 249 250 253 254 265 266 269 270 0
-228 -296 -205 0
-228 -296 -206 0
-228 -296 -249 0
-228 -296 -250 0
-228 -296 -253 0
-228 -296 -254 0
-228 -296 -265 0
-228 -296 -266 0
-228 -296 -269 0
-228 -296 -270 0
-229 288 0
-229 296 206 250 254 266 270 0
-229 -296 -206 0
-229 -296 -250 0
-229 -296 -254 0
-229 -296 -266 0
-229 -296 -270 0
-230 289 0
-230 296 0
-231 296 208 209 210 252 253 254 268 269 270 0
-231 -296 -208 0
-231 -296 -209 0
-231 -296 -210 0
-231 -296 -252 0
-231 -296 -253 0
-231 -296 -254 0
-231 -296 -268 0
-231 -296 -269 0
-231 -296 -270 0
-232 291 0
-232 296 209 210 253 254 269 270 0
-232 -296 -209 0
-232 -296 -210 0
-232 -296 -253 0
-232 -296 -254 0
-232 -296 -269 0
-232 -296 -270 0
-233 292 0
-233 296 210 254 270 0
-233 -296 -210 0
-233 -296 -254 0
-233 -296 -270 0
-234 293 0
-234 296 0
-235 297 188 189 190 192 193 194 212 213 214 216 217 218 256 257 258 260 261 262 0
-235 -297 -188 0
-235 -297 -189 0
-235 -297 -190 0
-235 -297 -192 0
-235 -297 -193 0
-235 -297 -194 0
-235 -297 -212 0
-235 -297 -213 0
-235 -297 -214 0
-235 -297 -216 0
-235 -297 -217 0
-235 -297 -218 0
-235 -297 -256 0
-235 -297 -257 0
-235 -297 -258 0
-235 -297 -260 0
-235 -297 -261 0
-235 -297 -262 0
-236 271 275 0
-236 297 189 190 193 194 213 214 217 218 257 258 261 262 0
-236 -297 -189 0
-236 -297 -190 0
-236 -297 -193 0
-236 -297 -194 0
-236 -297 -213 0
-236 -297 -214 0
-236 -297 -217 0
-236 -297 -218 0
-236 -297 -257 0
-236 -297 -258 0
-236 -297 -261 0
-236 -297 -262 0
-237 272 276 0
-237 297 190 194 214 218 258 262 0
-237 -297 -190 0
-237 -297 -194 0
-237 -297 -214 0
-237 -297 -218 0
-237 -297 -258 0
-237 -297 -262 0
-238 273 277 0
-238 297 0
-239 297 192 193 194 196 197 198 216 217 218 220 221 222 256 257 258 260 261 262 264 265 266 0
-239 -297 -192 0
-239 -297 -193 0
-239 -297 -194 0
-239 -297 -196 0
-239 -297 -197 0
-239 -297 -198 0
-239 -297 -216 0
-239 -297 -217 0
-239 -297 -218 0
-239 -297 -220 0
-239 -297 -221 0
-239 -297 -222 0
-239 -297 -256 0
-239 -297 -257 0
-239 -297 -258 0
-239 -297 -260 0
-239 -297 -261 0
-239 -297 -262 0
-239 -297 -264 0
-239 -297 -265 0
-239 -297 -266 0
-240 275 279 0
-240 297 193 194 197 198 217 218 221 222 257 258 261 262 265 266 0
-240 -297 -193 0
-240 -297 -194 0
-240 -297 -197 0
-240 -297 -198 0
-240 -297 -217 0
-240 -297 -218 0
-240 -297 -221 0
-240 -297 -222 0
-240 -297 -257 0
-240 -297 -258 0
-240 -297 -261 0
-240 -297 -262 0
-240 -297 -265 0
-240 -297 -266 0
-241 276 280 0
-241 297 194 198 218 222 258 262 266 0
-241 -297 -194 0
-241 -297 -198 0
-241 -297 -218 0
-241 -297 -222 0
-241 -297 -258 0
-241 -297 -262 0
-241 -297 -266 0
-242 277 281 0
-242 297 0
-243 297 196 197 198 200 201 202 220 221 222 224 225 226 256 257 258 260 261 262 264 265 266 268 269 270 0
-243 -297 -196 0
-243 -297 -197 0
-243 -297 -198 0
-243 -297 -200 0
-243 -297 -201 0
-243 -297 -202 0
-243 -297 -220 0
-243 -297 -221 0
-243 -297 -222 0
-243 -297 -224 0
-243 -297 -225 0
-243 -297 -226 0
-243 -297 -256 0
-243 -297 -257 0
-243 -297 -258 0
-243 -297 -260 0
-243 -297 -261 0
-243 -297 -262 0
-243 -297 -264 0
-243 -297 -265 0
-243 -297 -266 0
-243 -297 -268 0
-243 -297 -269 0
-243 -297 -270 0
-244 279 283 0
-244 297 197 198 201 202 221 222 225 226 257 258 261 262 265 266 269 270 0
-244 -297 -197 0
-244 -297 -198 0
-244 -297 -201 0
-244 -297 -202 0
-244 -297 -221 0
-244 -297 -222 0
-244 -297 -225 0
-244 -297 -226 0
-244 -297 -257 0
-244 -297 -258 0
-244 -297 -261 0
-244 -297 -262 0
-244 -297 -265 0
-244 -297 -266 0
-244 -297 -269 0
-244 -297 -270 0
-245 280 284 0
-245 297 198 202 222 226 258 262 266 270 0
-245 -297 -198 0
-245 -297 -202 0
-245 -297 -222 0
-245 -297 -226 0
-245 -297 -258 0
-245 -297 -262 0
-245 -297 -266 0
-245 -297 -270 0
-246 281 285 0
-246 297 0
-247 297 200 201 202 204 205 206 224 225 226 228 229 230 260 261 262 264 265 266 268 269 270 0
-247 -297 -200 0
-247 -297 -201 0
-247 -297 -202 0
-247 -297 -204 0
-247 -297 -205 0
-247 -297 -206 0
-247 -297 -224 0
-247 -297 -225 0
-247 -297 -226 0
-247 -297 -228 0
-247 -297 -229 0
-247 -297 -230 0
-247 -297 -260 0
-247 -297 -261 0
-247 -297 -262 0
-247 -297 -264 0
-247 -297 -265 0
-247 -297 -266 0
-247 -297 -268 0
-247 -297 -269 0
-247 -297 -270 0
-248 283 287 0
-248 297 201 202 205 206 225 226 229 230 261 262 265 266 269 270 0
-248 -297 -201 0
-248 -297 -202 0
-248 -297 -205 0
-248 -297 -206 0
-248 -297 -225 0
-248 -297 -226 0
-248 -297 -229 0
-248 -297 -230 0
-248 -297 -261 0
-248 -297 -262 0
-248 -297 -265 0
-248 -297 -266 0
-248 -297 -269 0
-248 -297 -270 0
-249 284 288 0
-249 297 202 206 226 230 262 266 270 0
-249 -297 -202 0
-249 -297 -206 0
-249 -297 -226 0
-249 -297 -230 0
-249 -297 -262 0
-249 -297 -266 0
-249 -297 -270 0
-250 285 289 0
-250 297 0
-251 297 204 205 206 208 209 210 228 229 230 232 233 234 264 265 266 268 269 270 0
-251 -297 -204 0
-251 -297 -205 0
-251 -297 -206 0
-251 -297 -208 0
-251 -297 -209 0
-251 -297 -210 0
-251 -297 -228 0
-251 -297 -229 0
-251 -297 -230 0
-251 -297 -232 0
-251 -297 -233 0
-251 -297 -234 0
-251 -297 -264 0
-251 -297 -265 0
-251 -297 -266 0
-251 -297 -268 0
-251 -297 -269 0
-251 -297 -270 0
-252 287 291 0
-252 297 205 206 209 210 229 230 233 234 265 266 269 270 0
-252 -297 -205 0
-252 -297 -206 0
-252 -297 -209 0
-252 -297 -210 0
-252 -297 -229 0
-252 -297 -230 0
-252 -297 -233 0
-252 -297 -234 0
-252 -297 -265 0
-252 -297 -266 0
-252 -297 -269 0
-252 -297 -270 0
-253 288 292 0
-253 297 206 210 230 234 266 270 0
-253 -297 -206 0
-253 -297 -210 0
-253 -297 -230 0
-253 -297 -234 0
-253 -297 -266 0
-253 -297 -270 0
-254 289 293 0
-254 297 0
-255 298 188 189 190 192 193 194 196 197 198 212 213 214 216 217 218 220 221 222 236 237 238 240 241 242 244 245 246 0
-255 -298 -188 0
-255 -298 -189 0
-255 -298 -190 0
-255 -298 -192 0
-255 -298 -193 0
-255 -298 -194 0
-255 -298 -196 0
-255 -298 -197 0
-255 -298 -198 0
-255 -298 -212 0
-255 -298 -213 0
-255 -298 -214 0
-255 -298 -216 0
-255 -298 -217 0
-255 -298 -218 0
-255 -298 -220 0
-255 -298 -221 0
-255 -298 -222 0
-255 -298 -236 0
-255 -298 -237 0
-255 -298 -238 0
-255 -298 -240 0
-255 -298 -241 0
-255 -298 -242 0
-255 -298 -244 0
-255 -298 -245 0
-255 -298 -246 0
-256 271 275 0
-256 271 279 0
-256 275 279 0
-256 298 189 190 193 194 197 198 213 214 217 218 221 222 237 238 241 242 245 246 0
-256 -298 -189 0
-256 -298 -190 0
-256 -298 -193 0
-256 -298 -194 0
-256 -298 -197 0
-256 -298 -198 0
-256 -298 -213 0
-256 -298 -214 0
-256 -298 -217 0
-256 -298 -218 0
-256 -298 -221 0
-256 -298 -222 0
-256 -298 -237 0
-256 -298 -238 0
-256 -298 -241 0
-256 -298 -242 0
-256 -298 -245 0
-256 -298 -246 0
-257 272 276 0
-257 272 280 0
-257 276 280 0
-257 298 190 194 198 214 218 222 238 242 246 0
-257 -298 -190 0
-257 -298 -194 0
-257 -298 -198 0
-257 -298 -214 0
-257 -298 -218 0
-257 -298 -222 0
-257 -298 -238 0
-257 -298 -242 0
-257 -298 -246 0
-258 273 277 0
-258 273 281 0
-258 277 281 0
-258 298 0
-259 298 192 193 194 196 197 198 200 201 202 216 217 218 220 221 222 224 225 226 236 237 238 240 241 242 244 245 246 248 249 250 0
-259 -298 -192 0
-259 -298 -193 0
-259 -298 -194 0
-259 -298 -196 0
-259 -298 -197 0
-259 -298 -198 0
-259 -298 -200 0
-259 -298 -201 0
-259 -298 -202 0
-259 -298 -216 0
-259 -298 -217 0
-259 -298 -218 0
-259 -298 -220 0
-259 -298 -221 0
-259 -298 -222 0
-259 -298 -224 0
-259 -298 -225 0
-259 -298 -226 0
-259 -298 -236 0
-259 -298 -237 0
-259 -298 -238 0
-259 -298 -240 0
-259 -298 -241 0
-259 -298 -242 0
-259 -298 -244 0
-259 -298 -245 0
-259 -298 -246 0
-259 -298 -248 0
-259 -298 -249 0
-259 -298 -250 0
-260 275 279 0
-260 275 283 0
-260 279 283 0
-260 298 193 194 197 198 201 202 217 218 221 222 225 226 237 238 241 242 245 246 249 250 0
-260 -298 -193 0
-260 -298 -194 0
-260 -298 -197 0
-260 -298 -198 0
-260 -298 -201 0
-260 -298 -202 0
-260 -298 -217 0
-260 -298 -218 0
-260 -298 -221 0
-260 -298 -222 0
-260 -298 -225 0
-260 -298 -226 0
-260 -298 -237 0
-260 -298 -238 0
-260 -298 -241 0
-260 -298 -242 0
-260 -298 -245 0
-260 -298 -246 0
-260 -298 -249 0
-260 -298 -250 0
-261 276 280 0
-261 276 284 0
-261 280 284 0
-261 298 194 198 202 218 222 226 238 242 246 250 0
-261 -298 -194 0
-261 -298 -198 0
-261 -298 -202 0
-261 -298 -218 0
-261 -298 -222 0
-261 -298 -226 0
-261 -298 -238 0
-261 -298 -242 0
-261 -298 -246 0
-261 -298 -250 0
-262 277 281 0
-262 277 285 0
-262 281 285 0
-262 298 0
-263 298 196 197 198 200 201 202 204 205 206 220 221 222 224 225 226 228 229 230 240 241 242 244 245 246 248 249 250 252 253 254 0
-263 -298 -196 0
-263 -298 -197 0
-263 -298 -198 0
-263 -298 -200 0
-263 -298 -201 0
-263 -298 -202 0
-263 -298 -204 0
-263 -298 -205 0
-263 -298 -206 0
-263 -298 -220 0
-263 -298 -221 0
-263 -298 -222 0
-263 -298 -224 0
-263 -298 -225 0
-263 -298 -226 0
-263 -298 -228 0
-263 -298 -229 0
-263 -298 -230 0
-263 -298 -240 0
-263 -298 -241 0
-263 -298 -242 0
-263 -298 -244 0
-263 -298 -245 0
-263 -298 -246 0
-263 -298 -248 0
-263 -298 -249 0
-263 -298 -250 0
-263 -298 -252 0
-263 -298 -253 0
-263 -298 -254 0
-264 279 283 0
-264 279 287 0
-264 283 287 0
-264 298 197 198 201 202 205 206 221 222 225 226 229 230 241 242 245 246 249 250 253 254 0
-264 -298 -197 0
-264 -298 -198 0
-264 -298 -201 0
-264 -298 -202 0
-264 -298 -205 0
-264 -298 -206 0
-264 -298 -221 0
-264 -298 -222 0
-264 -298 -225 0
-264 -298 -226 0
-264 -298 -229 0
-264 -298 -230 0
-264 -298 -241 0
-264 -298 -242 0
-264 -298 -245 0
-264 -298 -246 0
-264 -298 -249 0
-264 -298 -250 0
-264 -298 -253 0
-264 -298 -254 0
-265 280 284 0
-265 280 288 0
-265 284 288 0
-265 298 198 202 206 222 226 230 242 246 250 254 0
-265 -298 -198 0
-265 -298 -202 0
-265 -298 -206 0
-265 -298 -222 0
-265 -298 -226 0
-265 -298 -230 0
-265 -298 -242 0
-265 -298 -246 0
-265 -298 -250 0
-265 -298 -254 0
-266 281 285 0
-266 281 289 0
-266 285 289 0
-266 298 0
-267 298 200 201 202 204 205 206 208 209 210 224 225 226 228 229 230 232 233 234 244 245 246 248 249 250 252 253 254 0
-267 -298 -200 0
-267 -298 -201 0
-267 -298 -202 0
-267 -298 -204 0
-267 -298 -205 0
-267 -298 -206 0
-267 -298 -208 0
-267 -298 -209 0
-267 -298 -210 0
-267 -298 -224 0
-267 -298 -225 0
-267 -298 -226 0
-267 -298 -228 0
-267 -298 -229 0
-267 -298 -230 0
-267 -298 -232 0
-267 -298 -233 0
-267 -298 -234 0
-267 -298 -244 0
-267 -298 -245 0
-267 -298 -246 0
-267 -298 -248 0
-267 -298 -249 0
-267 -298 -250 0
-267 -298 -252 0
-267 -298 -253 0
-267 -298 -254 0
-268 283 287 0
-268 283 291 0
-268 287 291 0
-268 298 201 202 205 206 209 210 225 226 229 230 233 234 245 246 249 250 253 254 0
-268 -298 -201 0
-268 -298 -202 0
-268 -298 -205 0
-268 -298 -206 0
-268 -298 -209 0
-268 -298 -210 0
-268 -298 -225 0
-268 -298 -226 0
-268 -298 -229 0
-268 -298 -230 0
-268 -298 -233 0
-268 -298 -234 0
-268 -298 -245 0
-268 -298 -246 0
-268 -298 -249 0
-268 -298 -250 0
-268 -298 -253 0
-268 -298 -254 0
-269 284 288 0
-269 284 292 0
-269 288 292 0
-269 298 202 206 210 226 230 234 246 250 254 0
-269 -298 -202 0
-269 -298 -206 0
-269 -298 -210 0
-269 -298 -226 0
-269 -298 -230 0
-269 -298 -234 0
-269 -298 -246 0
-269 -298 -250 0
-269 -298 -254 0
-270 285 289 0
-270 285 293 0
-270 289 293 0
-270 298 0
299 300 301 302 303 304 0
-299 -300 0
-299 -301 0
-299 -302 0
-299 -303 0
-299 -304 0
-300 -301 0
-300 -302 0
-300 -303 0
-300 -304 0
-301 -302 0
-301 -303 0
-301 -304 0
-302 -303 0
-302 -304 0
-303 -304 0
305 306 307 308 0
-305 -306 0
-305 -307 0
-305 -308 0
-306 -307 0
-306 -308 0
-307 -308 0
309 310 311 312 313 314 0
-309 -310 0
-309 -311 0
-309 -312 0
-309 -313 0
-309 -314 0
-310 -311 0
-310 -312 0
-310 -313 0
-310 -314 0
-311 -312 0
-311 -313 0
-311 -314 0
-312 -313 0
-312 -314 0
-313 -314 0
315 316 317 318 0
-315 -316 0
-315 -317 0
-315 -318 0
-316 -317 0
-316 -318 0
-317 -318 0
319 320 321 322 323 0
-319 -320 0
-319 -321 0
-319 -322 0
-319 -323 0
-320 -321 0
-320 -322 0
-320 -323 0
-321 -322 0
-321 -323 0
-322 -323 0
324 325 326 327 0
-324 -325 0
-324 -326 0
-324 -327 0
-325 -326 0
-325 -327 0
-326 -327 0
328 329 330 331 0
-328 -329 0
-328 -330 0
-328 -331 0
-329 -330 0
-329 -331 0
-330 -331 0
332 333 334 335 0
-332 -333 0
-332 -334 0
-332 -335 0
-333 -334 0
-333 -335 0
-334 -335 0
-336 299 0
-336 305 0
-299 -305 336 0
-337 299 0
-337 306 0
-299 -306 337 0
-338 299 0
-338 307 0
-299 -307 338 0
-339 299 0
-339 308 0
-299 -308 339 0
-340 300 0
-340 305 0
-300 -305 340 0
-341 300 0
-341 306 0
-300 -306 341 0
-342 300 0
-342 307 0
-300 -307 342 0
-343 300 0
-343 308 0
-300 -308 343 0
-344 301 0
-344 305 0
-301 -305 344 0
-345 301 0
-345 306 0
-301 -306 345 0
-346 301 0
-346 307 0
-301 -307 346 0
-347 301 0
-347 308 0
-301 -308 347 0
-348 302 0
-348 305 0
-302 -305 348 0
-349 302 0
-349 306 0
-302 -306 349 0
-350 302 0
-350 307 0
-302 -307 350 0
-351 302 0
-351 308 0
-302 -308 351 0
-352 303 0
-352 305 0
-303 -305 352 0
-353 303 0
-353 306 0
-303 -306 353 0
-354 303 0
-354 307 0
-303 -307 354 0
-355 303 0
-355 308 0
-303 -308 355 0
-356 304 0
-356 305 0
-304 -305 356 0
-357 304 0
-357 306 0
-304 -306 357 0
-358 304 0
-358 307 0
-304 -307 358 0
-359 304 0
-359 308 0
-304 -308 359 0
-360 309 0
-360 315 0
-309 -315 360 0
-361 309 0
-361 316 0
-309 -316 361 0
-362 309 0
-362 317 0
-309 -317 362 0
-363 309 0
-363 318 0
-309 -318 363 0
-364 310 0
-364 315 0
-310 -315 364 0
-365 310 0
-365 316 0
-310 -316 365 0
-366 310 0
-366 317 0
-310 -317 366 0
-367 310 0
-367 318 0
-310 -318 367 0
-368 311 0
-368 315 0
-311 -315 368 0
-369 311 0
-369 316 0
-311 -316 369 0
-370 311 0
-370 317 0
-311 -317 370 0
-371 311 0
-371 318 0
-311 -318 371 0
-372 312 0
-372 315 0
-312 -315 372 0
-373 312 0
-373 316 0
-312 -316 373 0
-374 312 0
-374 317 0
-312 -317 374 0
-375 312 0
-375 318 0
-312 -318 375 0
-376 313 0
-376 315 0
-313 -315 376 0
-377 313 0
-377 316 0
-313 -316 377 0
-378 313 0
-378 317 0
-313 -317 378 0
-379 313 0
-379 318 0
-313 -318 379 0
-380 314 0
-380 315 0
-314 -315 380 0
-381 314 0
-381 316 0
-314 -316 381 0
-382 314 0
-382 317 0
-314 -317 382 0
-383 314 0
-383 318 0
-314 -318 383 0
-384 319 0
-384 324 0
-319 -324 384 0
-385 319 0
-385 325 0
-319 -325 385 0
-386 319 0
-386 326 0
-319 -326 386 0
-387 319 0
-387 327 0
-319 -327 387 0
-388 320 0
-388 324 0
-320 -324 388 0
-389 320 0
-389 325 0
-320 -325 389 0
-390 320 0
-390 326 0
-320 -326 390 0
-391 320 0
-391 327 0
-320 -327 391 0
-392 321 0
-392 324 0
-321 -324 392 0
-393 321 0
-393 325 0
-321 -325 393 0
-394 321 0
-394 326 0
-321 -326 394 0
-395 321 0
-395 327 0
-321 -327 395 0
-396 322 0
-396 324 0
-322 -324 396 0
-397 322 0
-397 325 0
-322 -325 397 0
-398 322 0
-398 326 0
-322 -326 398 0
-399 322 0
-399 327 0
-322 -327 399 0
-400 323 0
-400 324 0
-323 -324 400 0
-401 323 0
-401 325 0
-323 -325 401 0
-402 323 0
-402 326 0
-323 -326 402 0
-403 323 0
-403 327 0
-323 -327 403 0
-404 328 0
-404 332 0
-328 -332 404 0
-405 328 0
-405 333 0
-328 -333 405 0
-406 328 0
-406 334 0
-328 -334 406 0
-407 328 0
-407 335 0
-328 -335 407 0
-408 329 0
-408 332 0
-329 -332 408 0
-409 329 0
-409 333 0
-329 -333 409 0
-410 329 0
-410 334 0
-329 -334 410 0
-411 329 0
-411 335 0
-329 -335 411 0
-412 330 0
-412 332 0
-330 -332 412 0
-413 330 0
-413 333 0
-330 -333 413 0
-414 330 0
-414 334 0
-330 -334 414 0
-415 330 0
-415 335 0
-330 -335 415 0
-416 331 0
-416 332 0
-331 -332 416 0
-417 331 0
-417 333 0
-331 -333 417 0
-418 331 0
-418 334 0
-331 -334 418 0
-419 331 0
-419 335 0
-331 -335 419 0
-420 336 360 384 404 0
-336 420 0
-360 420 0
-384 420 0
-404 420 0
-421 337 361 385 405 0
-337 421 0
-361 421 0
-385 421 0
-405 421 0
-422 338 362 386 406 0
-338 422 0
-362 422 0
-386 422 0
-406 422 0
-423 339 363 387 407 0
-339 423 0
-363 423 0
-387 423 0
-407 423 0
-424 340 364 384 388 404 408 0
-340 424 0
-364 424 0
-384 424 0
-388 424 0
-404 424 0
-408 424 0
-425 341 365 385 389 405 409 0
-341 425 0
-365 425 0
-385 425 0
-389 425 0
-405 425 0
-409 425 0
-426 342 366 386 390 406 410 0
-342 426 0
-366 426 0
-386 426 0
-390 426 0
-406 426 0
-410 426 0
-427 343 367 387 391 407 411 0
-343 427 0
-367 427 0
-387 427 0
-391 427 0
-407 427 0
-411 427 0
-428 344 368 388 392 404 408 412 0
-344 428 0
-368 428 0
-388 428 0
-392 428 0
-404 428 0
-408 428 0
-412 428 0
-429 345 369 389 393 405 409 413 0
-345 429 0
-369 429 0
-389 429 0
-393 429 0
-405 429 0
-409 429 0
-413 429 0
-430 346 370 390 394 406 410 414 0
-346 430 0
-370 430 0
-390 430 0
-394 430 0
-406 430 0
-410 430 0
-414 430 0
-431 347 371 391 395 407 411 415 0
-347 431 0
-371 431 0
-391 431 0
-395 431 0
-407 431 0
-411 431 0
-415 431 0
-432 348 372 392 396 408 412 416 0
-348 432 0
-372 432 0
-392 432 0
-396 432 0
-408 432 0
-412 432 0
-416 432 0
-433 349 373 393 397 409 413 417 0
-349 433 0
-373 433 0
-393 433 0
-397 433 0
-409 433 0
-413 433 0
-417 433 0
-434 350 374 394 398 410 414 418 0
-350 434 0
-374 434 0
-394 434 0
-398 434 0
-410 434 0
-414 434 0
-418 434 0
-435 351 375 395 399 411 415 419 0
-351 435 0
-375 435 0
-395 435 0
-399 435 0
-411 435 0
-415 435 0
-419 435 0
-436 352 376 396 400 412 416 0
-352 436 0
-376 436 0
-396 436 0
-400 436 0
-412 436 0
-416 436 0
-437 353 377 397 401 413 417 0
-353 437 0
-377 437 0
-397 437 0
-401 437 0
-413 437 0
-417 437 0
-438 354 378 398 402 414 418 0
-354 438 0
-378 438 0
-398 438 0
-402 438 0
-414 438 0
-418 438 0
-439 355 379 399 403 415 419 0
-355 439 0
-379 439 0
-399 439 0
-403 439 0
-415 439 0
-419 439 0
-440 356 380 400 416 0
-356 440 0
-380 440 0
-400 440 0
-416 440 0
-441 357 381 401 417 0
-357 441 0
-381 441 0
-401 441 0
-417 441 0
-442 358 382 402 418 0
-358 442 0
-382 442 0
-402 442 0
-418 442 0
-443 359 383 403 419 0
-359 443 0
-383 443 0
-403 443 0
-419 443 0
-336 -360 0
-336 -384 0
-336 -404 0
-337 -361 0
-337 -385 0
-337 -405 0
-338 -362 0
-338 -386 0
-338 -406 0
-339 -363 0
-339 -387 0
-339 -407 0
-340 -364 0
-340 -384 0
-340 -388 0
-340 -404 0
-340 -408 0
-341 -365 0
-341 -385 0
-341 -389 0
-341 -405 0
-341 -409 0
-342 -366 0
-342 -386 0
-342 -390 0
-342 -406 0
-342 -410 0
-343 -367 0
-343 -387 0
-343 -391 0
-343 -407 0
-343 -411 0
-344 -368 0
-344 -388 0
-344 -392 0
-344 -404 0
-344 -408 0
-344 -412 0
-345 -369 0
-345 -389 0
-345 -393 0
-345 -405 0
-345 -409 0
-345 -413 0
-346 -370 0
-346 -390 0
-346 -394 0
-346 -406 0
-346 -410 0
-346 -414 0
-347 -371 0
-347 -391 0
-347 -395 0
-347 -407 0
-347 -411 0
-347 -415 0
-348 -372 0
-348 -392 0
-348 -396 0
-348 -408 0
-348 -412 0
-348 -416 0
-349 -373 0
-349 -393 0
-349 -397 0
-349 -409 0
-349 -413 0
-349 -417 0
-350 -374 0
-350 -394 0
-350 -398 0
-350 -410 0
-350 -414 0
-350 -418 0
-351 -375 0
-351 -395 0
-351 -399 0
-351 -411 0
-351 -415 0
-351 -419 0
-352 -376 0
-352 -396 0
-352 -400 0
-352 -412 0
-352 -416 0
-353 -377 0
-353 -397 0
-353 -401 0
-353 -413 0
-353 -417 0
-354 -378 0
-354 -398 0
-354 -402 0
-354 -414 0
-354 -418 0
-355 -379 0
-355 -399 0
-355 -403 0
-355 -415 0
-355 -419 0
-356 -380 0
-356 -400 0
-356 -416 0
-357 -381 0
-357 -401 0
-357 -417 0
-358 -382 0
-358 -402 0
-358 -418 0
-359 -383 0
-359 -403 0
-359 -419 0
-360 -384 0
-360 -404 0
-361 -385 0
-361 -405 0
-362 -386 0
-362 -406 0
-363 -387 0
-363 -407 0
-364 -384 0
-364 -388 0
-364 -404 0
-364 -408 0
-365 -385 0
-365 -389 0
-365 -405 0
-365 -409 0
-366 -386 0
-366 -390 0
-366 -406 0
-366 -410 0
-367 -387 0
-367 -391 0
-367 -407 0
-367 -411 0
-368 -388 0
-368 -392 0
-368 -404 0
-368 -408 0
-368 -412 0
-369 -389 0
-369 -393 0
-369 -405 0
-369 -409 0
-369 -413 0
-370 -390 0
-370 -394 0
-370 -406 0
-370 -410 0
-370 -414 0
-371 -391 0
-371 -395 0
-371 -407 0
-371 -411 0
-371 -415 0
-372 -392 0
-372 -396 0
-372 -408 0
-372 -412 0
-372 -416 0
-373 -393 0
-373 -397 0
-373 -409 0
-373 -413 0
-373 -417 0
-374 -394 0
-374 -398 0
-374 -410 0
-374 -414 0
-374 -418 0
-375 -395 0
-375 -399 0
-375 -411 0
-375 -415 0
-375 -419 0
-376 -396 0
-376 -400 0
-376 -412 0
-376 -416 0
-377 -397 0
-377 -401 0
-377 -413 0
-377 -417 0
-378 -398 0
-378 -402 0
-378 -414 0
-378 -418 0
-379 -399 0
-379 -403 0
-379 -415 0
-379 -419 0
-380 -400 0
-380 -416 0
-381 -401 0
-381 -417 0
-382 -402 0
-382 -418 0
-383 -403 0
-383 -419 0
-384 -404 0
-384 -408 0
-385 -405 0
-385 -409 0
-386 -406 0
-386 -410 0
-387 -407 0
-387 -411 0
-388 -404 0
-388 -408 0
-388 -412 0
-389 -405 0
-389 -409 0
-389 -413 0
-390 -406 0
-390 -410 0
-390 -414 0
-391 -407 0
-391 -411 0
-391 -415 0
-392 -404 0
-392 -408 0
-392 -412 0
-392 -416 0
-393 -405 0
-393 -409 0
-393 -413 0
-393 -417 0
-394 -406 0
-394 -410 0
-394 -414 0
-394 -418 0
-395 -407 0
-395 -411 0
-395 -415 0
-395 -419 0
-396 -408 0
-396 -412 0
-396 -416 0
-397 -409 0
-397 -413 0
-397 -417 0
-398 -410 0
-398 -414 0
-398 -418 0
-399 -411 0
-399 -415 0
-399 -419 0
-400 -412 0
-400 -416 0
-401 -413 0
-401 -417 0
-402 -414 0
-402 -418 0
-403 -415 0
-403 -419 0
-336 444 361 362 363 385 386 387 405 406 407 0
-336 -444 -361 0
-336 -444 -362 0
-336 -444 -363 0
-336 -444 -385 0
-336 -444 -386 0
-336 -444 -387 0
-336 -444 -405 0
-336 -444 -406 0
-336 -444 -407 0
-337 420 0
-337 444 362 363 386 387 406 407 0
-337 -444 -362 0
-337 -444 -363 0
-337 -444 -386 0
-337 -444 -387 0
-337 -444 -406 0
-337 -444 -407 0
-338 421 0
-338 444 363 387 407 0
-338 -444 -363 0
-338 -444 -387 0
-338 -444 -407 0
-339 422 0
-339 444 0
-340 444 365 366 367 385 386 387 389 390 391 405 406 407 409 410 411 0
-340 -444 -365 0
-340 -444 -366 0
-340 -444 -367 0
-340 -444 -385 0
-340 -444 -386 0
-340 -444 -387 0
-340 -444 -389 0
-340 -444 -390 0
-340 -444 -391 0
-340 -444 -405 0
-340 -444 -406 0
-340 -444 -407 0
-340 -444 -409 0
-340 -444 -410 0
-340 -444 -411 0
-341 424 0
-341 444 366 367 386 387 390 391 406 407 410 411 0
-341 -444 -366 0
-341 -444 -367 0
-341 -444 -386 0
-341 -444 -387 0
-341 -444 -390 0
-341 -444 -391 0
-341 -444 -406 0
-341 -444 -407 0
-341 -444 -410 0
-341 -444 -411 0
-342 425 0
-342 444 367 387 391 407 411 0
-342 -444 -367 0
-342 -444 -387 0
-342 -444 -391 0
-342 -444 -407 0
-342 -444 -411 0
-343 426 0
-343 444 0
-344 444 369 370 371 389 390 391 393 394 395 405 406 407 409 410 411 413 414 415 0
-344 -444 -369 0
-344 -444 -370 0
-344 -444 -371 0
-344 -444 -389 0
-344 -444 -390 0
-344 -444 -391 0
-344 -444 -393 0
-344 -444 -394 0
-344 -444 -395 0
-344 -444 -405 0
-344 -444 -406 0
-344 -444 -407 0
-344 -444 -409 0
-344 -444 -410 0
-344 -444 -411 0
-344 -444 -413 0
-344 -444 -414 0
-344 -444 -415 0
-345 428 0
-345 444 370 371 390 391 394 395 406 407 410 411 414 415 0
-345 -444 -370 0
-345 -444 -371 0
-345 -444 -390 0
-345 -444 -391 0
-345 -444 -394 0
-345 -444 -395 0
-345 -444 -406 0
-345 -444 -407 0
-345 -444 -410 0
-345 -444 -411 0
-345 -444 -414 0
-345 -444 -415 0
-346 429 0
-346 444 371 391 395 407 411 415 0
-346 -444 -371 0
-346 -444 -391 0
-346 -444 -395 0
-346 -444 -407 0
-346 -444 -411 0
-346 -444 -415 0
-347 430 0
-347 444 0
-348 444 373 374 375 393 394 395 397 398 399 409 410 411 413 414 415 417 418 419 0
-348 -444 -373 0
-348 -444 -374 0
-348 -444 -375 0
-348 -444 -393 0
-348 -444 -394 0
-348 -444 -395 0
-348 -444 -397 0
-348 -444 -398 0
-348 -444 -399 0
-348 -444 -409 0
-348 -444 -410 0
-348 -444 -411 0
-348 -444 -413 0
-348 -444 -414 0
-348 -444 -415 0
-348 -444 -417 0
-348 -444 -418 0
-348 -444 -419 0
-349 432 0
-349 444 374 375 394 395 398 399 410 411 414 415 418 419 0
-349 -444 -374 0
-349 -444 -375 0
-349 -444 -394 0
-349 -444 -395 0
-349 -444 -398 0
-349 -444 -399 0
-349 -444 -410 0
-349 -444 -411 0
-349 -444 -414 0
-349 -444 -415 0
-349 -444 -418 0
-349 -444 -419 0
-350 433 0
-350 444 375 395 399 411 415 419 0
-350 -444 -375 0
-350 -444 -395 0
-350 -444 -399 0
-350 -444 -411 0
-350 -444 -415 0
-350 -444 -419 0
-351 434 0
-351 444 0
-352 444 377 378 379 397 398 399 401 402 403 413 414 415 417 418 419 0
-352 -444 -377 0
-352 -444 -378 0
-352 -444 -379 0
-352 -444 -397 0
-352 -444 -398 0
-352 -444 -399 0
-352 -444 -401 0
-352 -444 -402 0
-352 -444 -403 0
-352 -444 -413 0
-352 -444 -414 0
-352 -444 -415 0
-352 -444 -417 0
-352 -444 -418 0
-352 -444 -419 0
-353 436 0
-353 444 378 379 398 399 402 403 414 415 418 419 0
-353 -444 -378 0
-353 -444 -379 0
-353 -444 -398 0
-353 -444 -399 0
-353 -444 -402 0
-353 -444 -403 0
-353 -444 -414 0
-353 -444 -415 0
-353 -444 -418 0
-353 -444 -419 0
-354 437 0
-354 444 379 399 403 415 419 0
-354 -444 -379 0
-354 -444 -399 0
-354 -444 -403 0
-354 -444 -415 0
-354 -444 -419 0
-355 438 0
-355 444 0
-356 444 381 382 383 401 402 403 417 418 419 0
-356 -444 -381 0
-356 -444 -382 0
-356 -444 -383 0
-356 -444 -401 0
-356 -444 -402 0
-356 -444 -403 0
-356 -444 -417 0
-356 -444 -418 0
-356 -444 -419 0
-357 440 0
-357 444 382 383 402 403 418 419 0
-357 -444 -382 0
-357 -444 -383 0
-357 -444 -402 0
-357 -444 -403 0
-357 -444 -418 0
-357 -444 -419 0
-358 441 0
-358 444 383 403 419 0
-358 -444 -383 0
-358 -444 -403 0
-358 -444 -419 0
-359 442 0
-359 444 0
-360 445 337 338 339 385 386 387 405 406 407 0
-360 -445 -337 0
-360 -445 -338 0
-360 -445 -339 0
-360 -445 -385 0
-360 -445 -386 0
-360 -445 -387 0
-360 -445 -405 0
-360 -445 -406 0
-360 -445 -407 0
-361 420 0
-361 445 338 339 386 387 406 407 0
-361 -445 -338 0
-361 -445 -339 0
-361 -445 -386 0
-361 -445 -387 0
-361 -445 -406 0
-361 -445 -407 0
-362 421 0
-362 445 339 387 407 0
-362 -445 -339 0
-362 -445 -387 0
-362 -445 -407 0
-363 422 0
-363 445 0
-364 445 341 342 343 385 386 387 389 390 391 405 406 407 409 410 411 0
-364 -445 -341 0
-364 -445 -342 0
-364 -445 -343 0
-364 -445 -385 0
-364 -445 -386 0
-364 -445 -387 0
-364 -445 -389 0
-364 -445 -390 0
-364 -445 -391 0
-364 -445 -405 0
-364 -445 -406 0
-364 -445 -407 0
-364 -445 -409 0
-364 -445 -410 0
-364 -445 -411 0
-365 424 0
-365 445 342 343 386 387 390 391 406 407 410 411 0
-365 -445 -342 0
-365 -445 -343 0
-365 -445 -386 0
-365 -445 -387 0
-365 -445 -390 0
-365 -445 -391 0
-365 -445 -406 0
-365 -445 -407 0
-365 -445 -410 0
-365 -445 -411 0
-366 425 0
-366 445 343 387 391 407 411 0
-366 -445 -343 0
-366 -445 -387 0
-366 -445 -391 0
-366 -445 -407 0
-366 -445 -411 0
-367 426 0
-367 445 0
-368 445 345 346 347 389 390 391 393 394 395 405 406 407 409 410 411 413 414 415 0
-368 -445 -345 0
-368 -445 -346 0
-368 -445 -347 0
-368 -445 -389 0
-368 -445 -390 0
-368 -445 -391 0
-368 -445 -393 0
-368 -445 -394 0
-368 -445 -395 0
-368 -445 -405 0
-368 -445 -406 0
-368 -445 -407 0
-368 -445 -409 0
-368 -445 -410 0
-368 -445 -411 0
-368 -445 -413 0
-368 -445 -414 0
-368 -445 -415 0
-369 428 0
-369 445 346 347 390 391 394 395 406 407 410 411 414 415 0
-369 -445 -346 0
-369 -445 -347 0
-369 -445 -390 0
-369 -445 -391 0
-369 -445 -394 0
-369 -445 -395 0
-369 -445 -406 0
-369 -445 -407 0
-369 -445 -410 0
-369 -445 -411 0
-369 -445 -414 0
-369 -445 -415 0
-370 429 0
-370 445 347 391 395 407 411 415 0
-370 -445 -347 0
-370 -445 -391 0
-370 -445 -395 0
-370 -445 -407 0
-370 -445 -411 0
-370 -445 -415 0
-371 430 0
-371 445 0
-372 445 349 350 351 393 394 395 397 398 399 409 410 411 413 414 415 417 418 419 0
-372 -445 -349 0
-372 -445 -350 0
-372 -445 -351 0
-372 -445 -393 0
-372 -445 -394 0
-372 -445 -395 0
-372 -445 -397 0
-372 -445 -398 0
-372 -445 -399 0
-372 -445 -409 0
-372 -445 -410 0
-372 -445 -411 0
-372 -445 -413 0
-372 -445 -414 0
-372 -445 -415 0
-372 -445 -417 0
-372 -445 -418 0
-372 -445 -419 0
-373 432 0
-373 445 350 351 394 395 398 399 410 411 414 415 418 419 0
-373 -445 -350 0
-373 -445 -351 0
-373 -445 -394 0
-373 -445 -395 0
-373 -445 -398 0
-373 -445 -399 0
-373 -445 -410 0
-373 -445 -411 0
-373 -445 -414 0
-373 -445 -415 0
-373 -445 -418 0
-373 -445 -419 0
-374 433 0
-374 445 351 395 399 411 415 419 0
-374 -445 -351 0
-374 -445 -395 0
-374 -445 -399 0
-374 -445 -411 0
-374 -445 -415 0
-374 -445 -419 0
-375 434 0
-375 445 0
-376 445 353 354 355 397 398 399 401 402 403 413 414 415 417 418 419 0
-376 -445 -353 0
-376 -445 -354 0
-376 -445 -355 0
-376 -445 -397 0
-376 -445 -398 0
-376 -445 -399 0
-376 -445 -401 0
-376 -445 -402 0
-376 -445 -403 0
-376 -445 -413 0
-376 -445 -414 0
-376 -445 -415 0
-376 -445 -417 0
-376 -445 -418 0
-376 -445 -419 0
-377 436 0
-377 445 354 355 398 399 402 403 414 415 418 419 0
-377 -445 -354 0
-377 -445 -355 0
-377 -445 -398 0
-377 -445 -399 0
-377 -445 -402 0
-377 -445 -403 0
-377 -445 -414 0
-377 -445 -415 0
-377 -445 -418 0
-377 -445 -419 0
-378 437 0
-378 445 355 399 403 415 419 0
-378 -445 -355 0
-378 -445 -399 0
-378 -445 -403 0
-378 -445 -415 0
-378 -445 -419 0
-379 438 0
-379 445 0
-380 445 357 358 359 401 402 403 417 418 419 0
-380 -445 -357 0
-380 -445 -358 0
-380 -445 -359 0
-380 -445 -401 0
-380 -445 -402 0
-380 -445 -403 0
-380 -445 -417 0
-380 -445 -418 0
-380 -445 -419 0
-381 440 0
-381 445 358 359 402 403 418 419 0
-381 -445 -358 0
-381 -445 -359 0
-381 -445 -402 0
-381 -445 -403 0
-381 -445 -418 0
-381 -445 -419 0
-382 441 0
-382 445 359 403 419 0
-382 -445 -359 0
-382 -445 -403 0
-382 -445 -419 0
-383 442 0
-383 445 0
-384 446 337 338 339 341 342 343 361 362 363 365 366 367 405 406 407 409 410 411 0
-384 -446 -337 0
-384 -446 -338 0
-384 -446 -339 0
-384 -446 -341 0
-384 -446 -342 0
-384 -446 -343 0
-384 -446 -361 0
-384 -446 -362 0
-384 -446 -363 0
-384 -446 -365 0
-384 -446 -366 0
-384 -446 -367 0
-384 -446 -405 0
-384 -446 -406 0
-384 -446 -407 0
-384 -446 -409 0
-384 -446 -410 0
-384 -446 -411 0
-385 420 424 0
-385 446 338 339 342 343 362 363 366 367 406 407 410 411 0
-385 -446 -338 0
-385 -446 -339 0
-385 -446 -342 0
-385 -446 -343 0
-385 -446 -362 0
-385 -446 -363 0
-385 -446 -366 0
-385 -446 -367 0
-385 -446 -406 0
-385 -446 -407 0
-385 -446 -410 0
-385 -446 -411 0
-386 421 425 0
-386 446 339 343 363 367 407 411 0
-386 -446 -339 0
-386 -446 -343 0
-386 -446 -363 0
-386 -446 -367 0
-386 -446 -407 0
-386 -446 -411 0
-387 422 426 0
-387 446 0
-388 446 341 342 343 345 346 347 365 366 367 369 370 371 405 406 407 409 410 411 413 414 415 0
-388 -446 -341 0
-388 -446 -342 0
-388 -446 -343 0
-388 -446 -345 0
-388 -446 -346 0
-388 -446 -347 0
-388 -446 -365 0
-388 -446 -366 0
-388 -446 -367 0
-388 -446 -369 0
-388 -446 -370 0
-388 -446 -371 0
-388 -446 -405 0
-388 -446 -406 0
-388 -446 -407 0
-388 -446 -409 0
-388 -446 -410 0
-388 -446 -411 0
-388 -446 -413 0
-388 -446 -414 0
-388 -446 -415 0
-389 424 428 0
-389 446 342 343 346 347 366 367 370 371 406 407 410 411 414 415 0
-389 -446 -342 0
-389 -446 -343 0
-389 -446 -346 0
-389 -446 -347 0
-389 -446 -366 0
-389 -446 -367 0
-389 -446 -370 0
-389 -446 -371 0
-389 -446 -406 0
-389 -446 -407 0
-389 -446 -410 0
-389 -446 -411 0
-389 -446 -414 0
-389 -446 -415 0
-390 425 429 0
-390 446 343 347 367 371 407 411 415 0
-390 -446 -343 0
-390 -446 -347 0
-390 -446 -367 0
-390 -446 -371 0
-390 -446 -407 0
-390 -446 -411 0
-390 -446 -415 0
-391 426 430 0
-391 446 0
-392 446 345 346 347 349 350 351 369 370 371 373 374 375 405 406 407 409 410 411 413 414 415 417 418 419 0
-392 -446 -345 0
-392 -446 -346 0
-392 -446 -347 0
-392 -446 -349 0
-392 -446 -350 0
-392 -446 -351 0
-392 -446 -369 0
-392 -446 -370 0
-392 -446 -371 0
-392 -446 -373 0
-392 -446 -374 0
-392 -446 -375 0
-392 -446 -405 0
-392 -446 -406 0
-392 -446 -407 0
-392 -446 -409 0
-392 -446 -410 0
-392 -446 -411 0
-392 -446 -413 0
-392 -446 -414 0
-392 -446 -415 0
-392 -446 -417 0
-392 -446 -418 0
-392 -446 -419 0
-393 428 432 0
-393 446 346 347 350 351 370 371 374 375 406 407 410 411 414 415 418 419 0
-393 -446 -346 0
-393 -446 -347 0
-393 -446 -350 0
-393 -446 -351 0
-393 -446 -370 0
-393 -446 -371 0
-393 -446 -374 0
-393 -446 -375 0
-393 -446 -406 0
-393 -446 -407 0
-393 -446 -410 0
-393 -446 -411 0
-393 -446 -414 0
-393 -446 -415 0
-393 -446 -418 0
-393 -446 -419 0
-394 429 433 0
-394 446 347 351 371 375 407 411 415 419 0
-394 -446 -347 0
-394 -446 -351 0
-394 -446 -371 0
-394 -446 -375 0
-394 -446 -407 0
-394 -446 -411 0
-394 -446 -415 0
-394 -446 -419 0
-395 430 434 0
-395 446 0
-396 446 349 350 351 353 354 355 373 374 375 377 378 379 409 410 411 413 414 415 417 418 419 0
-396 -446 -349 0
-396 -446 -350 0
-396 -446 -351 0
-396 -446 -353 0
-396 -446 -354 0
-396 -446 -355 0
-396 -446 -373 0
-396 -446 -374 0
-396 -446 -375 0
-396 -446 -377 0
-396 -446 -378 0
-396 -446 -379 0
-396 -446 -409 0
-396 -446 -410 0
-396 -446 -411 0
-396 -446 -413 0
-396 -446 -414 0
-396 -446 -415 0
-396 -446 -417 0
-396 -446 -418 0
-396 -446 -419 0
-397 432 436 0
-397 446 350 351 354 355 374 375 378 379 410 411 414 415 418 419 0
-397 -446 -350 0
-397 -446 -351 0
-397 -446 -354 0
-397 -446 -355 0
-397 -446 -374 0
-397 -446 -375 0
-397 -446 -378 0
-397 -446 -379 0
-397 -446 -410 0
-397 -446 -411 0
-397 -446 -414 0
-397 -446 -415 0
-397 -446 -418 0
-397 -446 -419 0
-398 433 437 0
-398 446 351 355 375 379 411 415 419 0
-398 -446 -351 0
-398 -446 -355 0
-398 -446 -375 0
-398 -446 -379 0
-398 -446 -411 0
-398 -446 -415 0
-398 -446 -419 0
-399 434 438 0
-399 446 0
-400 446 353 354 355 357 358 359 377 378 379 381 382 383 413 414 415 417 418 419 0
-400 -446 -353 0
-400 -446 -354 0
-400 -446 -355 0
-400 -446 -357 0
-400 -446 -358 0
-400 -446 -359 0
-400 -446 -377 0
-400 -446 -378 0
-400 -446 -379 0
-400 -446 -381 0
-400 -446 -382 0
-400 -446 -383 0
-400 -446 -413 0
-400 -446 -414 0
-400 -446 -415 0
-400 -446 -417 0
-400 -446 -418 0
-400 -446 -419 0
-401 436 440 0
-401 446 354 355 358 359 378 379 382 383 414 415 418 419 0
-401 -446 -354 0
-401 -446 -355 0
-401 -446 -358 0
-401 -446 -359 0
-401 -446 -378 0
-401 -446 -379 0
-401 -446 -382 0
-401 -446 -383 0
-401 -446 -414 0
-401 -446 -415 0
-401 -446 -418 0
-401 -446 -419 0
-402 437 441 0
-402 446 355 359 379 383 415 419 0
-402 -446 -355 0
-402 -446 -359 0
-402 -446 -379 0
-402 -446 -383 0
-402 -446 -415 0
-402 -446 -419 0
-403 438 442 0
-403 446 0
-404 447 337 338 339 341 342 343 345 346 347 361 362 363 365 366 367 369 370 371 385 386 387 389 390 391 393 394 395 0
-404 -447 -337 0
-404 -447 -338 0
-404 -447 -339 0
-404 -447 -341 0
-404 -447 -342 0
-404 -447 -343 0
-404 -447 -345 0
-404 -447 -346 0
-404 -447 -347 0
-404 -447 -361 0
-404 -447 -362 0
-404 -447 -363 0
-404 -447 -365 0
-404 -447 -366 0
-404 -447 -367 0
-404 -447 -369 0
-404 -447 -370 0
-404 -447 -371 0
-404 -447 -385 0
-404 -447 -386 0
-404 -447 -387 0
-404 -447 -389 0
-404 -447 -390 0
-404 -447 -391 0
-404 -447 -393 0
-404 -447 -394 0
-404 -447 -395 0
-405 420 424 0
-405 420 428 0
-405 424 428 0
-405 447 338 339 342 343 346 347 362 363 366 367 370 371 386 387 390 391 394 395 0
-405 -447 -338 0
-405 -447 -339 0
-405 -447 -342 0
-405 -447 -343 0
-405 -447 -346 0
-405 -447 -347 0
-405 -447 -362 0
-405 -447 -363 0
-405 -447 -366 0
-405 -447 -367 0
-405 -447 -370 0
-405 -447 -371 0
-405 -447 -386 0
-405 -447 -387 0
-405 -447 -390 0
-405 -447 -391 0
-405 -447 -394 0
-405 -447 -395 0
-406 421 425 0
-406 421 429 0
-406 425 429 0
-406 447 339 343 347 363 367 371 387 391 395 0
-406 -447 -339 0
-406 -447 -343 0
-406 -447 -347 0
-406 -447 -363 0
-406 -447 -367 0
-406 -447 -371 0
-406 -447 -387 0
-406 -447 -391 0
-406 -447 -395 0
-407 422 426 0
-407 422 430 0
-407 426 430 0
-407 447 0
-408 447 341 342 343 345 346 347 349 350 351 365 366 367 369 370 371 373 374 375 385 386 387 389 390 391 393 394 395 397 398 399 0
-408 -447 -341 0
-408 -447 -342 0
-408 -447 -343 0
-408 -447 -345 0
-408 -447 -346 0
-408 -447 -347 0
-408 -447 -349 0
-408 -447 -350 0
-408 -447 -351 0
-408 -447 -365 0
-408 -447 -366 0
-408 -447 -367 0
-408 -447 -369 0
-408 -447 -370 0
-408 -447 -371 0
-408 -447 -373 0
-408 -447 -374 0
-408 -447 -375 0
-408 -447 -385 0
-408 -447 -386 0
-408 -447 -387 0
-408 -447 -389 0
-408 -447 -390 0
-408 -447 -391 0
-408 -447 -393 0
-408 -447 -394 0
-408 -447 -395 0
-408 -447 -397 0
-408 -447 -398 0
-408 -447 -399 0
-409 424 428 0
-409 424 432 0
-409 428 432 0
-409 447 342 343 346 347 350 351 366 367 370 371 374 375 386 387 390 391 394 395 398 399 0
-409 -447 -342 0
-409 -447 -343 0
-409 -447 -346 0
-409 -447 -347 0
-409 -447 -350 0
-409 -447 -351 0
-409 -447 -366 0
-409 -447 -367 0
-409 -447 -370 0
-409 -447 -371 0
-409 -447 -374 0
-409 -447 -375 0
-409 -447 -386 0
-409 -447 -387 0
-409 -447 -390 0
-409 -447 -391 0
-409 -447 -394 0
-409 -447 -395 0
-409 -447 -398 0
-409 -447 -399 0
-410 425 429 0
-410 425 433 0
-410 429 433 0
-410 447 343 347 351 367 371 375 387 391 395 399 0
-410 -447 -343 0
-410 -447 -347 0
-410 -447 -351 0
-410 -447 -367 0
-410 -447 -371 0
-410 -447 -375 0
-410 -447 -387 0
-410 -447 -391 0
-410 -447 -395 0
-410 -447 -399 0
-411 426 430 0
-411 426 434 0
-411 430 434 0
-411 447 0
-412 447 345 346 347 349 350 351 353 354 355 369 370 371 373 374 375 377 378 379 389 390 391 393 394 395 397 398 399 401 402 403 0
-412 -447 -345 0
-412 -447 -346 0
-412 -447 -347 0
-412 -447 -349 0
-412 -447 -350 0
-412 -447 -351 0
-412 -447 -353 0
-412 -447 -354 0
-412 -447 -355 0
-412 -447 -369 0
-412 -447 -370 0
-412 -447 -371 0
-412 -447 -373 0
-412 -447 -374 0
-412 -447 -375 0
-412 -447 -377 0
-412 -447 -378 0
-412 -447 -379 0
-412 -447 -389 0
-412 -447 -390 0
-412 -447 -391 0
-412 -447 -393 0
-412 -447 -394 0
-412 -447 -395 0
-412 -447 -397 0
-412 -447 -398 0
-412 -447 -399 0
-412 -447 -401 0
-412 -447 -402 0
-412 -447 -403 0
-413 428 432 0
-413 428 436 0
-413 432 436 0
-413 447 346 347 350 351 354 355 370 371 374 375 378 379 390 391 394 395 398 399 402 403 0
-413 -447 -346 0
-413 -447 -347 0
-413 -447 -350 0
-413 -447 -351 0
-413 -447 -354 0
-413 -447 -355 0
-413 -447 -370 0
-413 -447 -371 0
-413 -447 -374 0
-413 -447 -375 0
-413 -447 -378 0
-413 -447 -379 0
-413 -447 -390 0
-413 -447 -391 0
-413 -447 -394 0
-413 -447 -395 0
-413 -447 -398 0
-413 -447 -399 0
-413 -447 -402 0
-413 -447 -403 0
-414 429 433 0
-414 429 437 0
-414 433 437 0
-414 447 347 351 355 371 375 379 391 395 399 403 0
-414 -447 -347 0
-414 -447 -351 0
-414 -447 -355 0
-414 -447 -371 0
-414 -447 -375 0
-414 -447 -379 0
-414 -447 -391 0
-414 -447 -395 0
-414 -447 -399 0
-414 -447 -403 0
-415 430 434 0
-415 430 438 0
-415 434 438 0
-415 447 0
-416 447 349 350 351 353 354 355 357 358 359 373 374 375 377 378 379 381 382 383 393 394 395 397 398 399 401 402 403 0
-416 -447 -349 0
-416 -447 -350 0
-416 -447 -351 0
-416 -447 -353 0
-416 -447 -354 0
-416 -447 -355 0
-416 -447 -357 0
-416 -447 -358 0
-416 -447 -359 0
-416 -447 -373 0
-416 -447 -374 0
-416 -447 -375 0
-416 -447 -377 0
-416 -447 -378 0
-416 -447 -379 0
-416 -447 -381 0
-416 -447 -382 0
-416 -447 -383 0
-416 -447 -393 0
-416 -447 -394 0
-416 -447 -395 0
-416 -447 -397 0
-416 -447 -398 0
-416 -447 -399 0
-416 -447 -401 0
-416 -447 -402 0
-416 -447 -403 0
-417 432 436 0
-417 432 440 0
-417 436 440 0
-417 447 350 351 354 355 358 359 374 375 378 379 382 383 394 395 398 399 402 403 0
-417 -447 -350 0
-417 -447 -351 0
-417 -447 -354 0
-417 -447 -355 0
-417 -447 -358 0
-417 -447 -359 0
-417 -447 -374 0
-417 -447 -375 0
-417 -447 -378 0
-417 -447 -379 0
-417 -447 -382 0
-417 -447 -383 0
-417 -447 -394 0
-417 -447 -395 0
-417 -447 -398 0
-417 -447 -399 0
-417 -447 -402 0
-417 -447 -403 0
-418 433 437 0
-418 433 441 0
-418 437 441 0
-418 447 351 355 359 375 379 383 395 399 403 0
-418 -447 -351 0
-418 -447 -355 0
-418 -447 -359 0
-418 -447 -375 0
-418 -447 -379 0
-418 -447 -383 0
-418 -447 -395 0
-418 -447 -399 0
-418 -447 -403 0
-419 434 438 0
-419 434 442 0
-419 438 442 0
-419 447 0
448 449 450 451 452 453 0
-448 -449 0
-448 -450 0
-448 -451 0
-448 -452 0
-448 -453 0
-449 -450 0
-449 -451 0
-449 -452 0
-449 -453 0
-450 -451 0
-450 -452 0
-450 -453 0
-451 -452 0
-451 -453 0
-452 -453 0
454 455 456 457 0
-454 -455 0
-454 -456 0
-454 -457 0
-455 -456 0
-455 -457 0
-456 -457 0
458 459 460 461 462 463 0
-458 -459 0
-458 -460 0
-458 -461 0
-458 -462 0
-458 -463 0
-459 -460 0
-459 -461 0
-459 -462 0
-459 -463 0
-460 -461 0
-460 -462 0
-460 -463 0
-461 -462 0
-461 -463 0
-462 -463 0
464 465 466 467 0
-464 -465 0
-464 -466 0
-464 -467 0
-465 -466 0
-465 -467 0
-466 -467 0
468 469 470 471 472 0
-468 -469 0
-468 -470 0
-468 -471 0
-468 -472 0
-469 -470 0
-469 -471 0
-469 -472 0
-470 -471 0
-470 -472 0
-471 -472 0
473 474 475 476 0
-473 -474 0
-473 -475 0
-473 -476 0
-474 -475 0
-474 -476 0
-475 -476 0
477 478 479 480 0
-477 -478 0
-477 -479 0
-477 -480 0
-478 -479 0
-478 -480 0
-479 -480 0
481 482 483 484 0
-481 -482 0
-481 -483 0
-481 -484 0
-482 -483 0
-482 -484 0
-483 -484 0
-485 448 0
-485 454 0
-448 -454 485 0
-486 448 0
-486 455 0
-448 -455 486 0
-487 448 0
-487 456 0
-448 -456 487 0
-488 448 0
-488 457 0
-448 -457 488 0
-489 449 0
-489 454 0
-449 -454 489 0
-490 449 0
-490 455 0
-449 -455 490 0
-491 449 0
-491 456 0
-449 -456 491 0
-492 449 0
-492 457 0
-449 -457 492 0
-493 450 0
-493 454 0
-450 -454 493 0
-494 450 0
-494 455 0
-450 -455 494 0
-495 450 0
-495 456 0
-450 -456 495 0
-496 450 0
-496 457 0
-450 -457 496 0
-497 451 0
-497 454 0
-451 -454 497 0
-498 451 0
-498 455 0
-451 -455 498 0
-499 451 0
-499 456 0
-451 -456 499 0
-500 451 0
-500 457 0
-451 -457 500 0
-501 452 0
-501 454 0
-452 -454 501 0
-502 452 0
-502 455 0
-452 -455 502 0
-503 452 0
-503 456 0
-452 -456 503 0
-504 452 0
-504 457 0
-452 -457 504 0
-505 453 0
-505 454 0
-453 -454 505 0
-506 453 0
-506 455 0
-453 -455 506 0
-507 453 0
-507 456 0
-453 -456 507 0
-508 453 0
-508 457 0
-453 -457 508 0
-509 458 0
-509 464 0
-458 -464 509 0
-510 458 0
-510 465 0
-458 -465 510 0
-511 458 0
-511 466 0
-458 -466 511 0
-512 458 0
-512 467 0
-458 -467 512 0
-513 459 0
-513 464 0
-459 -464 513 0
-514 459 0
-514 465 0
-459 -465 514 0
-515 459 0
-515 466 0
-459 -466 515 0
-516 459 0
-516 467 0
-459 -467 516 0
-517 460 0
-517 464 0
-460 -464 517 0
-518 460 0
-518 465 0
-460 -465 518 0
-519 460 0
-519 466 0
-460 -466 519 0
-520 460 0
-520 467 0
-460 -467 520 0
-521 461 0
-521 464 0
-461 -464 521 0
-522 461 0
-522 465 0
-461 -465 522 0
-523 461 0
-523 466 0
-461 -466 523 0
-524 461 0
-524 467 0
-461 -467 524 0
-525 462 0
-525 464 0
-462 -464 525 0
-526 462 0
-526 465 0
-462 -465 526 0
-527 462 0
-527 466 0
-462 -466 527 0
-528 462 0
-528 467 0
-462 -467 528 0
-529 463 0
-529 464 0
-463 -464 529 0
-530 463 0
-530 465 0
-463 -465 530 0
-531 463 0
-531 466 0
-463 -466 531 0
-532 463 0
-532 467 0
-463 -467 532 0
-533 468 0
-533 473 0
-468 -473 533 0
-534 468 0
-534 474 0
-468 -474 534 0
-535 468 0
-535 475 0
-468 -475 535 0
-536 468 0
-536 476 0
-468 -476 536 0
-537 469 0
-537 473 0
-469 -473 537 0
-538 469 0
-538 474 0
-469 -474 538 0
-539 469 0
-539 475 0
-469 -475 539 0
-540 469 0
-540 476 0
-469 -476 540 0
-541 470 0
-541 473 0
-470 -473 541 0
-542 470 0
-542 474 0
-470 -474 542 0
-543 470 0
-543 475 0
-470 -475 543 0
-544 470 0
-544 476 0
-470 -476 544 0
-545 471 0
-545 473 0
-471 -473 545 0
-546 471 0
-546 474 0
-471 -474 546 0
-547 471 0
-547 475 0
-471 -475 547 0
-548 471 0
-548 476 0
-471 -476 548 0
-549 472 0
-549 473 0
-472 -473 549 0
-550 472 0
-550 474 0
-472 -474 550 0
-551 472 0
-551 475 0
-472 -475 551 0
-552 472 0
-552 476 0
-472 -476 552 0
-553 477 0
-553 481 0
-477 -481 553 0
-554 477 0
-554 482 0
-477 -482 554 0
-555 477 0
-555 483 0
-477 -483 555 0
-556 477 0
-556 484 0
-477 -484 556 0
-557 478 0
-557 481 0
-478 -481 557 0
-558 478 0
-558 482 0
-478 -482 558 0
-559 478 0
-559 483 0
-478 -483 559 0
-560 478 0
-560 484 0
-478 -484 560 0
-561 479 0
-561 481 0
-479 -481 561 0
-562 479 0
-562 482 0
-479 -482 562 0
-563 479 0
-563 483 0
-479 -483 563 0
-564 479 0
-564 484 0
-479 -484 564 0
-565 480 0
-565 481 0
-480 -481 565 0
-566 480 0
-566 482 0
-480 -482 566 0
-567 480 0
-567 483 0
-480 -483 567 0
-568 480 0
-568 484 0
-480 -484 568 0
-569 485 509 533 553 0
-485 569 0
-509 569 0
-533 569 0
-553 569 0
-570 486 510 534 554 0
-486 570 0
-510 570 0
-534 570 0
-554 570 0
-571 487 511 535 555 0
-487 571 0
-511 571 0
-535 571 0
-555 571 0
-572 488 512 536 556 0
-488 572 0
-512 572 0
-536 572 0
-556 572 0
-573 489 513 533 537 553 557 0
-489 573 0
-513 573 0
-533 573 0
-537 573 0
-553 573 0
-557 573 0
-574 490 514 534 538 554 558 0
-490 574 0
-514 574 0
-534 574 0
-538 574 0
-554 574 0
-558 574 0
-575 491 515 535 539 555 559 0
-491 575 0
-515 575 0
-535 575 0
-539 575 0
-555 575 0
-559 575 0
-576 492 516 536 540 556 560 0
-492 576 0
-516 576 0
-536 576 0
-540 576 0
-556 576 0
-560 576 0
-577 493 517 537 541 553 557 561 0
-493 577 0
-517 577 0
-537 577 0
-541 577 0
-553 577 0
-557 577 0
-561 577 0
-578 494 518 538 542 554 558 562 0
-494 578 0
-518 578 0
-538 578 0
-542 578 0
-554 578 0
-558 578 0
-562 578 0
-579 495 519 539 543 555 559 563 0
-495 579 0
-519 579 0
-539 579 0
-543 579 0
-555 579 0
-559 579 0
-563 579 0
-580 496 520 540 544 556 560 564 0
-496 580 0
-520 580 0
-540 580 0
-544 580 0
-556 580 0
-560 580 0
-564 580 0
-581 497 521 541 545 557 561 565 0
-497 581 0
-521 581 0
-541 581 0
-545 581 0
-557 581 0
-561 581 0
-565 581 0
-582 498 522 542 546 558 562 566 0
-498 582 0
-522 582 0
-542 582 0
-546 582 0
-558 582 0
-562 582 0
-566 582 0
-583 499 523 543 547 559 563 567 0
-499 583 0
-523 583 0
-543 583 0
-547 583 0
-559 583 0
-563 583 0
-567 583 0
-584 500 524 544 548 560 564 568 0
-500 584 0
-524 584 0
-544 584 0
-548 584 0
-560 584 0
-564 584 0
-568 584 0
-585 501 525 545 549 561 565 0
-501 585 0
-525 585 0
-545 585 0
-549 585 0
-561 585 0
-565 585 0
-586 502 526 546 550 562 566 0
-502 586 0
-526 586 0
-546 586 0
-550 586 0
-562 586 0
-566 586 0
-587 503 527 547 551 563 567 0
-503 587 0
-527 587 0
-547 587 0
-551 587 0
-563 587 0
-567 587 0
-588 504 528 548 552 564 568 0
-504 588 0
-528 588 0
-548 588 0
-552 588 0
-564 588 0
-568 588 0
-589 505 529 549 565 0
-505 589 0
-529 589 0
-549 589 0
-565 589 0
-590 506 530 550 566 0
-506 590 0
-530 590 0
-550 590 0
-566 590 0
-591 507 531 551 567 0
-507 591 0
-531 591 0
-551 591 0
-567 591 0
-592 508 532 552 568 0
-508 592 0
-532 592 0
-552 592 0
-568 592 0
-485 -509 0
-485 -533 0
-485 -553 0
-486 -510 0
-486 -534 0
-486 -554 0
-487 -511 0
-487 -535 0
-487 -555 0
-488 -512 0
-488 -536 0
-488 -556 0
-489 -513 0
-489 -533 0
-489 -537 0
-489 -553 0
-489 -557 0
-490 -514 0
-490 -534 0
-490 -538 0
-490 -554 0
-490 -558 0
-491 -515 0
-491 -535 0
-491 -539 0
-491 -555 0
-491 -559 0
-492 -516 0
-492 -536 0
-492 -540 0
-492 -556 0
-492 -560 0
-493 -517 0
-493 -537 0
-493 -541 0
-493 -553 0
-493 -557 0
-493 -561 0
-494 -518 0
-494 -538 0
-494 -542 0
-494 -554 0
-494 -558 0
-494 -562 0
-495 -519 0
-495 -539 0
-495 -543 0
-495 -555 0
-495 -559 0
-495 -563 0
-496 -520 0
-496 -540 0
-496 -544 0
-496 -556 0
-496 -560 0
-496 -564 0
-497 -521 0
-497 -541 0
-497 -545 0
-497 -557 0
-497 -561 0
-497 -565 0
-498 -522 0
-498 -542 0
-498 -546 0
-498 -558 0
-498 -562 0
-498 -566 0
-499 -523 0
-499 -543 0
-499 -547 0
-499 -559 0
-499 -563 0
-499 -567 0
-500 -524 0
-500 -544 0
-500 -548 0
-500 -560 0
-500 -564 0
-500 -568 0
-501 -525 0
-501 -545 0
-501 -549 0
-501 -561 0
-501 -565 0
-502 -526 0
-502 -546 0
-502 -550 0
-502 -562 0
-502 -566 0
-503 -527 0
-503 -547 0
-503 -551 0
-503 -563 0
-503 -567 0
-504 -528 0
-504 -548 0
-504 -552 0
-504 -564 0
-504 -568 0
-505 -529 0
-505 -549 0
-505 -565 0
-506 -530 0
-506 -550 0
-506 -566 0
-507 -531 0
-507 -551 0
-507 -567 0
-508 -532 0
-508 -552 0
-508 -568 0
-509 -533 0
-509 -553 0
-510 -534 0
-510 -554 0
-511 -535 0
-511 -555 0
-512 -536 0
-512 -556 0
-513 -533 0
-513 -537 0
-513 -553 0
-513 -557 0
-514 -534 0
-514 -538 0
-514 -554 0
-514 -558 0
-515 -535 0
-515 -539 0
-515 -555 0
-515 -559 0
-516 -536 0
-516 -540 0
-516 -556 0
-516 -560 0
-517 -537 0
-517 -541 0
-517 -553 0
-517 -557 0
-517 -561 0
-518 -538 0
-518 -542 0
-518 -554 0
-518 -558 0
-518 -562 0
-519 -539 0
-519 -543 0
-519 -555 0
-519 -559 0
-519 -563 0
-520 -540 0
-520 -544 0
-520 -556 0
-520 -560 0
-520 -564 0
-521 -541 0
-521 -545 0
-521 -557 0
-521 -561 0
-521 -565 0
-522 -542 0
-522 -546 0
-522 -558 0
-522 -562 0
-522 -566 0
-523 -543 0
-523 -547 0
-523 -559 0
-523 -563 0
-523 -567 0
-524 -544 0
-524 -548 0
-524 -560 0
-524 -564 0
-524 -568 0
-525 -545 0
-525 -549 0
-525 -561 0
-525 -565 0
-526 -546 0
-526 -550 0
-526 -562 0
-526 -566 0
-527 -547 0
-527 -551 0
-527 -563 0
-527 -567 0
-528 -548 0
-528 -552 0
-528 -564 0
-528 -568 0
-529 -549 0
-529 -565 0
-530 -550 0
-530 -566 0
-531 -551 0
-531 -567 0
-532 -552 0
-532 -568 0
-533 -553 0
-533 -557 0
-534 -554 0
-534 -558 0
-535 -555 0
-535 -559 0
-536 -556 0
-536 -560 0
-537 -553 0
-537 -557 0
-537 -561 0
-538 -554 0
-538 -558 0
-538 -562 0
-539 -555 0
-539 -559 0
-539 -563 0
-540 -556 0
-540 -560 0
-540 -564 0
-541 -553 0
-541 -557 0
-541 -561 0
-541 -565 0
-542 -554 0
-542 -558 0
-542 -562 0
-542 -566 0
-543 -555 0
-543 -559 0
-543 -563 0
-543 -567 0
-544 -556 0
-544 -560 0
-544 -564 0
-544 -568 0
-545 -557 0
-545 -561 0
-545 -565 0
-546 -558 0
-546 -562 0
-546 -566 0
-547 -559 0
-547 -563 0
-547 -567 0
-548 -560 0
-548 -564 0
-548 -568 0
-549 -561 0
-549 -565 0
-550 -562 0
-550 -566 0
-551 -563 0
-551 -567 0
-552 -564 0
-552 -568 0
-485 593 510 511 512 534 535 536 554 555 556 0
-485 -593 -510 0
-485 -593 -511 0
-485 -593 -512 0
-485 -593 -534 0
-485 -593 -535 0
-485 -593 -536 0
-485 -593 -554 0
-485 -593 -555 0
-485 -593 -556 0
-486 569 0
-486 593 511 512 535 536 555 556 0
-486 -593 -511 0
-486 -593 -512 0
-486 -593 -535 0
-486 -593 -536 0
-486 -593 -555 0
-486 -593 -556 0
-487 570 0
-487 593 512 536 556 0
-487 -593 -512 0
-487 -593 -536 0
-487 -593 -556 0
-488 571 0
-488 593 0
-489 593 514 515 516 534 535 536 538 539 540 554 555 556 558 559 560 0
-489 -593 -514 0
-489 -593 -515 0
-489 -593 -516 0
-489 -593 -534 0
-489 -593 -535 0
-489 -593 -536 0
-489 -593 -538 0
-489 -593 -539 0
-489 -593 -540 0
-489 -593 -554 0
-489 -593 -555 0
-489 -593 -556 0
-489 -593 -558 0
-489 -593 -559 0
-489 -593 -560 0
-490 573 0
-490 593 515 516 535 536 539 540 555 556 559 560 0
-490 -593 -515 0
-490 -593 -516 0
-490 -593 -535 0
-490 -593 -536 0
-490 -593 -539 0
-490 -593 -540 0
-490 -593 -555 0
-490 -593 -556 0
-490 -593 -559 0
-490 -593 -560 0
-491 574 0
-491 593 516 536 540 556 560 0
-491 -593 -516 0
-491 -593 -536 0
-491 -593 -540 0
-491 -593 -556 0
-491 -593 -560 0
-492 575 0
-492 593 0
-493 593 518 519 520 538 539 540 542 543 544 554 555 556 558 559 560 562 563 564 0
-493 -593 -518 0
-493 -593 -519 0
-493 -593 -520 0
-493 -593 -538 0
-493 -593 -539 0
-493 -593 -540 0
-493 -593 -542 0
-493 -593 -543 0
-493 -593 -544 0
-493 -593 -554 0
-493 -593 -555 0
-493 -593 -556 0
-493 -593 -558 0
-493 -593 -559 0
-493 -593 -560 0
-493 -593 -562 0
-493 -593 -563 0
-493 -593 -564 0
-494 577 0
-494 593 519 520 539 540 543 544 555 556 559 560 563 564 0
-494 -593 -519 0
-494 -593 -520 0
-494 -593 -539 0
-494 -593 -540 0
-494 -593 -543 0
-494 -593 -544 0
-494 -593 -555 0
-494 -593 -556 0
-494 -593 -559 0
-494 -593 -560 0
-494 -593 -563 0
-494 -593 -564 0
-495 578 0
-495 593 520 540 544 556 560 564 0
-495 -593 -520 0
-495 -593 -540 0
-495 -593 -544 0
-495 -593 -556 0
-495 -593 -560 0
-495 -593 -564 0
-496 579 0
-496 593 0
-497 593 522 523 524 542 543 544 546 547 548 558 559 560 562 563 564 566 567 568 0
-497 -593 -522 0
-497 -593 -523 0
-497 -593 -524 0
-497 -593 -542 0
-497 -593 -543 0
-497 -593 -544 0
-497 -593 -546 0
-497 -593 -547 0
-497 -593 -548 0
-497 -593 -558 0
-497 -593 -559 0
-497 -593 -560 0
-497 -593 -562 0
-497 -593 -563 0
-497 -593 -564 0
-497 -593 -566 0
-497 -593 -567 0
-497 -593 -568 0
-498 581 0
-498 593 523 524 543 544 547 548 559 560 563 564 567 568 0
-498 -593 -523 0
-498 -593 -524 0
-498 -593 -543 0
-498 -593 -544 0
-498 -593 -547 0
-498 -593 -548 0
-498 -593 -559 0
-498 -593 -560 0
-498 -593 -563 0
-498 -593 -564 0
-498 -593 -567 0
-498 -593 -568 0
-499 582 0
-499 593 524 544 548 560 564 568 0
-499 -593 -524 0
-499 -593 -544 0
-499 -593 -548 0
-499 -593 -560 0
-499 -593 -564 0
-499 -593 -568 0
-500 583 0
-500 593 0
-501 593 526 527 528 546 547 548 550 551 552 562 563 564 566 567 568 0
-501 -593 -526 0
-501 -593 -527 0
-501 -593 -528 0
-501 -593 -546 0
-501 -593 -547 0
-501 -593 -548 0
-501 -593 -550 0
-501 -593 -551 0
-501 -593 -552 0
-501 -593 -562 0
-501 -593 -563 0
-501 -593 -564 0
-501 -593 -566 0
-501 -593 -567 0
-501 -593 -568 0
-502 585 0
-502 593 527 528 547 548 551 552 563 564 567 568 0
-502 -593 -527 0
-502 -593 -528 0
-502 -593 -547 0
-502 -593 -548 0
-502 -593 -551 0
-502 -593 -552 0
-502 -593 -563 0
-502 -593 -564 0
-502 -593 -567 0
-502 -593 -568 0
-503 586 0
-503 593 528 548 552 564 568 0
-503 -593 -528 0
-503 -593 -548 0
-503 -593 -552 0
-503 -593 -564 0
-503 -593 -568 0
-504 587 0
-504 593 0
-505 593 530 531 532 550 551 552 566 567 568 0
-505 -593 -530 0
-505 -593 -531 0
-505 -593 -532 0
-505 -593 -550 0
-505 -593 -551 0
-505 -593 -552 0
-505 -593 -566 0
-505 -593 -567 0
-505 -593 -568 0
-506 589 0
-506 593 531 532 551 552 567 568 0
-506 -593 -531 0
-506 -593 -532 0
-506 -593 -551 0
-506 -593 -552 0
-506 -593 -567 0
-506 -593 -568 0
-507 590 0
-507 593 532 552 568 0
-507 -593 -532 0
-507 -593 -552 0
-507 -593 -568 0
-508 591 0
-508 593 0
-509 594 486 487 488 534 535 536 554 555 556 0
-509 -594 -486 0
-509 -594 -487 0
-509 -594 -488 0
-509 -594 -534 0
-509 -594 -535 0
-509 -594 -536 0
-509 -594 -554 0
-509 -594 -555 0
-509 -594 -556 0
-510 569 0
-510 594 487 488 535 536 555 556 0
-510 -594 -487 0
-510 -594 -488 0
-510 -594 -535 0
-510 -594 -536 0
-510 -594 -555 0
-510 -594 -556 0
-511 570 0
-511 594 488 536 556 0
-511 -594 -488 0
-511 -594 -536 0
-511 -594 -556 0
-512 571 0
-512 594 0
-513 594 490 491 492 534 535 536 538 539 540 554 555 556 558 559 560 0
-513 -594 -490 0
-513 -594 -491 0
-513 -594 -492 0
-513 -594 -534 0
-513 -594 -535 0
-513 -594 -536 0
-513 -594 -538 0
-513 -594 -539 0
-513 -594 -540 0
-513 -594 -554 0
-513 -594 -555 0
-513 -594 -556 0
-513 -594 -558 0
-513 -594 -559 0
-513 -594 -560 0
-514 573 0
-514 594 491 492 535 536 539 540 555 556 559 560 0
-514 -594 -491 0
-514 -594 -492 0
-514 -594 -535 0
-514 -594 -536 0
-514 -594 -539 0
-514 -594 -540 0
-514 -594 -555 0
-514 -594 -556 0
-514 -594 -559 0
-514 -594 -560 0
-515 574 0
-515 594 492 536 540 556 560 0
-515 -594 -492 0
-515 -594 -536 0
-515 -594 -540 0
-515 -594 -556 0
-515 -594 -560 0
-516 575 0
-516 594 0
-517 594 494 495 496 538 539 540 542 543 544 554 555 556 558 559 560 562 563 564 0
-517 -594 -494 0
-517 -594 -495 0
-517 -594 -496 0
-517 -594 -538 0
-517 -594 -539 0
-517 -594 -540 0
-517 -594 -542 0
-517 -594 -543 0
-517 -594 -544 0
-517 -594 -554 0
-517 -594 -555 0
-517 -594 -556 0
-517 -594 -558 0
-517 -594 -559 0
-517 -594 -560 0
-517 -594 -562 0
-517 -594 -563 0
-517 -594 -564 0
-518 577 0
-518 594 495 496 539 540 543 544 555 556 559 560 563 564 0
-518 -594 -495 0
-518 -594 -496 0
-518 -594 -539 0
-518 -594 -540 0
-518 -594 -543 0
-518 -594 -544 0
-518 -594 -555 0
-518 -594 -556 0
-518 -594 -559 0
-518 -594 -560 0
-518 -594 -563 0
-518 -594 -564 0
-519 578 0
-519 594 496 540 544 556 560 564 0
-519 -594 -496 0
-519 -594 -540 0
-519 -594 -544 0
-519 -594 -556 0
-519 -594 -560 0
-519 -594 -564 0
-520 579 0
-520 594 0
-521 594 498 499 500 542 543 544 546 547 548 558 559 560 562 563 564 566 567 568 0
-521 -594 -498 0
-521 -594 -499 0
-521 -594 -500 0
-521 -594 -542 0
-521 -594 -543 0
-521 -594 -544 0
-521 -594 -546 0
-521 -594 -547 0
-521 -594 -548 0
-521 -594 -558 0
-521 -594 -559 0
-521 -594 -560 0
-521 -594 -562 0
-521 -594 -563 0
-521 -594 -564 0
-521 -594 -566 0
-521 -594 -567 0
-521 -594 -568 0
-522 581 0
-522 594 499 500 543 544 547 548 559 560 563 564 567 568 0
-522 -594 -499 0
-522 -594 -500 0
-522 -594 -543 0
-522 -594 -544 0
-522 -594 -547 0
-522 -594 -548 0
-522 -594 -559 0
-522 -594 -560 0
-522 -594 -563 0
-522 -594 -564 0
-522 -594 -567 0
-522 -594 -568 0
-523 582 0
-523 594 500 544 548 560 564 568 0
-523 -594 -500 0
-523 -594 -544 0
-523 -594 -548 0
-523 -594 -560 0
-523 -594 -564 0
-523 -594 -568 0
-524 583 0
-524 594 0
-525 594 502 503 504 546 547 548 550 551 552 562 563 564 566 567 568 0
-525 -594 -502 0
-525 -594 -503 0
-525 -594 -504 0
-525 -594 -546 0
-525 -594 -547 0
-525 -594 -548 0
-525 -594 -550 0
-525 -594 -551 0
-525 -594 -552 0
-525 -594 -562 0
-525 -594 -563 0
-525 -594 -564 0
-525 -594 -566 0
-525 -594 -567 0
-525 -594 -568 0
-526 585 0
-526 594 503 504 547 548 551 552 563 564 567 568 0
-526 -594 -503 0
-526 -594 -504 0
-526 -594 -547 0
-526 -594 -548 0
-526 -594 -551 0
-526 -594 -552 0
-526 -594 -563 0
-526 -594 -564 0
-526 -594 -567 0
-526 -594 -568 0
-527 586 0
-527 594 504 548 552 564 568 0
-527 -594 -504 0
-527 -594 -548 0
-527 -594 -552 0
-527 -594 -564 0
-527 -594 -568 0
-528 587 0
-528 594 0
-529 594 506 507 508 550 551 552 566 567 568 0
-529 -594 -506 0
-529 -594 -507 0
-529 -594 -508 0
-529 -594 -550 0
-529 -594 -551 0
-529 -594 -552 0
-529 -594 -566 0
-529 -594 -567 0
-529 -594 -568 0
-530 589 0
-530 594 507 508 551 552 567 568 0
-530 -594 -507 0
-530 -594 -508 0
-530 -594 -551 0
-530 -594 -552 0
-530 -594 -567 0
-530 -594 -568 0
-531 590 0
-531 594 508 552 568 0
-531 -594 -508 0
-531 -594 -552 0
-531 -594 -568 0
-532 591 0
-532 594 0
-533 595 486 487 488 490 491 492 510 511 512 514 515 516 554 555 556 558 559 560 0
-533 -595 -486 0
-533 -595 -487 0
-533 -595 -488 0
-533 -595 -490 0
-533 -595 -491 0
-533 -595 -492 0
-533 -595 -510 0
-533 -595 -511 0
-533 -595 -512 0
-533 -595 -514 0
-533 -595 -515 0
-533 -595 -516 0
-533 -595 -554 0
-533 -595 -555 0
-533 -595 -556 0
-533 -595 -558 0
-533 -595 -559 0
-533 -595 -560 0
-534 569 573 0
-534 595 487 488 491 492 511 512 515 516 555 556 559 560 0
-534 -595 -487 0
-534 -595 -488 0
-534 -595 -491 0
-534 -595 -492 0
-534 -595 -511 0
-534 -595 -512 0
-534 -595 -515 0
-534 -595 -516 0
-534 -595 -555 0
-534 -595 -556 0
-534 -595 -559 0
-534 -595 -560 0
-535 570 574 0
-535 595 488 492 512 516 556 560 0
-535 -595 -488 0
-535 -595 -492 0
-535 -595 -512 0
-535 -595 -516 0
-535 -595 -556 0
-535 -595 -560 0
-536 571 575 0
-536 595 0
-537 595 490 491 492 494 495 496 514 515 516 518 519 520 554 555 556 558 559 560 562 563 564 0
-537 -595 -490 0
-537 -595 -491 0
-537 -595 -492 0
-537 -595 -494 0
-537 -595 -495 0
-537 -595 -496 0
-537 -595 -514 0
-537 -595 -515 0
-537 -595 -516 0
-537 -595 -518 0
-537 -595 -519 0
-537 -595 -520 0
-537 -595 -554 0
-537 -595 -555 0
-537 -595 -556 0
-537 -595 -558 0
-537 -595 -559 0
-537 -595 -560 0
-537 -595 -562 0
-537 -595 -563 0
-537 -595 -564 0
-538 573 577 0
-538 595 491 492 495 496 515 516 519 520 555 556 559 560 563 564 0
-538 -595 -491 0
-538 -595 -492 0
-538 -595 -495 0
-538 -595 -496 0
-538 -595 -515 0
-538 -595 -516 0
-538 -595 -519 0
-538 -595 -520 0
-538 -595 -555 0
-538 -595 -556 0
-538 -595 -559 0
-538 -595 -560 0
-538 -595 -563 0
-538 -595 -564 0
-539 574 578 0
-539 595 492 496 516 520 556 560 564 0
-539 -595 -492 0
-539 -595 -496 0
-539 -595 -516 0
-539 -595 -520 0
-539 -595 -556 0
-539 -595 -560 0
-539 -595 -564 0
-540 575 579 0
-540 595 0
-541 595 494 495 496 498 499 500 518 519 520 522 523 524 554 555 556 558 559 560 562 563 564 566 567 568 0
-541 -595 -494 0
-541 -595 -495 0
-541 -595 -496 0
-541 -595 -498 0
-541 -595 -499 0
-541 -595 -500 0
-541 -595 -518 0
-541 -595 -519 0
-541 -595 -520 0
-541 -595 -522 0
-541 -595 -523 0
-541 -595 -524 0
-541 -595 -554 0
-541 -595 -555 0
-541 -595 -556 0
-541 -595 -558 0
-541 -595 -559 0
-541 -595 -560 0
-541 -595 -562 0
-541 -595 -563 0
-541 -595 -564 0
-541 -595 -566 0
-541 -595 -567 0
-541 -595 -568 0
-542 577 581 0
-542 595 495 496 499 500 519 520 523 524 555 556 559 560 563 564 567 568 0
-542 -595 -495 0
-542 -595 -496 0
-542 -595 -499 0
-542 -595 -500 0
-542 -595 -519 0
-542 -595 -520 0
-542 -595 -523 0
-542 -595 -524 0
-542 -595 -555 0
-542 -595 -556 0
-542 -595 -559 0
-542 -595 -560 0
-542 -595 -563 0
-542 -595 -564 0
-542 -595 -567 0
-542 -595 -568 0
-543 578 582 0
-543 595 496 500 520 524 556 560 564 568 0
-543 -595 -496 0
-543 -595 -500 0
-543 -595 -520 0
-543 -595 -524 0
-543 -595 -556 0
-543 -595 -560 0
-543 -595 -564 0
-543 -595 -568 0
-544 579 583 0
-544 595 0
-545 595 498 499 500 502 503 504 522 523 524 526 527 528 558 559 560 562 563 564 566 567 568 0
-545 -595 -498 0
-545 -595 -499 0
-545 -595 -500 0
-545 -595 -502 0
-545 -595 -503 0
-545 -595 -504 0
-545 -595 -522 0
-545 -595 -523 0
-545 -595 -524 0
-545 -595 -526 0
-545 -595 -527 0
-545 -595 -528 0
-545 -595 -558 0
-545 -595 -559 0
-545 -595 -560 0
-545 -595 -562 0
-545 -595 -563 0
-545 -595 -564 0
-545 -595 -566 0
-545 -595 -567 0
-545 -595 -568 0
-546 581 585 0
-546 595 499 500 503 504 523 524 527 528 559 560 563 564 567 568 0
-546 -595 -499 0
-546 -595 -500 0
-546 -595 -503 0
-546 -595 -504 0
-546 -595 -523 0
-546 -595 -524 0
-546 -595 -527 0
-546 -595 -528 0
-546 -595 -559 0
-546 -595 -560 0
-546 -595 -563 0
-546 -595 -564 0
-546 -595 -567 0
-546 -595 -568 0
-547 582 586 0
-547 595 500 504 524 528 560 564 568 0
-547 -595 -500 0
-547 -595 -504 0
-547 -595 -524 0
-547 -595 -528 0
-547 -595 -560 0
-547 -595 -564 0
-547 -595 -568 0
-548 583 587 0
-548 595 0
-549 595 502 503 504 506 507 508 526 527 528 530 531 532 562 563 564 566 567 568 0
-549 -595 -502 0
-549 -595 -503 0
-549 -595 -504 0
-549 -595 -506 0
-549 -595 -507 0
-549 -595 -508 0
-549 -595 -526 0
-549 -595 -527 0
-549 -595 -528 0
-549 -595 -530 0
-549 -595 -531 0
-549 -595 -532 0
-549 -595 -562 0
-549 -595 -563 0
-549 -595 -564 0
-549 -595 -566 0
-549 -595 -567 0
-549 -595 -568 0
-550 585 589 0
-550 595 503 504 507 508 527 528 531 532 563 564 567 568 0
-550 -595 -503 0
-550 -595 -504 0
-550 -595 -507 0
-550 -595 -508 0
-550 -595 -527 0
-550 -595 -528 0
-550 -595 -531 0
-550 -595 -532 0
-550 -595 -563 0
-550 -595 -564 0
-550 -595 -567 0
-550 -595 -568 0
-551 586 590 0
-551 595 504 508 528 532 564 568 0
-551 -595 -504 0
-551 -595 -508 0
-551 -595 -528 0
-551 -595 -532 0
-551 -595 -564 0
-551 -595 -568 0
-552 587 591 0
-552 595 0
-553 596 486 487 488 490 491 492 494 495 496 510 511 512 514 515 516 518 519 520 534 535 536 538 539 540 542 543 544 0
-553 -596 -486 0
-553 -596 -487 0
-553 -596 -488 0
-553 -596 -490 0
-553 -596 -491 0
-553 -596 -492 0
-553 -596 -494 0
-553 -596 -495 0
-553 -596 -496 0
-553 -596 -510 0
-553 -596 -511 0
-553 -596 -512 0
-553 -596 -514 0
-553 -596 -515 0
-553 -596 -516 0
-553 -596 -518 0
-553 -596 -519 0
-553 -596 -520 0
-553 -596 -534 0
-553 -596 -535 0
-553 -596 -536 0
-553 -596 -538 0
-553 -596 -539 0
-553 -596 -540 0
-553 -596 -542 0
-553 -596 -543 0
-553 -596 -544 0
-554 569 573 0
-554 569 577 0
-554 573 577 0
-554 596 487 488 491 492 495 496 511 512 515 516 519 520 535 536 539 540 543 544 0
-554 -596 -487 0
-554 -596 -488 0
-554 -596 -491 0
-554 -596 -492 0
-554 -596 -495 0
-554 -596 -496 0
-554 -596 -511 0
-554 -596 -512 0
-554 -596 -515 0
-554 -596 -516 0
-554 -596 -519 0
-554 -596 -520 0
-554 -596 -535 0
-554 -596 -536 0
-554 -596 -539 0
-554 -596 -540 0
-554 -596 -543 0
-554 -596 -544 0
-555 570 574 0
-555 570 578 0
-555 574 578 0
-555 596 488 492 496 512 516 520 536 540 544 0
-555 -596 -488 0
-555 -596 -492 0
-555 -596 -496 0
-555 -596 -512 0
-555 -596 -516 0
-555 -596 -520 0
-555 -596 -536 0
-555 -596 -540 0
-555 -596 -544 0
-556 571 575 0
-556 571 579 0
-556 575 579 0
-556 596 0
-557 596 490 491 492 494 495 496 498 499 500 514 515 516 518 519 520 522 523 524 534 535 536 538 539 540 542 543 544 546 547 548 0
-557 -596 -490 0
-557 -596 -491 0
-557 -596 -492 0
-557 -596 -494 0
-557 -596 -495 0
-557 -596 -496 0
-557 -596 -498 0
-557 -596 -499 0
-557 -596 -500 0
-557 -596 -514 0
-557 -596 -515 0
-557 -596 -516 0
-557 -596 -518 0
-557 -596 -519 0
-557 -596 -520 0
-557 -596 -522 0
-557 -596 -523 0
-557 -596 -524 0
-557 -596 -534 0
-557 -596 -535 0
-557 -596 -536 0
-557 -596 -538 0
-557 -596 -539 0
-557 -596 -540 0
-557 -596 -542 0
-557 -596 -543 0
-557 -596 -544 0
-557 -596 -546 0
-557 -596 -547 0
-557 -596 -548 0
-558 573 577 0
-558 573 581 0
-558 577 581 0
-558 596 491 492 495 496 499 500 515 516 519 520 523 524 535 536 539 540 543 544 547 548 0
-558 -596 -491 0
-558 -596 -492 0
-558 -596 -495 0
-558 -596 -496 0
-558 -596 -499 0
-558 -596 -500 0
-558 -596 -515 0
-558 -596 -516 0
-558 -596 -519 0
-558 -596 -520 0
-558 -596 -523 0
-558 -596 -524 0
-558 -596 -535 0
-558 -596 -536 0
-558 -596 -539 0
-558 -596 -540 0
-558 -596 -543 0
-558 -596 -544 0
-558 -596 -547 0
-558 -596 -548 0
-559 574 578 0
-559 574 582 0
-559 578 582 0
-559 596 492 496 500 516 520 524 536 540 544 548 0
-559 -596 -492 0
-559 -596 -496 0
-559 -596 -500 0
-559 -596 -516 0
-559 -596 -520 0
-559 -596 -524 0
-559 -596 -536 0
-559 -596 -540 0
-559 -596 -544 0
-559 -596 -548 0
-560 575 579 0
-560 575 583 0
-560 579 583 0
-560 596 0
-561 596 494 495 496 498 499 500 502 503 504 518 519 520 522 523 524 526 527 528 538 539 540 542 543 544 546 547 548 550 551 552 0
-561 -596 -494 0
-561 -596 -495 0
-561 -596 -496 0
-561 -596 -498 0
-561 -596 -499 0
-561 -596 -500 0
-561 -596 -502 0
-561 -596 -503 0
-561 -596 -504 0
-561 -596 -518 0
-561 -596 -519 0
-561 -596 -520 0
-561 -596 -522 0
-561 -596 -523 0
-561 -596 -524 0
-561 -596 -526 0
-561 -596 -527 0
-561 -596 -528 0
-561 -596 -538 0
-561 -596 -539 0
-561 -596 -540 0
-561 -596 -542 0
-561 -596 -543 0
-561 -596 -544 0
-561 -596 -546 0
-561 -596 -547 0
-561 -596 -548 0
-561 -596 -550 0
-561 -596 -551 0
-561 -596 -552 0
-562 577 581 0
-562 577 585 0
-562 581 585 0
-562 596 495 496 499 500 503 504 519 520 523 524 527 528 539 540 543 544 547 548 551 552 0
-562 -596 -495 0
-562 -596 -496 0
-562 -596 -499 0
-562 -596 -500 0
-562 -596 -503 0
-562 -596 -504 0
-562 -596 -519 0
-562 -596 -520 0
-562 -596 -523 0
-562 -596 -524 0
-562 -596 -527 0
-562 -596 -528 0
-562 -596 -539 0
-562 -596 -540 0
-562 -596 -543 0
-562 -596 -544 0
-562 -596 -547 0
-562 -596 -548 0
-562 -596 -551 0
-562 -596 -552 0
-563 578 582 0
-563 578 586 0
-563 582 586 0
-563 596 496 500 504 520 524 528 540 544 548 552 0
-563 -596 -496 0
-563 -596 -500 0
-563 -596 -504 0
-563 -596 -520 0
-563 -596 -524 0
-563 -596 -528 0
-563 -596 -540 0
-563 -596 -544 0
-563 -596 -548 0
-563 -596 -552 0
-564 579 583 0
-564 579 587 0
-564 583 587 0
-564 596 0
-565 596 498 499 500 502 503 504 506 507 508 522 523 524 526 527 528 530 531 532 542 543 544 546 547 548 550 551 552 0
-565 -596 -498 0
-565 -596 -499 0
-565 -596 -500 0
-565 -596 -502 0
-565 -596 -503 0
-565 -596 -504 0
-565 -596 -506 0
-565 -596 -507 0
-565 -596 -508 0
-565 -596 -522 0
-565 -596 -523 0
-565 -596 -524 0
-565 -596 -526 0
-565 -596 -527 0
-565 -596 -528 0
-565 -596 -530 0
-565 -596 -531 0
-565 -596 -532 0
-565 -596 -542 0
-565 -596 -543 0
-565 -596 -544 0
-565 -596 -546 0
-565 -596 -547 0
-565 -596 -548 0
-565 -596 -550 0
-565 -596 -551 0
-565 -596 -552 0
-566 581 585 0
-566 581 589 0
-566 585 589 0
-566 596 499 500 503 504 507 508 523 524 527 528 531 532 543 544 547 548 551 552 0
-566 -596 -499 0
-566 -596 -500 0
-566 -596 -503 0
-566 -596 -504 0
-566 -596 -507 0
-566 -596 -508 0
-566 -596 -523 0
-566 -596 -524 0
-566 -596 -527 0
-566 -596 -528 0
-566 -596 -531 0
-566 -596 -532 0
-566 -596 -543 0
-566 -596 -544 0
-566 -596 -547 0
-566 -596 -548 0
-566 -596 -551 0
-566 -596 -552 0
-567 582 586 0
-567 582 590 0
-567 586 590 0
-567 596 500 504 508 524 528 532 544 548 552 0
-567 -596 -500 0
-567 -596 -504 0
-567 -596 -508 0
-567 -596 -524 0
-567 -596 -528 0
-567 -596 -532 0
-567 -596 -544 0
-567 -596 -548 0
-567 -596 -552 0
-568 583 587 0
-568 583 591 0
-568 587 591 0
-568 596 0
597 598 599 600 601 602 0
-597 -598 0
-597 -599 0
-597 -600 0
-597 -601 0
-597 -602 0
-598 -599 0
-598 -600 0
-598 -601 0
-598 -602 0
-599 -600 0
-599 -601 0
-599 -602 0
-600 -601 0
-600 -602 0
-601 -602 0
603 604 605 606 0
-603 -604 0
-603 -605 0
-603 -606 0
-604 -605 0
-604 -606 0
-605 -606 0
607 608 609 610 611 612 0
-607 -608 0
-607 -609 0
-607 -610 0
-607 -611 0
-607 -612 0
-608 -609 0
-608 -610 0
-608 -611 0
-608 -612 0
-609 -610 0
-609 -611 0
-609 -612 0
-610 -611 0
-610 -612 0
-611 -612 0
613 614 615 616 0
-613 -614 0
-613 -615 0
-613 -616 0
-614 -615 0
-614 -616 0
-615 -616 0
617 618 619 620 621 0
-617 -618 0
-617 -619 0
-617 -620 0
-617 -621 0
-618 -619 0
-618 -620 0
-618 -621 0
-619 -620 0
-619 -621 0
-620 -621 0
622 623 624 625 0
-622 -623 0
-622 -624 0
-622 -625 0
-623 -624 0
-623 -625 0
-624 -625 0
626 627 628 629 0
-626 -627 0
-626 -628 0
-626 -629 0
-627 -628 0
-627 -629 0
-628 -629 0
630 631 632 633 0
-630 -631 0
-630 -632 0
-630 -633 0
-631 -632 0
-631 -633 0
-632 -633 0
-634 597 0
-634 603 0
-597 -603 634 0
-635 597 0
-635 604 0
-597 -604 635 0
-636 597 0
-636 605 0
-597 -605 636 0
-637 597 0
-637 606 0
-597 -606 637 0
-638 598 0
-638 603 0
-598 -603 638 0
-639 598 0
-639 604 0
-598 -604 639 0
-640 598 0
-640 605 0
-598 -605 640 0
-641 598 0
-641 606 0
-598 -606 641 0
-642 599 0
-642 603 0
-599 -603 642 0
-643 599 0
-643 604 0
-599 -604 643 0
-644 599 0
-644 605 0
-599 -605 644 0
-645 599 0
-645 606 0
-599 -606 645 0
-646 600 0
-646 603 0
-600 -603 646 0
-647 600 0
-647 604 0
-600 -604 647 0
-648 600 0
-648 605 0
-600 -605 648 0
-649 600 0
-649 606 0
-600 -606 649 0
-650 601 0
-650 603 0
-601 -603 650 0
-651 601 0
-651 604 0
-601 -604 651 0
-652 601 0
-652 605 0
-601 -605 652 0
-653 601 0
-653 606 0
-601 -606 653 0
-654 602 0
-654 603 0
-602 -603 654 0
-655 602 0
-655 604 0
-602 -604 655 0
-656 602 0
-656 605 0
-602 -605 656 0
-657 602 0
-657 606 0
-602 -606 657 0
-658 607 0
-658 613 0
-607 -613 658 0
-659 607 0
-659 614 0
-607 -614 659 0
-660 607 0
-660 615 0
-607 -615 660 0
-661 607 0
-661 616 0
-607 -616 661 0
-662 608 0
-662 613 0
-608 -613 662 0
-663 608 0
-663 614 0
-608 -614 663 0
-664 608 0
-664 615 0
-608 -615 664 0
-665 608 0
-665 616 0
-608 -616 665 0
-666 609 0
-666 613 0
-609 -613 666 0
-667 609 0
-667 614 0
-609 -614 667 0
-668 609 0
-668 615 0
-609 -615 668 0
-669 609 0
-669 616 0
-609 -616 669 0
-670 610 0
-670 613 0
-610 -613 670 0
-671 610 0
-671 614 0
-610 -614 671 0
-672 610 0
-672 615 0
-610 -615 672 0
-673 610 0
-673 616 0
-610 -616 673 0
-674 611 0
-674 613 0
-611 -613 674 0
-675 611 0
-675 614 0
-611 -614 675 0
-676 611 0
-676 615 0
-611 -615 676 0
-677 611 0
-677 616 0
-611 -616 677 0
-678 612 0
-678 613 0
-612 -613 678 0
-679 612 0
-679 614 0
-612 -614 679 0
-680 612 0
-680 615 0
-612 -615 680 0
-681 612 0
-681 616 0
-612 -616 681 0
-682 617 0
-682 622 0
-617 -622 682 0
-683 617 0
-683 623 0
-617 -623 683 0
-684 617 0
-684 624 0
-617 -624 684 0
-685 617 0
-685 625 0
-617 -625 685 0
-686 618 0
-686 622 0
-618 -622 686 0
-687 618 0
-687 623 0
-618 -623 687 0
-688 618 0
-688 624 0
-618 -624 688 0
-689 618 0
-689 625 0
-618 -625 689 0
-690 619 0
-690 622 0
-619 -622 690 0
-691 619 0
-691 623 0
-619 -623 691 0
-692 619 0
-692 624 0
-619 -624 692 0
-693 619 0
-693 625 0
-619 -625 693 0
-694 620 0
-694 622 0
-620 -622 694 0
-695 620 0
-695 623 0
-620 -623 695 0
-696 620 0
-696 624 0
-620 -624 696 0
-697 620 0
-697 625 0
-620 -625 697 0
-698 621 0
-698 622 0
-621 -622 698 0
-699 621 0
-699 623 0
-621 -623 699 0
-700 621 0
-700 624 0
-621 -624 700 0
-701 621 0
-701 625 0
-621 -625 701 0
-702 626 0
-702 630 0
-626 -630 702 0
-703 626 0
-703 631 0
-626 -631 703 0
-704 626 0
-704 632 0
-626 -632 704 0
-705 626 0
-705 633 0
-626 -633 705 0
-706 627 0
-706 630 0
-627 -630 706 0
-707 627 0
-707 631 0
-627 -631 707 0
-708 627 0
-708 632 0
-627 -632 708 0
-709 627 0
-709 633 0
-627 -633 709 0
-710 628 0
-710 630 0
-628 -630 710 0
-711 628 0
-711 631 0
-628 -631 711 0
-712 628 0
-712 632 0
-628 -632 712 0
-713 628 0
-713 633 0
-628 -633 713 0
-714 629 0
-714 630 0
-629 -630 714 0
-715 629 0
-715 631 0
-629 -631 715 0
-716 629 0
-716 632 0
-629 -632 716 0
-717 629 0
-717 633 0
-629 -633 717 0
-718 634 658 682 702 0
-634 718 0
-658 718 0
-682 718 0
-702 718 0
-719 635 659 683 703 0
-635 719 0
-659 719 0
-683 719 0
-703 719 0
-720 636 660 684 704 0
-636 720 0
-660 720 0
-684 720 0
-704 720 0
-721 637 661 685 705 0
-637 721 0
-661 721 0
-685 721 0
-705 721 0
-722 638 662 682 686 702 706 0
-638 722 0
-662 722 0
-682 722 0
-686 722 0
-702 722 0
-706 722 0
-723 639 663 683 687 703 707 0
-639 723 0
-663 723 0
-683 723 0
-687 723 0
-703 723 0
-707 723 0
-724 640 664 684 688 704 708 0
-640 724 0
-664 724 0
-684 724 0
-688 724 0
-704 724 0
-708 724 0
-725 641 665 685 689 705 709 0
-641 725 0
-665 725 0
-685 725 0
-689 725 0
-705 725 0
-709 725 0
-726 642 666 686 690 702 706 710 0
-642 726 0
-666 726 0
-686 726 0
-690 726 0
-702 726 0
-706 726 0
-710 726 0
-727 643 667 687 691 703 707 711 0
-643 727 0
-667 727 0
-687 727 0
-691 727 0
-703 727 0
-707 727 0
-711 727 0
-728 644 668 688 692 704 708 712 0
-644 728 0
-668 728 0
-688 728 0
-692 728 0
-704 728 0
-708 728 0
-712 728 0
-729 645 669 689 693 705 709 713 0
-645 729 0
-669 729 0
-689 729 0
-693 729 0
-705 729 0
-709 729 0
-713 729 0
-730 646 670 690 694 706 710 714 0
-646 730 0
-670 730 0
-690 730 0
-694 730 0
-706 730 0
-710 730 0
-714 730 0
-731 647 671 691 695 707 711 715 0
-647 731 0
-671 731 0
-691 731 0
-695 731 0
-707 731 0
-711 731 0
-715 731 0
-732 648 672 692 696 708 712 716 0
-648 732 0
-672 732 0
-692 732 0
-696 732 0
-708 732 0
-712 732 0
-716 732 0
-733 649 673 693 697 709 713 717 0
-649 733 0
-673 733 0
-693 733 0
-697 733 0
-709 733 0
-713 733 0
-717 733 0
-734 650 674 694 698 710 714 0
-650 734 0
-674 734 0
-694 734 0
-698 734 0
-710 734 0
-714 734 0
-735 651 675 695 699 711 715 0
-651 735 0
-675 735 0
-695 735 0
-699 735 0
-711 735 0
-715 735 0
-736 652 676 696 700 712 716 0
-652 736 0
-676 736 0
-696 736 0
-700 736 0
-712 736 0
-716 736 0
-737 653 677 697 701 713 717 0
-653 737 0
-677 737 0
-697 737 0
-701 737 0
-713 737 0
-717 737 0
-738 654 678 698 714 0
-654 738 0
-678 738 0
-698 738 0
-714 738 0
-739 655 679 699 715 0
-655 739 0
-679 739 0
-699 739 0
-715 739 0
-740 656 680 700 716 0
-656 740 0
-680 740 0
-700 740 0
-716 740 0
-741 657 681 701 717 0
-657 741 0
-681 741 0
-701 741 0
-717 741 0
-634 -658 0
-634 -682 0
-634 -702 0
-635 -659 0
-635 -683 0
-635 -703 0
-636 -660 0
-636 -684 0
-636 -704 0
-637 -661 0
-637 -685 0
-637 -705 0
-638 -662 0
-638 -682 0
-638 -686 0
-638 -702 0
-638 -706 0
-639 -663 0
-639 -683 0
-639 -687 0
-639 -703 0
-639 -707 0
-640 -664 0
-640 -684 0
-640 -688 0
-640 -704 0
-640 -708 0
-641 -665 0
-641 -685 0
-641 -689 0
-641 -705 0
-641 -709 0
-642 -666 0
-642 -686 0
-642 -690 0
-642 -702 0
-642 -706 0
-642 -710 0
-643 -667 0
-643 -687 0
-643 -691 0
-643 -703 0
-643 -707 0
-643 -711 0
-644 -668 0
-644 -688 0
-644 -692 0
-644 -704 0
-644 -708 0
-644 -712 0
-645 -669 0
-645 -689 0
-645 -693 0
-645 -705 0
-645 -709 0
-645 -713 0
-646 -670 0
-646 -690 0
-646 -694 0
-646 -706 0
-646 -710 0
-646 -714 0
-647 -671 0
-647 -691 0
-647 -695 0
-647 -707 0
-647 -711 0
-647 -715 0
-648 -672 0
-648 -692 0
-648 -696 0
-648 -708 0
-648 -712 0
-648 -716 0
-649 -673 0
-649 -693 0
-649 -697 0
-649 -709 0
-649 -713 0
-649 -717 0
-650 -674 0
-650 -694 0
-650 -698 0
-650 -710 0
-650 -714 0
-651 -675 0
-651 -695 0
-651 -699 0
-651 -711 0
-651 -715 0
-652 -676 0
-652 -696 0
-652 -700 0
-652 -712 0
-652 -716 0
-653 -677 0
-653 -697 0
-653 -701 0
-653 -713 0
-653 -717 0
-654 -678 0
-654 -698 0
-654 -714 0
-655 -679 0
-655 -699 0
-655 -715 0
-656 -680 0
-656 -700 0
-656 -716 0
-657 -681 0
-657 -701 0
-657 -717 0
-658 -682 0
-658 -702 0
-659 -683 0
-659 -703 0
-660 -684 0
-660 -704 0
-661 -685 0
-661 -705 0
-662 -682 0
-662 -686 0
-662 -702 0
-662 -706 0
-663 -683 0
-663 -687 0
-663 -703 0
-663 -707 0
-664 -684 0
-664 -688 0
-664 -704 0
-664 -708 0
-665 -685 0
-665 -689 0
-665 -705 0
-665 -709 0
-666 -686 0
-666 -690 0
-666 -702 0
-666 -706 0
-666 -710 0
-667 -687 0
-667 -691 0
-667 -703 0
-667 -707 0
-667 -711 0
-668 -688 0
-668 -692 0
-668 -704 0
-668 -708 0
-668 -712 0
-669 -689 0
-669 -693 0
-669 -705 0
-669 -709 0
-669 -713 0
-670 -690 0
-670 -694 0
-670 -706 0
-670 -710 0
-670 -714 0
-671 -691 0
-671 -695 0
-671 -707 0
-671 -711 0
-671 -715 0
-672 -692 0
-672 -696 0
-672 -708 0
-672 -712 0
-672 -716 0
-673 -693 0
-673 -697 0
-673 -709 0
-673 -713 0
-673 -717 0
-674 -694 0
-674 -698 0
-674 -710 0
-674 -714 0
-675 -695 0
-675 -699 0
-675 -711 0
-675 -715 0
-676 -696 0
-676 -700 0
-676 -712 0
-676 -716 0
-677 -697 0
-677 -701 0
-677 -713 0
-677 -717 0
-678 -698 0
-678 -714 0
-679 -699 0
-679 -715 0
-680 -700 0
-680 -716 0
-681 -701 0
-681 -717 0
-682 -702 0
-682 -706 0
-683 -703 0
-683 -707 0
-684 -704 0
-684 -708 0
-685 -705 0
-685 -709 0
-686 -702 0
-686 -706 0
-686 -710 0
-687 -703 0
-687 -707 0
-687 -711 0
-688 -704 0
-688 -708 0
-688 -712 0
-689 -705 0
-689 -709 0
-689 -713 0
-690 -702 0
-690 -706 0
-690 -710 0
-690 -714 0
-691 -703 0
-691 -707 0
-691 -711 0
-691 -715 0
-692 -704 0
-692 -708 0
-692 -712 0
-692 -716 0
-693 -705 0
-693 -709 0
-693 -713 0
-693 -717 0
-694 -706 0
-694 -710 0
-694 -714 0
-695 -707 0
-695 -711 0
-695 -715 0
-696 -708 0
-696 -712 0
-696 -716 0
-697 -709 0
-697 -713 0
-697 -717 0
-698 -710 0
-698 -714 0
-699 -711 0
-699 -715 0
-700 -712 0
-700 -716 0
-701 -713 0
-701 -717 0
-634 742 659 660 661 683 684 685 703 704 705 0
-634 -742 -659 0
-634 -742 -660 0
-634 -742 -661 0
-634 -742 -683 0
-634 -742 -684 0
-634 -742 -685 0
-634 -742 -703 0
-634 -742 -704 0
-634 -742 -705 0
-635 718 0
-635 742 660 661 684 685 704 705 0
-635 -742 -660 0
-635 -742 -661 0
-635 -742 -684 0
-635 -742 -685 0
-635 -742 -704 0
-635 -742 -705 0
-636 719 0
-636 742 661 685 705 0
-636 -742 -661 0
-636 -742 -685 0
-636 -742 -705 0
-637 720 0
-637 742 0
-638 742 663 664 665 683 684 685 687 688 689 703 704 705 707 708 709 0
-638 -742 -663 0
-638 -742 -664 0
-638 -742 -665 0
-638 -742 -683 0
-638 -742 -684 0
-638 -742 -685 0
-638 -742 -687 0
-638 -742 -688 0
-638 -742 -689 0
-638 -742 -703 0
-638 -742 -704 0
-638 -742 -705 0
-638 -742 -707 0
-638 -742 -708 0
-638 -742 -709 0
-639 722 0
-639 742 664 665 684 685 688 689 704 705 708 709 0
-639 -742 -664 0
-639 -742 -665 0
-639 -742 -684 0
-639 -742 -685 0
-639 -742 -688 0
-639 -742 -689 0
-639 -742 -704 0
-639 -742 -705 0
-639 -742 -708 0
-639 -742 -709 0
-640 723 0
-640 742 665 685 689 705 709 0
-640 -742 -665 0
-640 -742 -685 0
-640 -742 -689 0
-640 -742 -705 0
-640 -742 -709 0
-641 724 0
-641 742 0
-642 742 667 668 669 687 688 689 691 692 693 703 704 705 707 708 709 711 712 713 0
-642 -742 -667 0
-642 -742 -668 0
-642 -742 -669 0
-642 -742 -687 0
-642 -742 -688 0
-642 -742 -689 0
-642 -742 -691 0
-642 -742 -692 0
-642 -742 -693 0
-642 -742 -703 0
-642 -742 -704 0
-642 -742 -705 0
-642 -742 -707 0
-642 -742 -708 0
-642 -742 -709 0
-642 -742 -711 0
-642 -742 -712 0
-642 -742 -713 0
-643 726 0
-643 742 668 669 688 689 692 693 704 705 708 709 712 713 0
-643 -742 -668 0
-643 -742 -669 0
-643 -742 -688 0
-643 -742 -689 0
-643 -742 -692 0
-643 -742 -693 0
-643 -742 -704 0
-643 -742 -705 0
-643 -742 -708 0
-643 -742 -709 0
-643 -742 -712 0
-643 -742 -713 0
-644 727 0
-644 742 669 689 693 705 709 713 0
-644 -742 -669 0
-644 -742 -689 0
-644 -742 -693 0
-644 -742 -705 0
-644 -742 -709 0
-644 -742 -713 0
-645 728 0
-645 742 0
-646 742 671 672 673 691 692 693 695 696 697 707 708 709 711 712 713 715 716 717 0
-646 -742 -671 0
-646 -742 -672 0
-646 -742 -673 0
-646 -742 -691 0
-646 -742 -692 0
-646 -742 -693 0
-646 -742 -695 0
-646 -742 -696 0
-646 -742 -697 0
-646 -742 -707 0
-646 -742 -708 0
-646 -742 -709 0
-646 -742 -711 0
-646 -742 -712 0
-646 -742 -713 0
-646 -742 -715 0
-646 -742 -716 0
-646 -742 -717 0
-647 730 0
-647 742 672 673 692 693 696 697 708 709 712 713 716 717 0
-647 -742 -672 0
-647 -742 -673 0
-647 -742 -692 0
-647 -742 -693 0
-647 -742 -696 0
-647 -742 -697 0
-647 -742 -708 0
-647 -742 -709 0
-647 -742 -712 0
-647 -742 -713 0
-647 -742 -716 0
-647 -742 -717 0
-648 731 0
-648 742 673 693 697 709 713 717 0
-648 -742 -673 0
-648 -742 -693 0
-648 -742 -697 0
-648 -742 -709 0
-648 -742 -713 0
-648 -742 -717 0
-649 732 0
-649 742 0
-650 742 675 676 677 695 696 697 699 700 701 711 712 713 715 716 717 0
-650 -742 -675 0
-650 -742 -676 0
-650 -742 -677 0
-650 -742 -695 0
-650 -742 -696 0
-650 -742 -697 0
-650 -742 -699 0
-650 -742 -700 0
-650 -742 -701 0
-650 -742 -711 0
-650 -742 -712 0
-650 -742 -713 0
-650 -742 -715 0
-650 -742 -716 0
-650 -742 -717 0
-651 734 0
-651 742 676 677 696 697 700 701 712 713 716 717 0
-651 -742 -676 0
-651 -742 -677 0
-651 -742 -696 0
-651 -742 -697 0
-651 -742 -700 0
-651 -742 -701 0
-651 -742 -712 0
-651 -742 -713 0
-651 -742 -716 0
-651 -742 -717 0
-652 735 0
-652 742 677 697 701 713 717 0
-652 -742 -677 0
-652 -742 -697 0
-652 -742 -701 0
-652 -742 -713 0
-652 -742 -717 0
-653 736 0
-653 742 0
-654 742 679 680 681 699 700 701 715 716 717 0
-654 -742 -679 0
-654 -742 -680 0
-654 -742 -681 0
-654 -742 -699 0
-654 -742 -700 0
-654 -742 -701 0
-654 -742 -715 0
-654 -742 -716 0
-654 -742 -717 0
-655 738 0
-655 742 680 681 700 701 716 717 0
-655 -742 -680 0
-655 -742 -681 0
-655 -742 -700 0
-655 -742 -701 0
-655 -742 -716 0
-655 -742 -717 0
-656 739 0
-656 742 681 701 717 0
-656 -742 -681 0
-656 -742 -701 0
-656 -742 -717 0
-657 740 0
-657 742 0
-658 743 635 636 637 683 684 685 703 704 705 0
-658 -743 -635 0
-658 -743 -636 0
-658 -743 -637 0
-658 -743 -683 0
-658 -743 -684 0
-658 -743 -685 0
-658 -743 -703 0
-658 -743 -704 0
-658 -743 -705 0
-659 718 0
-659 743 636 637 684 685 704 705 0
-659 -743 -636 0
-659 -743 -637 0
-659 -743 -684 0
-659 -743 -685 0
-659 -743 -704 0
-659 -743 -705 0
-660 719 0
-660 743 637 685 705 0
-660 -743 -637 0
-660 -743 -685 0
-660 -743 -705 0
-661 720 0
-661 743 0
-662 743 639 640 641 683 684 685 687 688 689 703 704 705 707 708 709 0
-662 -743 -639 0
-662 -743 -640 0
-662 -743 -641 0
-662 -743 -683 0
-662 -743 -684 0
-662 -743 -685 0
-662 -743 -687 0
-662 -743 -688 0
-662 -743 -689 0
-662 -743 -703 0
-662 -743 -704 0
-662 -743 -705 0
-662 -743 -707 0
-662 -743 -708 0
-662 -743 -709 0
-663 722 0
-663 743 640 641 684 685 688 689 704 705 708 709 0
-663 -743 -640 0
-663 -743 -641 0
-663 -743 -684 0
-663 -743 -685 0
-663 -743 -688 0
-663 -743 -689 0
-663 -743 -704 0
-663 -743 -705 0
-663 -743 -708 0
-663 -743 -709 0
-664 723 0
-664 743 641 685 689 705 709 0
-664 -743 -641 0
-664 -743 -685 0
-664 -743 -689 0
-664 -743 -705 0
-664 -743 -709 0
-665 724 0
-665 743 0
-666 743 643 644 645 687 688 689 691 692 693 703 704 705 707 708 709 711 712 713 0
-666 -743 -643 0
-666 -743 -644 0
-666 -743 -645 0
-666 -743 -687 0
-666 -743 -688 0
-666 -743 -689 0
-666 -743 -691 0
-666 -743 -692 0
-666 -743 -693 0
-666 -743 -703 0
-666 -743 -704 0
-666 -743 -705 0
-666 -743 -707 0
-666 -743 -708 0
-666 -743 -709 0
-666 -743 -711 0
-666 -743 -712 0
-666 -743 -713 0
-667 726 0
-667 743 644 645 688 689 692 693 704 705 708 709 712 713 0
-667 -743 -644 0
-667 -743 -645 0
-667 -743 -688 0
-667 -743 -689 0
-667 -743 -692 0
-667 -743 -693 0
-667 -743 -704 0
-667 -743 -705 0
-667 -743 -708 0
-667 -743 -709 0
-667 -743 -712 0
-667 -743 -713 0
-668 727 0
-668 743 645 689 693 705 709 713 0
-668 -743 -645 0
-668 -743 -689 0
-668 -743 -693 0
-668 -743 -705 0
-668 -743 -709 0
-668 -743 -713 0
-669 728 0
-669 743 0
-670 743 647 648 649 691 692 693 695 696 697 707 708 709 711 712 713 715 716 717 0
-670 -743 -647 0
-670 -743 -648 0
-670 -743 -649 0
-670 -743 -691 0
-670 -743 -692 0
-670 -743 -693 0
-670 -743 -695 0
-670 -743 -696 0
-670 -743 -697 0
-670 -743 -707 0
-670 -743 -708 0
-670 -743 -709 0
-670 -743 -711 0
-670 -743 -712 0
-670 -743 -713 0
-670 -743 -715 0
-670 -743 -716 0
-670 -743 -717 0
-671 730 0
-671 743 648 649 692 693 696 697 708 709 712 713 716 717 0
-671 -743 -648 0
-671 -743 -649 0
-671 -743 -692 0
-671 -743 -693 0
-671 -743 -696 0
-671 -743 -697 0
-671 -743 -708 0
-671 -743 -709 0
-671 -743 -712 0
-671 -743 -713 0
-671 -743 -716 0
-671 -743 -717 0
-672 731 0
-672 743 649 693 697 709 713 717 0
-672 -743 -649 0
-672 -743 -693 0
-672 -743 -697 0
-672 -743 -709 0
-672 -743 -713 0
-672 -743 -717 0
-673 732 0
-673 743 0
-674 743 651 652 653 695 696 697 699 700 701 711 712 713 715 716 717 0
-674 -743 -651 0
-674 -743 -652 0
-674 -743 -653 0
-674 -743 -695 0
-674 -743 -696 0
-674 -743 -697 0
-674 -743 -699 0
-674 -743 -700 0
-674 -743 -701 0
-674 -743 -711 0
-674 -743 -712 0
-674 -743 -713 0
-674 -743 -715 0
-674 -743 -716 0
-674 -743 -717 0
-675 734 0
-675 743 652 653 696 697 700 701 712 713 716 717 0
-675 -743 -652 0
-675 -743 -653 0
-675 -743 -696 0
-675 -743 -697 0
-675 -743 -700 0
-675 -743 -701 0
-675 -743 -712 0
-675 -743 -713 0
-675 -743 -716 0
-675 -743 -717 0
-676 735 0
-676 743 653 697 701 713 717 0
-676 -743 -653 0
-676 -743 -697 0
-676 -743 -701 0
-676 -743 -713 0
-676 -743 -717 0
-677 736 0
-677 743 0
-678 743 655 656 657 699 700 701 715 716 717 0
-678 -743 -655 0
-678 -743 -656 0
-678 -743 -657 0
-678 -743 -699 0
-678 -743 -700 0
-678 -743 -701 0
-678 -743 -715 0
-678 -743 -716 0
-678 -743 -717 0
-679 738 0
-679 743 656 657 700 701 716 717 0
-679 -743 -656 0
-679 -743 -657 0
-679 -743 -700 0
-679 -743 -701 0
-679 -743 -716 0
-679 -743 -717 0
-680 739 0
-680 743 657 701 717 0
-680 -743 -657 0
-680 -743 -701 0
-680 -743 -717 0
-681 740 0
-681 743 0
-682 744 635 636 637 639 640 641 659 660 661 663 664 665 703 704 705 707 708 709 0
-682 -744 -635 0
-682 -744 -636 0
-682 -744 -637 0
-682 -744 -639 0
-682 -744 -640 0
-682 -744 -641 0
-682 -744 -659 0
-682 -744 -660 0
-682 -744 -661 0
-682 -744 -663 0
-682 -744 -664 0
-682 -744 -665 0
-682 -744 -703 0
-682 -744 -704 0
-682 -744 -705 0
-682 -744 -707 0
-682 -744 -708 0
-682 -744 -709 0
-683 718 722 0
-683 744 636 637 640 641 660 661 664 665 704 705 708 709 0
-683 -744 -636 0
-683 -744 -637 0
-683 -744 -640 0
-683 -744 -641 0
-683 -744 -660 0
-683 -744 -661 0
-683 -744 -664 0
-683 -744 -665 0
-683 -744 -704 0
-683 -744 -705 0
-683 -744 -708 0
-683 -744 -709 0
-684 719 723 0
-684 744 637 641 661 665 705 709 0
-684 -744 -637 0
-684 -744 -641 0
-684 -744 -661 0
-684 -744 -665 0
-684 -744 -705 0
-684 -744 -709 0
-685 720 724 0
-685 744 0
-686 744 639 640 641 643 644 645 663 664 665 667 668 669 703 704 705 707 708 709 711 712 713 0
-686 -744 -639 0
-686 -744 -640 0
-686 -744 -641 0
-686 -744 -643 0
-686 -744 -644 0
-686 -744 -645 0
-686 -744 -663 0
-686 -744 -664 0
-686 -744 -665 0
-686 -744 -667 0
-686 -744 -668 0
-686 -744 -669 0
-686 -744 -703 0
-686 -744 -704 0
-686 -744 -705 0
-686 -744 -707 0
-686 -744 -708 0
-686 -744 -709 0
-686 -744 -711 0
-686 -744 -712 0
-686 -744 -713 0
-687 722 726 0
-687 744 640 641 644 645 664 665 668 669 704 705 708 709 712 713 0
-687 -744 -640 0
-687 -744 -641 0
-687 -744 -644 0
-687 -744 -645 0
-687 -744 -664 0
-687 -744 -665 0
-687 -744 -668 0
-687 -744 -669 0
-687 -744 -704 0
-687 -744 -705 0
-687 -744 -708 0
-687 -744 -709 0
-687 -744 -712 0
-687 -744 -713 0
-688 723 727 0
-688 744 641 645 665 669 705 709 713 0
-688 -744 -641 0
-688 -744 -645 0
-688 -744 -665 0
-688 -744 -669 0
-688 -744 -705 0
-688 -744 -709 0
-688 -744 -713 0
-689 724 728 0
-689 744 0
-690 744 643 644 645 647 648 649 667 668 669 671 672 673 703 704 705 707 708 709 711 712 713 715 716 717 0
-690 -744 -643 0
-690 -744 -644 0
-690 -744 -645 0
-690 -744 -647 0
-690 -744 -648 0
-690 -744 -649 0
-690 -744 -667 0
-690 -744 -668 0
-690 -744 -669 0
-690 -744 -671 0
-690 -744 -672 0
-690 -744 -673 0
-690 -744 -703 0
-690 -744 -704 0
-690 -744 -705 0
-690 -744 -707 0
-690 -744 -708 0
-690 -744 -709 0
-690 -744 -711 0
-690 -744 -712 0
-690 -744 -713 0
-690 -744 -715 0
-690 -744 -716 0
-690 -744 -717 0
-691 726 730 0
-691 744 644 645 648 649 668 669 672 673 704 705 708 709 712 713 716 717 0
-691 -744 -644 0
-691 -744 -645 0
-691 -744 -648 0
-691 -744 -649 0
-691 -744 -668 0
-691 -744 -669 0
-691 -744 -672 0
-691 -744 -673 0
-691 -744 -704 0
-691 -744 -705 0
-691 -744 -708 0
-691 -744 -709 0
-691 -744 -712 0
-691 -744 -713 0
-691 -744 -716 0
-691 -744 -717 0
-692 727 731 0
-692 744 645 649 669 673 705 709 713 717 0
-692 -744 -645 0
-692 -744 -649 0
-692 -744 -669 0
-692 -744 -673 0
-692 -744 -705 0
-692 -744 -709 0
-692 -744 -713 0
-692 -744 -717 0
-693 728 732 0
-693 744 0
-694 744 647 648 649 651 652 653 671 672 673 675 676 677 707 708 709 711 712 713 715 716 717 0
-694 -744 -647 0
-694 -744 -648 0
-694 -744 -649 0
-694 -744 -651 0
-694 -744 -652 0
-694 -744 -653 0
-694 -744 -671 0
-694 -744 -672 0
-694 -744 -673 0
-694 -744 -675 0
-694 -744 -676 0
-694 -744 -677 0
-694 -744 -707 0
-694 -744 -708 0
-694 -744 -709 0
-694 -744 -711 0
-694 -744 -712 0
-694 -744 -713 0
-694 -744 -715 0
-694 -744 -716 0
-694 -744 -717 0
-695 730 734 0
-695 744 648 649 652 653 672 673 676 677 708 709 712 713 716 717 0
-695 -744 -648 0
-695 -744 -649 0
-695 -744 -652 0
-695 -744 -653 0
-695 -744 -672 0
-695 -744 -673 0
-695 -744 -676 0
-695 -744 -677 0
-695 -744 -708 0
-695 -744 -709 0
-695 -744 -712 0
-695 -744 -713 0
-695 -744 -716 0
-695 -744 -717 0
-696 731 735 0
-696 744 649 653 673 677 709 713 717 0
-696 -744 -649 0
-696 -744 -653 0
-696 -744 -673 0
-696 -744 -677 0
-696 -744 -709 0
-696 -744 -713 0
-696 -744 -717 0
-697 732 736 0
-697 744 0
-698 744 651 652 653 655 656 657 675 676 677 679 680 681 711 712 713 715 716 717 0
-698 -744 -651 0
-698 -744 -652 0
-698 -744 -653 0
-698 -744 -655 0
-698 -744 -656 0
-698 -744 -657 0
-698 -744 -675 0
-698 -744 -676 0
-698 -744 -677 0
-698 -744 -679 0
-698 -744 -680 0
-698 -744 -681 0
-698 -744 -711 0
-698 -744 -712 0
-698 -744 -713 0
-698 -744 -715 0
-698 -744 -716 0
-698 -744 -717 0
-699 734 738 0
-699 744 652 653 656 657 676 677 680 681 712 713 716 717 0
-699 -744 -652 0
-699 -744 -653 0
-699 -744 -656 0
-699 -744 -657 0
-699 -744 -676 0
-699 -744 -677 0
-699 -744 -680 0
-699 -744 -681 0
-699 -744 -712 0
-699 -744 -713 0
-699 -744 -716 0
-699 -744 -717 0
-700 735 739 0
-700 744 653 657 677 681 713 717 0
-700 -744 -653 0
-700 -744 -657 0
-700 -744 -677 0
-700 -744 -681 0
-700 -744 -713 0
-700 -744 -717 0
-701 736 740 0
-701 744 0
-702 745 635 636 637 639 640 641 643 644 645 659 660 661 663 664 665 667 668 669 683 684 685 687 688 689 691 692 693 0
-702 -745 -635 0
-702 -745 -636 0
-702 -745 -637 0
-702 -745 -639 0
-702 -745 -640 0
-702 -745 -641 0
-702 -745 -643 0
-702 -745 -644 0
-702 -745 -645 0
-702 -745 -659 0
-702 -745 -660 0
-702 -745 -661 0
-702 -745 -663 0
-702 -745 -664 0
-702 -745 -665 0
-702 -745 -667 0
-702 -745 -668 0
-702 -745 -669 0
-702 -745 -683 0
-702 -745 -684 0
-702 -745 -685 0
-702 -745 -687 0
-702 -745 -688 0
-702 -745 -689 0
-702 -745 -691 0
-702 -745 -692 0
-702 -745 -693 0
-703 718 722 0
-703 718 726 0
-703 722 726 0
-703 745 636 637 640 641 644 645 660 661 664 665 668 669 684 685 688 689 692 693 0
-703 -745 -636 0
-703 -745 -637 0
-703 -745 -640 0
-703 -745 -641 0
-703 -745 -644 0
-703 -745 -645 0
-703 -745 -660 0
-703 -745 -661 0
-703 -745 -664 0
-703 -745 -665 0
-703 -745 -668 0
-703 -745 -669 0
-703 -745 -684 0
-703 -745 -685 0
-703 -745 -688 0
-703 -745 -689 0
-703 -745 -692 0
-703 -745 -693 0
-704 719 723 0
-704 719 727 0
-704 723 727 0
-704 745 637 641 645 661 665 669 685 689 693 0
-704 -745 -637 0
-704 -745 -641 0
-704 -745 -645 0
-704 -745 -661 0
-704 -745 -665 0
-704 -745 -669 0
-704 -745 -685 0
-704 -745 -689 0
-704 -745 -693 0
-705 720 724 0
-705 720 728 0
-705 724 728 0
-705 745 0
-706 745 639 640 641 643 644 645 647 648 649 663 664 665 667 668 669 671 672 673 683 684 685 687 688 689 691 692 693 695 696 697 0
-706 -745 -639 0
-706 -745 -640 0
-706 -745 -641 0
-706 -745 -643 0
-706 -745 -644 0
-706 -745 -645 0
-706 -745 -647 0
-706 -745 -648 0
-706 -745 -649 0
-706 -745 -663 0
-706 -745 -664 0
-706 -745 -665 0
-706 -745 -667 0
-706 -745 -668 0
-706 -745 -669 0
-706 -745 -671 0
-706 -745 -672 0
-706 -745 -673 0
-706 -745 -683 0
-706 -745 -684 0
-706 -745 -685 0
-706 -745 -687 0
-706 -745 -688 0
-706 -745 -689 0
-706 -745 -691 0
-706 -745 -692 0
-706 -745 -693 0
-706 -745 -695 0
-706 -745 -696 0
-706 -745 -697 0
-707 722 726 0
-707 722 730 0
-707 726 730 0
-707 745 640 641 644 645 648 649 664 665 668 669 672 673 684 685 688 689 692 693 696 697 0
-707 -745 -640 0
-707 -745 -641 0
-707 -745 -644 0
-707 -745 -645 0
-707 -745 -648 0
-707 -745 -649 0
-707 -745 -664 0
-707 -745 -665 0
-707 -745 -668 0
-707 -745 -669 0
-707 -745 -672 0
-707 -745 -673 0
-707 -745 -684 0
-707 -745 -685 0
-707 -745 -688 0
-707 -745 -689 0
-707 -745 -692 0
-707 -745 -693 0
-707 -745 -696 0
-707 -745 -697 0
-708 723 727 0
-708 723 731 0
-708 727 731 0
-708 745 641 645 649 665 669 673 685 689 693 697 0
-708 -745 -641 0
-708 -745 -645 0
-708 -745 -649 0
-708 -745 -665 0
-708 -745 -669 0
-708 -745 -673 0
-708 -745 -685 0
-708 -745 -689 0
-708 -745 -693 0
-708 -745 -697 0
-709 724 728 0
-709 724 732 0
-709 728 732 0
-709 745 0
-710 745 643 644 645 647 648 649 651 652 653 667 668 669 671 672 673 675 676 677 687 688 689 691 692 693 695 696 697 699 700 701 0
-710 -745 -643 0
-710 -745 -644 0
-710 -745 -645 0
-710 -745 -647 0
-710 -745 -648 0
-710 -745 -649 0
-710 -745 -651 0
-710 -745 -652 0
-710 -745 -653 0
-710 -745 -667 0
-710 -745 -668 0
-710 -745 -669 0
-710 -745 -671 0
-710 -745 -672 0
-710 -745 -673 0
-710 -745 -675 0
-710 -745 -676 0
-710 -745 -677 0
-710 -745 -687 0
-710 -745 -688 0
-710 -745 -689 0
-710 -745 -691 0
-710 -745 -692 0
-710 -745 -693 0
-710 -745 -695 0
-710 -745 -696 0
-710 -745 -697 0
-710 -745 -699 0
-710 -745 -700 0
-710 -745 -701 0
-711 726 730 0
-711 726 734 0
-711 730 734 0
-711 745 644 645 648 649 652 653 668 669 672 673 676 677 688 689 692 693 696 697 700 701 0
-711 -745 -644 0
-711 -745 -645 0
-711 -745 -648 0
-711 -745 -649 0
-711 -745 -652 0
-711 -745 -653 0
-711 -745 -668 0
-711 -745 -669 0
-711 -745 -672 0
-711 -745 -673 0
-711 -745 -676 0
-711 -745 -677 0
-711 -745 -688 0
-711 -745 -689 0
-711 -745 -692 0
-711 -745 -693 0
-711 -745 -696 0
-711 -745 -697 0
-711 -745 -700 0
-711 -745 -701 0
-712 727 731 0
-712 727 735 0
-712 731 735 0
-712 745 645 649 653 669 673 677 689 693 697 701 0
-712 -745 -645 0
-712 -745 -649 0
-712 -745 -653 0
-712 -745 -669 0
-712 -745 -673 0
-712 -745 -677 0
-712 -745 -689 0
-712 -745 -693 0
-712 -745 -697 0
-712 -745 -701 0
-713 728 732 0
-713 728 736 0
-713 732 736 0
-713 745 0
-714 745 647 648 649 651 652 653 655 656 657 671 672 673 675 676 677 679 680 681 691 692 693 695 696 697 699 700 701 0
-714 -745 -647 0
-714 -745 -648 0
-714 -745 -649 0
-714 -745 -651 0
-714 -745 -652 0
-714 -745 -653 0
-714 -745 -655 0
-714 -745 -656 0
-714 -745 -657 0
-714 -745 -671 0
-714 -745 -672 0
-714 -745 -673 0
-714 -745 -675 0
-714 -745 -676 0
-714 -745 -677 0
-714 -745 -679 0
-714 -745 -680 0
-714 -745 -681 0
-714 -745 -691 0
-714 -745 -692 0
-714 -745 -693 0
-714 -745 -695 0
-714 -745 -696 0
-714 -745 -697 0
-714 -745 -699 0
-714 -745 -700 0
-714 -745 -701 0
-715 730 734 0
-715 730 738 0
-715 734 738 0
-715 745 648 649 652 653 656 657 672 673 676 677 680 681 692 693 696 697 700 701 0
-715 -745 -648 0
-715 -745 -649 0
-715 -745 -652 0
-715 -745 -653 0
-715 -745 -656 0
-715 -745 -657 0
-715 -745 -672 0
-715 -745 -673 0
-715 -745 -676 0
-715 -745 -677 0
-715 -745 -680 0
-715 -745 -681 0
-715 -745 -692 0
-715 -745 -693 0
-715 -745 -696 0
-715 -745 -697 0
-715 -745 -700 0
-715 -745 -701 0
-716 731 735 0
-716 731 739 0
-716 735 739 0
-716 745 649 653 657 673 677 681 693 697 701 0
-716 -745 -649 0
-716 -745 -653 0
-716 -745 -657 0
-716 -745 -673 0
-716 -745 -677 0
-716 -745 -681 0
-716 -745 -693 0
-716 -745 -697 0
-716 -745 -701 0
-717 732 736 0
-717 732 740 0
-717 736 740 0
-717 745 0
746 747 748 749 750 751 0
-746 -747 0
-746 -748 0
-746 -749 0
-746 -750 0
-746 -751 0
-747 -748 0
-747 -749 0
-747 -750 0
-747 -751 0
-748 -749 0
-748 -750 0
-748 -751 0
-749 -750 0
-749 -751 0
-750 -751 0
752 753 754 755 0
-752 -753 0
-752 -754 0
-752 -755 0
-753 -754 0
-753 -755 0
-754 -755 0
756 757 758 759 760 761 0
-756 -757 0
-756 -758 0
-756 -759 0
-756 -760 0
-756 -761 0
-757 -758 0
-757 -759 0
-757 -760 0
-757 -761 0
-758 -759 0
-758 -760 0
-758 -761 0
-759 -760 0
-759 -761 0
-760 -761 0
762 763 764 765 0
-762 -763 0
-762 -764 0
-762 -765 0
-763 -764 0
-763 -765 0
-764 -765 0
766 767 768 769 770 0
-766 -767 0
-766 -768 0
-766 -769 0
-766 -770 0
-767 -768 0
-767 -769 0
-767 -770 0
-768 -769 0
-768 -770 0
-769 -770 0
771 772 773 774 0
-771 -772 0
-771 -773 0
-771 -774 0
-772 -773 0
-772 -774 0
-773 -774 0
775 776 777 778 0
-775 -776 0
-775 -777 0
-775 -778 0
-776 -777 0
-776 -778 0
-777 -778 0
779 780 781 782 0
-779 -780 0
-779 -781 0
-779 -782 0
-780 -781 0
-780 -782 0
-781 -782 0
-783 746 0
-783 752 0
-746 -752 783 0
-784 746 0
-784 753 0
-746 -753 784 0
-785 746 0
-785 754 0
-746 -754 785 0
-786 746 0
-786 755 0
-746 -755 786 0
-787 747 0
-787 752 0
-747 -752 787 0
-788 747 0
-788 753 0
-747 -753 788 0
-789 747 0
-789 754 0
-747 -754 789 0
-790 747 0
-790 755 0
-747 -755 790 0
-791 748 0
-791 752 0
-748 -752 791 0
-792 748 0
-792 753 0
-748 -753 792 0
-793 748 0
-793 754 0
-748 -754 793 0
-794 748 0
-794 755 0
-748 -755 794 0
-795 749 0
-795 752 0
-749 -752 795 0
-796 749 0
-796 753 0
-749 -753 796 0
-797 749 0
-797 754 0
-749 -754 797 0
-798 749 0
-798 755 0
-749 -755 798 0
-799 750 0
-799 752 0
-750 -752 799 0
-800 750 0
-800 753 0
-750 -753 800 0
-801 750 0
-801 754 0
-750 -754 801 0
-802 750 0
-802 755 0
-750 -755 802 0
-803 751 0
-803 752 0
-751 -752 803 0
-804 751 0
-804 753 0
-751 -753 804 0
-805 751 0
-805 754 0
-751 -754 805 0
-806 751 0
-806 755 0
-751 -755 806 0
-807 756 0
-807 762 0
-756 -762 807 0
-808 756 0
-808 763 0
-756 -763 808 0
-809 756 0
-809 764 0
-756 -764 809 0
-810 756 0
-810 765 0
-756 -765 810 0
-811 757 0
-811 762 0
-757 -762 811 0
-812 757 0
-812 763 0
-757 -763 812 0
-813 757 0
-813 764 0
-757 -764 813 0
-814 757 0
-814 765 0
-757 -765 814 0
-815 758 0
-815 762 0
-758 -762 815 0
-816 758 0
-816 763 0
-758 -763 816 0
-817 758 0
-817 764 0
-758 -764 817 0
-818 758 0
-818 765 0
-758 -765 818 0
-819 759 0
-819 762 0
-759 -762 819 0
-820 759 0
-820 763 0
-759 -763 820 0
-821 759 0
-821 764 0
-759 -764 821 0
-822 759 0
-822 765 0
-759 -765 822 0
-823 760 0
-823 762 0
-760 -762 823 0
-824 760 0
-824 763 0
-760 -763 824 0
-825 760 0
-825 764 0
-760 -764 825 0
-826 760 0
-826 765 0
-760 -765 826 0
-827 761 0
-827 762 0
-761 -762 827 0
-828 761 0
-828 763 0
-761 -763 828 0
-829 761 0
-829 764 0
-761 -764 829 0
-830 761 0
-830 765 0
-761 -765 830 0
-831 766 0
-831 771 0
-766 -771 831 0
-832 766 0
-832 772 0
-766 -772 832 0
-833 766 0
-833 773 0
-766 -773 833 0
-834 766 0
-834 774 0
-766 -774 834 0
-835 767 0
-835 771 0
-767 -771 835 0
-836 767 0
-836 772 0
-767 -772 836 0
-837 767 0
-837 773 0
-767 -773 837 0
-838 767 0
-838 774 0
-767 -774 838 0
-839 768 0
-839 771 0
-768 -771 839 0
-840 768 0
-840 772 0
-768 -772 840 0
-841 768 0
-841 773 0
-768 -773 841 0
-842 768 0
-842 774 0
-768 -774 842 0
-843 769 0
-843 771 0
-769 -771 843 0
-844 769 0
-844 772 0
-769 -772 844 0
-845 769 0
-845 773 0
-769 -773 845 0
-846 769 0
-846 774 0
-769 -774 846 0
-847 770 0
-847 771 0
-770 -771 847 0
-848 770 0
-848 772 0
-770 -772 848 0
-849 770 0
-849 773 0
-770 -773 849 0
-850 770 0
-850 774 0
-770 -774 850 0
-851 775 0
-851 779 0
-775 -779 851 0
-852 775 0
-852 780 0
-775 -780 852 0
-853 775 0
-853 781 0
-775 -781 853 0
-854 775 0
-854 782 0
-775 -782 854 0
-855 776 0
-855 779 0
-776 -779 855 0
-856 776 0
-856 780 0
-776 -780 856 0
-857 776 0
-857 781 0
-776 -781 857 0
-858 776 0
-858 782 0
-776 -782 858 0
-859 777 0
-859 779 0
-777 -779 859 0
-860 777 0
-860 780 0
-777 -780 860 0
-861 777 0
-861 781 0
-777 -781 861 0
-862 777 0
-862 782 0
-777 -782 862 0
-863 778 0
-863 779 0
-778 -779 863 0
-864 778 0
-864 780 0
-778 -780 864 0
-865 778 0
-865 781 0
-778 -781 865 0
-866 778 0
-866 782 0
-778 -782 866 0
-867 783 807 831 851 0
-783 867 0
-807 867 0
-831 867 0
-851 867 0
-868 784 808 832 852 0
-784 868 0
-808 868 0
-832 868 0
-852 868 0
-869 785 809 833 853 0
-785 869 0
-809 869 0
-833 869 0
-853 869 0
-870 786 810 834 854 0
-786 870 0
-810 870 0
-834 870 0
-854 870 0
-871 787 811 831 835 851 855 0
-787 871 0
-811 871 0
-831 871 0
-835 871 0
-851 871 0
-855 871 0
-872 788 812 832 836 852 856 0
-788 872 0
-812 872 0
-832 872 0
-836 872 0
-852 872 0
-856 872 0
-873 789 813 833 837 853 857 0
-789 873 0
-813 873 0
-833 873 0
-837 873 0
-853 873 0
-857 873 0
-874 790 814 834 838 854 858 0
-790 874 0
-814 874 0
-834 874 0
-838 874 0
-854 874 0
-858 874 0
-875 791 815 835 839 851 855 859 0
-791 875 0
-815 875 0
-835 875 0
-839 875 0
-851 875 0
-855 875 0
-859 875 0
-876 792 816 836 840 852 856 860 0
-792 876 0
-816 876 0
-836 876 0
-840 876 0
-852 876 0
-856 876 0
-860 876 0
-877 793 817 837 841 853 857 861 0
-793 877 0
-817 877 0
-837 877 0
-841 877 0
-853 877 0
-857 877 0
-861 877 0
-878 794 818 838 842 854 858 862 0
-794 878 0
-818 878 0
-838 878 0
-842 878 0
-854 878 0
-858 878 0
-862 878 0
-879 795 819 839 843 855 859 863 0
-795 879 0
-819 879 0
-839 879 0
-843 879 0
-855 879 0
-859 879 0
-863 879 0
-880 796 820 840 844 856 860 864 0
-796 880 0
-820 880 0
-840 880 0
-844 880 0
-856 880 0
-860 880 0
-864 880 0
-881 797 821 841 845 857 861 865 0
-797 881 0
-821 881 0
-841 881 0
-845 881 0
-857 881 0
-861 881 0
-865 881 0
-882 798 822 842 846 858 862 866 0
-798 882 0
-822 882 0
-842 882 0
-846 882 0
-858 882 0
-862 882 0
-866 882 0
-883 799 823 843 847 859 863 0
-799 883 0
-823 883 0
-843 883 0
-847 883 0
-859 883 0
-863 883 0
-884 800 824 844 848 860 864 0
-800 884 0
-824 884 0
-844 884 0
-848 884 0
-860 884 0
-864 884 0
-885 801 825 845 849 861 865 0
-801 885 0
-825 885 0
-845 885 0
-849 885 0
-861 885 0
-865 885 0
-886 802 826 846 850 862 866 0
-802 886 0
-826 886 0
-846 886 0
-850 886 0
-862 886 0
-866 886 0
-887 803 827 847 863 0
-803 887 0
-827 887 0
-847 887 0
-863 887 0
-888 804 828 848 864 0
-804 888 0
-828 888 0
-848 888 0
-864 888 0
-889 805 829 849 865 0
-805 889 0
-829 889 0
-849 889 0
-865 889 0
-890 806 830 850 866 0
-806 890 0
-830 890 0
-850 890 0
-866 890 0
-783 -807 0
-783 -831 0
-783 -851 0
-784 -808 0
-784 -832 0
-784 -852 0
-785 -809 0
-785 -833 0
-785 -853 0
-786 -810 0
-786 -834 0
-786 -854 0
-787 -811 0
-787 -831 0
-787 -835 0
-787 -851 0
-787 -855 0
-788 -812 0
-788 -832 0
-788 -836 0
-788 -852 0
-788 -856 0
-789 -813 0
-789 -833 0
-789 -837 0
-789 -853 0
-789 -857 0
-790 -814 0
-790 -834 0
-790 -838 0
-790 -854 0
-790 -858 0
-791 -815 0
-791 -835 0
-791 -839 0
-791 -851 0
-791 -855 0
-791 -859 0
-792 -816 0
-792 -836 0
-792 -840 0
-792 -852 0
-792 -856 0
-792 -860 0
-793 -817 0
-793 -837 0
-793 -841 0
-793 -853 0
-793 -857 0
-793 -861 0
-794 -818 0
-794 -838 0
-794 -842 0
-794 -854 0
-794 -858 0
-794 -862 0
-795 -819 0
-795 -839 0
-795 -843 0
-795 -855 0
-795 -859 0
-795 -863 0
-796 -820 0
-796 -840 0
-796 -844 0
-796 -856 0
-796 -860 0
-796 -864 0
-797 -821 0
-797 -841 0
-797 -845 0
-797 -857 0
-797 -861 0
-797 -865 0
-798 -822 0
-798 -842 0
-798 -846 0
-798 -858 0
-798 -862 0
-798 -866 0
-799 -823 0
-799 -843 0
-799 -847 0
-799 -859 0
-799 -863 0
-800 -824 0
-800 -844 0
-800 -848 0
-800 -860 0
-800 -864 0
-801 -825 0
-801 -845 0
-801 -849 0
-801 -861 0
-801 -865 0
-802 -826 0
-802 -846 0
-802 -850 0
-802 -862 0
-802 -866 0
-803 -827 0
-803 -847 0
-803 -863 0
-804 -828 0
-804 -848 0
-804 -864 0
-805 -829 0
-805 -849 0
-805 -865 0
-806 -830 0
-806 -850 0
-806 -866 0
-807 -831 0
-807 -851 0
-808 -832 0
-808 -852 0
-809 -833 0
-809 -853 0
-810 -834 0
-810 -854 0
-811 -831 0
-811 -835 0
-811 -851 0
-811 -855 0
-812 -832 0
-812 -836 0
-812 -852 0
-812 -856 0
-813 -833 0
-813 -837 0
-813 -853 0
-813 -857 0
-814 -834 0
-814 -838 0
-814 -854 0
-814 -858 0
-815 -835 0
-815 -839 0
-815 -851 0
-815 -855 0
-815 -859 0
-816 -836 0
-816 -840 0
-816 -852 0
-816 -856 0
-816 -860 0
-817 -837 0
-817 -841 0
-817 -853 0
-817 -857 0
-817 -861 0
-818 -838 0
-818 -842 0
-818 -854 0
-818 -858 0
-818 -862 0
-819 -839 0
-819 -843 0
-819 -855 0
-819 -859 0
-819 -863 0
-820 -840 0
-820 -844 0
-820 -856 0
-820 -860 0
-820 -864 0
-821 -841 0
-821 -845 0
-821 -857 0
-821 -861 0
-821 -865 0
-822 -842 0
-822 -846 0
-822 -858 0
-822 -862 0
-822 -866 0
-823 -843 0
-823 -847 0
-823 -859 0
-823 -863 0
-824 -844 0
-824 -848 0
-824 -860 0
-824 -864 0
-825 -845 0
-825 -849 0
-825 -861 0
-825 -865 0
-826 -846 0
-826 -850 0
-826 -862 0
-826 -866 0
-827 -847 0
-827 -863 0
-828 -848 0
-828 -864 0
-829 -849 0
-829 -865 0
-830 -850 0
-830 -866 0
-831 -851 0
-831 -855 0
-832 -852 0
-832 -856 0
-833 -853 0
-833 -857 0
-834 -854 0
-834 -858 0
-835 -851 0
-835 -855 0
-835 -859 0
-836 -852 0
-836 -856 0
-836 -860 0
-837 -853 0
-837 -857 0
-837 -861 0
-838 -854 0
-838 -858 0
-838 -862 0
-839 -851 0
-839 -855 0
-839 -859 0
-839 -863 0
-840 -852 0
-840 -856 0
-840 -860 0
-840 -864 0
-841 -853 0
-841 -857 0
-841 -861 0
-841 -865 0
-842 -854 0
-842 -858 0
-842 -862 0
-842 -866 0
-843 -855 0
-843 -859 0
-843 -863 0
-844 -856 0
-844 -860 0
-844 -864 0
-845 -857 0
-845 -861 0
-845 -865 0
-846 -858 0
-846 -862 0
-846 -866 0
-847 -859 0
-847 -863 0
-848 -860 0
-848 -864 0
-849 -861 0
-849 -865 0
-850 -862 0
-850 -866 0
-783 891 808 809 810 832 833 834 852 853 854 0
-783 -891 -808 0
-783 -891 -809 0
-783 -891 -810 0
-783 -891 -832 0
-783 -891 -833 0
-783 -891 -834 0
-783 -891 -852 0
-783 -891 -853 0
-783 -891 -854 0
-784 867 0
-784 891 809 810 833 834 853 854 0
-784 -891 -809 0
-784 -891 -810 0
-784 -891 -833 0
-784 -891 -834 0
-784 -891 -853 0
-784 -891 -854 0
-785 868 0
-785 891 810 834 854 0
-785 -891 -810 0
-785 -891 -834 0
-785 -891 -854 0
-786 869 0
-786 891 0
-787 891 812 813 814 832 833 834 836 837 838 852 853 854 856 857 858 0
-787 -891 -812 0
-787 -891 -813 0
-787 -891 -814 0
-787 -891 -832 0
-787 -891 -833 0
-787 -891 -834 0
-787 -891 -836 0
-787 -891 -837 0
-787 -891 -838 0
-787 -891 -852 0
-787 -891 -853 0
-787 -891 -854 0
-787 -891 -856 0
-787 -891 -857 0
-787 -891 -858 0
-788 871 0
-788 891 813 814 833 834 837 838 853 854 857 858 0
-788 -891 -813 0
-788 -891 -814 0
-788 -891 -833 0
-788 -891 -834 0
-788 -891 -837 0
-788 -891 -838 0
-788 -891 -853 0
-788 -891 -854 0
-788 -891 -857 0
-788 -891 -858 0
-789 872 0
-789 891 814 834 838 854 858 0
-789 -891 -814 0
-789 -891 -834 0
-789 -891 -838 0
-789 -891 -854 0
-789 -891 -858 0
-790 873 0
-790 891 0
-791 891 816 817 818 836 837 838 840 841 842 852 853 854 856 857 858 860 861 862 0
-791 -891 -816 0
-791 -891 -817 0
-791 -891 -818 0
-791 -891 -836 0
-791 -891 -837 0
-791 -891 -838 0
-791 -891 -840 0
-791 -891 -841 0
-791 -891 -842 0
-791 -891 -852 0
-791 -891 -853 0
-791 -891 -854 0
-791 -891 -856 0
-791 -891 -857 0
-791 -891 -858 0
-791 -891 -860 0
-791 -891 -861 0
-791 -891 -862 0
-792 875 0
-792 891 817 818 837 838 841 842 853 854 857 858 861 862 0
-792 -891 -817 0
-792 -891 -818 0
-792 -891 -837 0
-792 -891 -838 0
-792 -891 -841 0
-792 -891 -842 0
-792 -891 -853 0
-792 -891 -854 0
-792 -891 -857 0
-792 -891 -858 0
-792 -891 -861 0
-792 -891 -862 0
-793 876 0
-793 891 818 838 842 854 858 862 0
-793 -891 -818 0
-793 -891 -838 0
-793 -891 -842 0
-793 -891 -854 0
-793 -891 -858 0
-793 -891 -862 0
-794 877 0
-794 891 0
-795 891 820 821 822 840 841 842 844 845 846 856 857 858 860 861 862 864 865 866 0
-795 -891 -820 0
-795 -891 -821 0
-795 -891 -822 0
-795 -891 -840 0
-795 -891 -841 0
-795 -891 -842 0
-795 -891 -844 0
-795 -891 -845 0
-795 -891 -846 0
-795 -891 -856 0
-795 -891 -857 0
-795 -891 -858 0
-795 -891 -860 0
-795 -891 -861 0
-795 -891 -862 0
-795 -891 -864 0
-795 -891 -865 0
-795 -891 -866 0
-796 879 0
-796 891 821 822 841 842 845 846 857 858 861 862 865 866 0
-796 -891 -821 0
-796 -891 -822 0
-796 -891 -841 0
-796 -891 -842 0
-796 -891 -845 0
-796 -891 -846 0
-796 -891 -857 0
-796 -891 -858 0
-796 -891 -861 0
-796 -891 -862 0
-796 -891 -865 0
-796 -891 -866 0
-797 880 0
-797 891 822 842 846 858 862 866 0
-797 -891 -822 0
-797 -891 -842 0
-797 -891 -846 0
-797 -891 -858 0
-797 -891 -862 0
-797 -891 -866 0
-798 881 0
-798 891 0
-799 891 824 825 826 844 845 846 848 849 850 860 861 862 864 865 866 0
-799 -891 -824 0
-799 -891 -825 0
-799 -891 -826 0
-799 -891 -844 0
-799 -891 -845 0
-799 -891 -846 0
-799 -891 -848 0
-799 -891 -849 0
-799 -891 -850 0
-799 -891 -860 0
-799 -891 -861 0
-799 -891 -862 0
-799 -891 -864 0
-799 -891 -865 0
-799 -891 -866 0
-800 883 0
-800 891 825 826 845 846 849 850 861 862 865 866 0
-800 -891 -825 0
-800 -891 -826 0
-800 -891 -845 0
-800 -891 -846 0
-800 -891 -849 0
-800 -891 -850 0
-800 -891 -861 0
-800 -891 -862 0
-800 -891 -865 0
-800 -891 -866 0
-801 884 0
-801 891 826 846 850 862 866 0
-801 -891 -826 0
-801 -891 -846 0
-801 -891 -850 0
-801 -891 -862 0
-801 -891 -866 0
-802 885 0
-802 891 0
-803 891 828 829 830 848 849 850 864 865 866 0
-803 -891 -828 0
-803 -891 -829 0
-803 -891 -830 0
-803 -891 -848 0
-803 -891 -849 0
-803 -891 -850 0
-803 -891 -864 0
-803 -891 -865 0
-803 -891 -866 0
-804 887 0
-804 891 829 830 849 850 865 866 0
-804 -891 -829 0
-804 -891 -830 0
-804 -891 -849 0
-804 -891 -850 0
-804 -891 -865 0
-804 -891 -866 0
-805 888 0
-805 891 830 850 866 0
-805 -891 -830 0
-805 -891 -850 0
-805 -891 -866 0
-806 889 0
-806 891 0
-807 892 784 785 786 832 833 834 852 853 854 0
-807 -892 -784 0
-807 -892 -785 0
-807 -892 -786 0
-807 -892 -832 0
-807 -892 -833 0
-807 -892 -834 0
-807 -892 -852 0
-807 -892 -853 0
-807 -892 -854 0
-808 867 0
-808 892 785 786 833 834 853 854 0
-808 -892 -785 0
-808 -892 -786 0
-808 -892 -833 0
-808 -892 -834 0
-808 -892 -853 0
-808 -892 -854 0
-809 868 0
-809 892 786 834 854 0
-809 -892 -786 0
-809 -892 -834 0
-809 -892 -854 0
-810 869 0
-810 892 0
-811 892 788 789 790 832 833 834 836 837 838 852 853 854 856 857 858 0
-811 -892 -788 0
-811 -892 -789 0
-811 -892 -790 0
-811 -892 -832 0
-811 -892 -833 0
-811 -892 -834 0
-811 -892 -836 0
-811 -892 -837 0
-811 -892 -838 0
-811 -892 -852 0
-811 -892 -853 0
-811 -892 -854 0
-811 -892 -856 0
-811 -892 -857 0
-811 -892 -858 0
-812 871 0
-812 892 789 790 833 834 837 838 853 854 857 858 0
-812 -892 -789 0
-812 -892 -790 0
-812 -892 -833 0
-812 -892 -834 0
-812 -892 -837 0
-812 -892 -838 0
-812 -892 -853 0
-812 -892 -854 0
-812 -892 -857 0
-812 -892 -858 0
-813 872 0
-813 892 790 834 838 854 858 0
-813 -892 -790 0
-813 -892 -834 0
-813 -892 -838 0
-813 -892 -854 0
-813 -892 -858 0
-814 873 0
-814 892 0
-815 892 792 793 794 836 837 838 840 841 842 852 853 854 856 857 858 860 861 862 0
-815 -892 -792 0
-815 -892 -793 0
-815 -892 -794 0
-815 -892 -836 0
-815 -892 -837 0
-815 -892 -838 0
-815 -892 -840 0
-815 -892 -841 0
-815 -892 -842 0
-815 -892 -852 0
-815 -892 -853 0
-815 -892 -854 0
-815 -892 -856 0
-815 -892 -857 0
-815 -892 -858 0
-815 -892 -860 0
-815 -892 -861 0
-815 -892 -862 0
-816 875 0
-816 892 793 794 837 838 841 842 853 854 857 858 861 862 0
-816 -892 -793 0
-816 -892 -794 0
-816 -892 -837 0
-816 -892 -838 0
-816 -892 -841 0
-816 -892 -842 0
-816 -892 -853 0
-816 -892 -854 0
-816 -892 -857 0
-816 -892 -858 0
-816 -892 -861 0
-816 -892 -862 0
-817 876 0
-817 892 794 838 842 854 858 862 0
-817 -892 -794 0
-817 -892 -838 0
-817 -892 -842 0
-817 -892 -854 0
-817 -892 -858 0
-817 -892 -862 0
-818 877 0
-818 892 0
-819 892 796 797 798 840 841 842 844 845 846 856 857 858 860 861 862 864 865 866 0
-819 -892 -796 0
-819 -892 -797 0
-819 -892 -798 0
-819 -892 -840 0
-819 -892 -841 0
-819 -892 -842 0
-819 -892 -844 0
-819 -892 -845 0
-819 -892 -846 0
-819 -892 -856 0
-819 -892 -857 0
-819 -892 -858 0
-819 -892 -860 0
-819 -892 -861 0
-819 -892 -862 0
-819 -892 -864 0
-819 -892 -865 0
-819 -892 -866 0
-820 879 0
-820 892 797 798 841 842 845 846 857 858 861 862 865 866 0
-820 -892 -797 0
-820 -892 -798 0
-820 -892 -841 0
-820 -892 -842 0
-820 -892 -845 0
-820 -892 -846 0
-820 -892 -857 0
-820 -892 -858 0
-820 -892 -861 0
-820 -892 -862 0
-820 -892 -865 0
-820 -892 -866 0
-821 880 0
-821 892 798 842 846 858 862 866 0
-821 -892 -798 0
-821 -892 -842 0
-821 -892 -846 0
-821 -892 -858 0
-821 -892 -862 0
-821 -892 -866 0
-822 881 0
-822 892 0
-823 892 800 801 802 844 845 846 848 849 850 860 861 862 864 865 866 0
-823 -892 -800 0
-823 -892 -801 0
-823 -892 -802 0
-823 -892 -844 0
-823 -892 -845 0
-823 -892 -846 0
-823 -892 -848 0
-823 -892 -849 0
-823 -892 -850 0
-823 -892 -860 0
-823 -892 -861 0
-823 -892 -862 0
-823 -892 -864 0
-823 -892 -865 0
-823 -892 -866 0
-824 883 0
-824 892 801 802 845 846 849 850 861 862 865 866 0
-824 -892 -801 0
-824 -892 -802 0
-824 -892 -845 0
-824 -892 -846 0
-824 -892 -849 0
-824 -892 -850 0
-824 -892 -861 0
-824 -892 -862 0
-824 -892 -865 0
-824 -892 -866 0
-825 884 0
-825 892 802 846 850 862 866 0
-825 -892 -802 0
-825 -892 -846 0
-825 -892 -850 0
-825 -892 -862 0
-825 -892 -866 0
-826 885 0
-826 892 0
-827 892 804 805 806 848 849 850 864 865 866 0
-827 -892 -804 0
-827 -892 -805 0
-827 -892 -806 0
-827 -892 -848 0
-827 -892 -849 0
-827 -892 -850 0
-827 -892 -864 0
-827 -892 -865 0
-827 -892 -866 0
-828 887 0
-828 892 805 806 849 850 865 866 0
-828 -892 -805 0
-828 -892 -806 0
-828 -892 -849 0
-828 -892 -850 0
-828 -892 -865 0
-828 -892 -866 0
-829 888 0
-829 892 806 850 866 0
-829 -892 -806 0
-829 -892 -850 0
-829 -892 -866 0
-830 889 0
-830 892 0
-831 893 784 785 786 788 789 790 808 809 810 812 813 814 852 853 854 856 857 858 0
-831 -893 -784 0
-831 -893 -785 0
-831 -893 -786 0
-831 -893 -788 0
-831 -893 -789 0
-831 -893 -790 0
-831 -893 -808 0
-831 -893 -809 0
-831 -893 -810 0
-831 -893 -812 0
-831 -893 -813 0
-831 -893 -814 0
-831 -893 -852 0
-831 -893 -853 0
-831 -893 -854 0
-831 -893 -856 0
-831 -893 -857 0
-831 -893 -858 0
-832 867 871 0
-832 893 785 786 789 790 809 810 813 814 853 854 857 858 0
-832 -893 -785 0
-832 -893 -786 0
-832 -893 -789 0
-832 -893 -790 0
-832 -893 -809 0
-832 -893 -810 0
-832 -893 -813 0
-832 -893 -814 0
-832 -893 -853 0
-832 -893 -854 0
-832 -893 -857 0
-832 -893 -858 0
-833 868 872 0
-833 893 786 790 810 814 854 858 0
-833 -893 -786 0
-833 -893 -790 0
-833 -893 -810 0
-833 -893 -814 0
-833 -893 -854 0
-833 -893 -858 0
-834 869 873 0
-834 893 0
-835 893 788 789 790 792 793 794 812 813 814 816 817 818 852 853 854 856 857 858 860 861 862 0
-835 -893 -788 0
-835 -893 -789 0
-835 -893 -790 0
-835 -893 -792 0
-835 -893 -793 0
-835 -893 -794 0
-835 -893 -812 0
-835 -893 -813 0
-835 -893 -814 0
-835 -893 -816 0
-835 -893 -817 0
-835 -893 -818 0
-835 -893 -852 0
-835 -893 -853 0
-835 -893 -854 0
-835 -893 -856 0
-835 -893 -857 0
-835 -893 -858 0
-835 -893 -860 0
-835 -893 -861 0
-835 -893 -862 0
-836 871 875 0
-836 893 789 790 793 794 813 814 817 818 853 854 857 858 861 862 0
-836 -893 -789 0
-836 -893 -790 0
-836 -893 -793 0
-836 -893 -794 0
-836 -893 -813 0
-836 -893 -814 0
-836 -893 -817 0
-836 -893 -818 0
-836 -893 -853 0
-836 -893 -854 0
-836 -893 -857 0
-836 -893 -858 0
-836 -893 -861 0
-836 -893 -862 0
-837 872 876 0
-837 893 790 794 814 818 854 858 862 0
-837 -893 -790 0
-837 -893 -794 0
-837 -893 -814 0
-837 -893 -818 0
-837 -893 -854 0
-837 -893 -858 0
-837 -893 -862 0
-838 873 877 0
-838 893 0
-839 893 792 793 794 796 797 798 816 817 818 820 821 822 852 853 854 856 857 858 860 861 862 864 865 866 0
-839 -893 -792 0
-839 -893 -793 0
-839 -893 -794 0
-839 -893 -796 0
-839 -893 -797 0
-839 -893 -798 0
-839 -893 -816 0
-839 -893 -817 0
-839 -893 -818 0
-839 -893 -820 0
-839 -893 -821 0
-839 -893 -822 0
-839 -893 -852 0
-839 -893 -853 0
-839 -893 -854 0
-839 -893 -856 0
-839 -893 -857 0
-839 -893 -858 0
-839 -893 -860 0
-839 -893 -861 0
-839 -893 -862 0
-839 -893 -864 0
-839 -893 -865 0
-839 -893 -866 0
-840 875 879 0
-840 893 793 794 797 798 817 818 821 822 853 854 857 858 861 862 865 866 0
-840 -893 -793 0
-840 -893 -794 0
-840 -893 -797 0
-840 -893 -798 0
-840 -893 -817 0
-840 -893 -818 0
-840 -893 -821 0
-840 -893 -822 0
-840 -893 -853 0
-840 -893 -854 0
-840 -893 -857 0
-840 -893 -858 0
-840 -893 -861 0
-840 -893 -862 0
-840 -893 -865 0
-840 -893 -866 0
-841 876 880 0
-841 893 794 798 818 822 854 858 862 866 0
-841 -893 -794 0
-841 -893 -798 0
-841 -893 -818 0
-841 -893 -822 0
-841 -893 -854 0
-841 -893 -858 0
-841 -893 -862 0
-841 -893 -866 0
-842 877 881 0
-842 893 0
-843 893 796 797 798 800 801 802 820 821 822 824 825 826 856 857 858 860 861 862 864 865 866 0
-843 -893 -796 0
-843 -893 -797 0
-843 -893 -798 0
-843 -893 -800 0
-843 -893 -801 0
-843 -893 -802 0
-843 -893 -820 0
-843 -893 -821 0
-843 -893 -822 0
-843 -893 -824 0
-843 -893 -825 0
-843 -893 -826 0
-843 -893 -856 0
-843 -893 -857 0
-843 -893 -858 0
-843 -893 -860 0
-843 -893 -861 0
-843 -893 -862 0
-843 -893 -864 0
-843 -893 -865 0
-843 -893 -866 0
-844 879 883 0
-844 893 797 798 801 802 821 822 825 826 857 858 861 862 865 866 0
-844 -893 -797 0
-844 -893 -798 0
-844 -893 -801 0
-844 -893 -802 0
-844 -893 -821 0
-844 -893 -822 0
-844 -893 -825 0
-844 -893 -826 0
-844 -893 -857 0
-844 -893 -858 0
-844 -893 -861 0
-844 -893 -862 0
-844 -893 -865 0
-844 -893 -866 0
-845 880 884 0
-845 893 798 802 822 826 858 862 866 0
-845 -893 -798 0
-845 -893 -802 0
-845 -893 -822 0
-845 -893 -826 0
-845 -893 -858 0
-845 -893 -862 0
-845 -893 -866 0
-846 881 885 0
-846 893 0
-847 893 800 801 802 804 805 806 824 825 826 828 829 830 860 861 862 864 865 866 0
-847 -893 -800 0
-847 -893 -801 0
-847 -893 -802 0
-847 -893 -804 0
-847 -893 -805 0
-847 -893 -806 0
-847 -893 -824 0
-847 -893 -825 0
-847 -893 -826 0
-847 -893 -828 0
-847 -893 -829 0
-847 -893 -830 0
-847 -893 -860 0
-847 -893 -861 0
-847 -893 -862 0
-847 -893 -864 0
-847 -893 -865 0
-847 -893 -866 0
-848 883 887 0
-848 893 801 802 805 806 825 826 829 830 861 862 865 866 0
-848 -893 -801 0
-848 -893 -802 0
-848 -893 -805 0
-848 -893 -806 0
-848 -893 -825 0
-848 -893 -826 0
-848 -893 -829 0
-848 -893 -830 0
-848 -893 -861 0
-848 -893 -862 0
-848 -893 -865 0
-848 -893 -866 0
-849 884 888 0
-849 893 802 806 826 830 862 866 0
-849 -893 -802 0
-849 -893 -806 0
-849 -893 -826 0
-849 -893 -830 0
-849 -893 -862 0
-849 -893 -866 0
-850 885 889 0
-850 893 0
-851 894 784 785 786 788 789 790 792 793 794 808 809 810 812 813 814 816 817 818 832 833 834 836 837 838 840 841 842 0
-851 -894 -784 0
-851 -894 -785 0
-851 -894 -786 0
-851 -894 -788 0
-851 -894 -789 0
-851 -894 -790 0
-851 -894 -792 0
-851 -894 -793 0
-851 -894 -794 0
-851 -894 -808 0
-851 -894 -809 0
-851 -894 -810 0
-851 -894 -812 0
-851 -894 -813 0
-851 -894 -814 0
-851 -894 -816 0
-851 -894 -817 0
-851 -894 -818 0
-851 -894 -832 0
-851 -894 -833 0
-851 -894 -834 0
-851 -894 -836 0
-851 -894 -837 0
-851 -894 -838 0
-851 -894 -840 0
-851 -894 -841 0
-851 -894 -842 0
-852 867 871 0
-852 867 875 0
-852 871 875 0
-852 894 785 786 789 790 793 794 809 810 813 814 817 818 833 834 837 838 841 842 0
-852 -894 -785 0
-852 -894 -786 0
-852 -894 -789 0
-852 -894 -790 0
-852 -894 -793 0
-852 -894 -794 0
-852 -894 -809 0
-852 -894 -810 0
-852 -894 -813 0
-852 -894 -814 0
-852 -894 -817 0
-852 -894 -818 0
-852 -894 -833 0
-852 -894 -834 0
-852 -894 -837 0
-852 -894 -838 0
-852 -894 -841 0
-852 -894 -842 0
-853 868 872 0
-853 868 876 0
-853 872 876 0
-853 894 786 790 794 810 814 818 834 838 842 0
-853 -894 -786 0
-853 -894 -790 0
-853 -894 -794 0
-853 -894 -810 0
-853 -894 -814 0
-853 -894 -818 0
-853 -894 -834 0
-853 -894 -838 0
-853 -894 -842 0
-854 869 873 0
-854 869 877 0
-854 873 877 0
-854 894 0
-855 894 788 789 790 792 793 794 796 797 798 812 813 814 816 817 818 820 821 822 832 833 834 836 837 838 840 841 842 844 845 846 0
-855 -894 -788 0
-855 -894 -789 0
-855 -894 -790 0
-855 -894 -792 0
-855 -894 -793 0
-855 -894 -794 0
-855 -894 -796 0
-855 -894 -797 0
-855 -894 -798 0
-855 -894 -812 0
-855 -894 -813 0
-855 -894 -814 0
-855 -894 -816 0
-855 -894 -817 0
-855 -894 -818 0
-855 -894 -820 0
-855 -894 -821 0
-855 -894 -822 0
-855 -894 -832 0
-855 -894 -833 0
-855 -894 -834 0
-855 -894 -836 0
-855 -894 -837 0
-855 -894 -838 0
-855 -894 -840 0
-855 -894 -841 0
-855 -894 -842 0
-855 -894 -844 0
-855 -894 -845 0
-855 -894 -846 0
-856 871 875 0
-856 871 879 0
-856 875 879 0
-856 894 789 790 793 794 797 798 813 814 817 818 821 822 833 834 837 838 841 842 845 846 0
-856 -894 -789 0
-856 -894 -790 0
-856 -894 -793 0
-856 -894 -794 0
-856 -894 -797 0
-856 -894 -798 0
-856 -894 -813 0
-856 -894 -814 0
-856 -894 -817 0
-856 -894 -818 0
-856 -894 -821 0
-856 -894 -822 0
-856 -894 -833 0
-856 -894 -834 0
-856 -894 -837 0
-856 -894 -838 0
-856 -894 -841 0
-856 -894 -842 0
-856 -894 -845 0
-856 -894 -846 0
-857 872 876 0
-857 872 880 0
-857 876 880 0
-857 894 790 794 798 814 818 822 834 838 842 846 0
-857 -894 -790 0
-857 -894 -794 0
-857 -894 -798 0
-857 -894 -814 0
-857 -894 -818 0
-857 -894 -822 0
-857 -894 -834 0
-857 -894 -838 0
-857 -894 -842 0
-857 -894 -846 0
-858 873 877 0
-858 873 881 0
-858 877 881 0
-858 894 0
-859 894 792 793 794 796 797 798 800 801 802 816 817 818 820 821 822 824 825 826 836 837 838 840 841 842 844 845 846 848 849 850 0
-859 -894 -792 0
-859 -894 -793 0
-859 -894 -794 0
-859 -894 -796 0
-859 -894 -797 0
-859 -894 -798 0
-859 -894 -800 0
-859 -894 -801 0
-859 -894 -802 0
-859 -894 -816 0
-859 -894 -817 0
-859 -894 -818 0
-859 -894 -820 0
-859 -894 -821 0
-859 -894 -822 0
-859 -894 -824 0
-859 -894 -825 0
-859 -894 -826 0
-859 -894 -836 0
-859 -894 -837 0
-859 -894 -838 0
-859 -894 -840 0
-859 -894 -841 0
-859 -894 -842 0
-859 -894 -844 0
-859 -894 -845 0
-859 -894 -846 0
-859 -894 -848 0
-859 -894 -849 0
-859 -894 -850 0
-860 875 879 0
-860 875 883 0
-860 879 883 0
-860 894 793 794 797 798 801 802 817 818 821 822 825 826 837 838 841 842 845 846 849 850 0
-860 -894 -793 0
-860 -894 -794 0
-860 -894 -797 0
-860 -894 -798 0
-860 -894 -801 0
-860 -894 -802 0
-860 -894 -817 0
-860 -894 -818 0
-860 -894 -821 0
-860 -894 -822 0
-860 -894 -825 0
-860 -894 -826 0
-860 -894 -837 0
-860 -894 -838 0
-860 -894 -841 0
-860 -894 -842 0
-860 -894 -845 0
-860 -894 -846 0
-860 -894 -849 0
-860 -894 -850 0
-861 876 880 0
-861 876 884 0
-861 880 884 0
-861 894 794 798 802 818 822 826 838 842 846 850 0
-861 -894 -794 0
-861 -894 -798 0
-861 -894 -802 0
-861 -894 -818 0
-861 -894 -822 0
-861 -894 -826 0
-861 -894 -838 0
-861 -894 -842 0
-861 -894 -846 0
-861 -894 -850 0
-862 877 881 0
-862 877 885 0
-862 881 885 0
-862 894 0
-863 894 796 797 798 800 801 802 804 805 806 820 821 822 824 825 826 828 829 830 840 841 842 844 845 846 848 849 850 0
-863 -894 -796 0
-863 -894 -797 0
-863 -894 -798 0
-863 -894 -800 0
-863 -894 -801 0
-863 -894 -802 0
-863 -894 -804 0
-863 -894 -805 0
-863 -894 -806 0
-863 -894 -820 0
-863 -894 -821 0
-863 -894 -822 0
-863 -894 -824 0
-863 -894 -825 0
-863 -894 -826 0
-863 -894 -828 0
-863 -894 -829 0
-863 -894 -830 0
-863 -894 -840 0
-863 -894 -841 0
-863 -894 -842 0
-863 -894 -844 0
-863 -894 -845 0
-863 -894 -846 0
-863 -894 -848 0
-863 -894 -849 0
-863 -894 -850 0
-864 879 883 0
-864 879 887 0
-864 883 887 0
-864 894 797 798 801 802 805 806 821 822 825 826 829 830 841 842 845 846 849 850 0
-864 -894 -797 0
-864 -894 -798 0
-864 -894 -801 0
-864 -894 -802 0
-864 -894 -805 0
-864 -894 -806 0
-864 -894 -821 0
-864 -894 -822 0
-864 -894 -825 0
-864 -894 -826 0
-864 -894 -829 0
-864 -894 -830 0
-864 -894 -841 0
-864 -894 -842 0
-864 -894 -845 0
-864 -894 -846 0
-864 -894 -849 0
-864 -894 -850 0
-865 880 884 0
-865 880 888 0
-865 884 888 0
-865 894 798 802 806 822 826 830 842 846 850 0
-865 -894 -798 0
-865 -894 -802 0
-865 -894 -806 0
-865 -894 -822 0
-865 -894 -826 0
-865 -894 -830 0
-865 -894 -842 0
-865 -894 -846 0
-865 -894 -850 0
-866 881 885 0
-866 881 889 0
-866 885 889 0
-866 894 0
4 0
7 0
16 0
17 0
21 0
26 0
33 0
35 0
746 0
753 0
757 0
763 0
766 0
771 0
777 0
779 0
895 896 897 898 899 900 901 902 903 904 905 906 907 908 909 910 911 912 913 914 915 916 917 918 919 920 921 922 923 924 925 926 927 928 929 930 931 932 933 934 935 936 937 938 939 940 941 942 943 944 945 946 947 948 949 950 951 952 953 954 955 956 957 958 959 960 961 962 963 964 965 966 967 968 969 970 971 972 973 974 975 976 977 978 0
-895 -896 0
-895 -897 0
-895 -898 0
-895 -899 0
-895 -900 0
-895 -901 0
-895 -902 0
-895 -903 0
-895 -904 0
-895 -905 0
-895 -906 0
-895 -907 0
-895 -908 0
-895 -909 0
-895 -910 0
-895 -911 0
-895 -912 0
-895 -913 0
-895 -914 0
-895 -915 0
-895 -916 0
-895 -917 0
-895 -918 0
-895 -919 0
-895 -920 0
-895 -921 0
-895 -922 0
-895 -923 0
-895 -924 0
-895 -925 0
-895 -926 0
-895 -927 0
-895 -928 0
-895 -929 0
-895 -930 0
-895 -931 0
-895 -932 0
-895 -933 0
-895 -934 0
-895 -935 0
-895 -936 0
-895 -937 0
-895 -938 0
-895 -939 0
-895 -940 0
-895 -941 0
-895 -942 0
-895 -943 0
-895 -944 0
-895 -945 0
-895 -946 0
-895 -947 0
-895 -948 0
-895 -949 0
-895 -950 0
-895 -951 0
-895 -952 0
-895 -953 0
-895 -954 0
-895 -955 0
-895 -956 0
-895 -957 0
-895 -958 0
-895 -959 0
-895 -960 0
-895 -961 0
-895 -962 0
-895 -963 0
-895 -964 0
-895 -965 0
-895 -966 0
-895 -967 0
-895 -968 0
-895 -969 0
-895 -970 0
-895 -971 0
-895 -972 0
-895 -973 0
-895 -974 0
-895 -975 0
-895 -976 0
-895 -977 0
-895 -978 0
-896 -897 0
-896 -898 0
-896 -899 0
-896 -900 0
-896 -901 0
-896 -902 0
-896 -903 0
-896 -904 0
-896 -905 0
-896 -906 0
-896 -907 0
-896 -908 0
-896 -909 0
-896 -910 0
-896 -911 0
-896 -912 0
-896 -913 0
-896 -914 0
-896 -915 0
-896 -916 0
-896 -917 0
-896 -918 0
-896 -919 0
-896 -920 0
-896 -921 0
-896 -922 0
-896 -923 0
-896 -924 0
-896 -925 0
-896 -926 0
-896 -927 0
-896 -928 0
-896 -929 0
-896 -930 0
-896 -931 0
-896 -932 0
-896 -933 0
-896 -934 0
-896 -935 0
-896 -936 0
-896 -937 0
-896 -938 0
-896 -939 0
-896 -940 0
-896 -941 0
-896 -942 0
-896 -943 0
-896 -944 0
-896 -945 0
-896 -946 0
-896 -947 0
-896 -948 0
-896 -949 0
-896 -950 0
-896 -951 0
-896 -952 0
-896 -953 0
-896 -954 0
-896 -955 0
-896 -956 0
-896 -957 0
-896 -958 0
-896 -959 0
-896 -960 0
-896 -961 0
-896 -962 0
-896 -963 0
-896 -964 0
-896 -965 0
-896 -966 0
-896 -967 0
-896 -968 0
-896 -969 0
-896 -970 0
-896 -971 0
-896 -972 0
-896 -973 0
-896 -974 0
-896 -975 0
-896 -976 0
-896 -977 0
-896 -978 0
-897 -898 0
-897 -899 0
-897 -900 0
-897 -901 0
-897 -902 0
-897 -903 0
-897 -904 0
-897 -905 0
-897 -906 0
-897 -907 0
-897 -908 0
-897 -909 0
-897 -910 0
-897 -911 0
-897 -912 0
-897 -913 0
-897 -914 0
-897 -915 0
-897 -916 0
-897 -917 0
-897 -918 0
-897 -919 0
-897 -920 0
-897 -921 0
-897 -922 0
-897 -923 0
-897 -924 0
-897 -925 0
-897 -926 0
-897 -927 0
-897 -928 0
-897 -929 0
-897 -930 0
-897 -931 0
-897 -932 0
-897 -933 0
-897 -934 0
-897 -935 0
-897 -936 0
-897 -937 0
-897 -938 0
-897 -939 0
-897 -940 0
-897 -941 0
-897 -942 0
-897 -943 0
-897 -944 0
-897 -945 0
-897 -946 0
-897 -947 0
-897 -948 0
-897 -949 0
-897 -950 0
-897 -951 0
-897 -952 0
-897 -953 0
-897 -954 0
-897 -955 0
-897 -956 0
-897 -957 0
-897 -958 0
-897 -959 0
-897 -960 0
-897 -961 0
-897 -962 0
-897 -963 0
-897 -964 0
-897 -965 0
-897 -966 0
-897 -967 0
-897 -968 0
-897 -969 0
-897 -970 0
-897 -971 0
-897 -972 0
-897 -973 0
-897 -974 0
-897 -975 0
-897 -976 0
-897 -977 0
-897 -978 0
-898 -899 0
-898 -900 0
-898 -901 0
-898 -902 0
-898 -903 0
-898 -904 0
-898 -905 0
-898 -906 0
-898 -907 0
-898 -908 0
-898 -909 0
-898 -910 0
-898 -911 0
-898 -912 0
-898 -913 0
-898 -914 0
-898 -915 0
-898 -916 0
-898 -917 0
-898 -918 0
-898 -919 0
-898 -920 0
-898 -921 0
-898 -922 0
-898 -923 0
-898 -924 0
-898 -925 0
-898 -926 0
-898 -927 0
-898 -928 0
-898 -929 0
-898 -930 0
-898 -931 0
-898 -932 0
-898 -933 0
-898 -934 0
-898 -935 0
-898 -936 0
-898 -937 0
-898 -938 0
-898 -939 0
-898 -940 0
-898 -941 0
-898 -942 0
-898 -943 0
-898 -944 0
-898 -945 0
-898 -946 0
-898 -947 0
-898 -948 0
-898 -949 0
-898 -950 0
-898 -951 0
-898 -952 0
-898 -953 0
-898 -954 0
-898 -955 0
-898 -956 0
-898 -957 0
-898 -958 0
-898 -959 0
-898 -960 0
-898 -961 0
-898 -962 0
-898 -963 0
-898 -964 0
-898 -965 0
-898 -966 0
-898 -967 0
-898 -968 0
-898 -969 0
-898 -970 0
-898 -971 0
-898 -972 0
-898 -973 0
-898 -974 0
-898 -975 0
-898 -976 0
-898 -977 0
-898 -978 0
-899 -900 0
-899 -901 0
-899 -902 0
-899 -903 0
-899 -904 0
-899 -905 0
-899 -906 0
-899 -907 0
-899 -908 0
-899 -909 0
-899 -910 0
-899 -911 0
-899 -912 0
-899 -913 0
-899 -914 0
-899 -915 0
-899 -916 0
-899 -917 0
-899 -918 0
-899 -919 0
-899 -920 0
-899 -921 0
-899 -922 0
-899 -923 0
-899 -924 0
-899 -925 0
-899 -926 0
-899 -927 0
-899 -928 0
-899 -929 0
-899 -930 0
-899 -931 0
-899 -932 0
-899 -933 0
-899 -934 0
-899 -935 0
-899 -936 0
-899 -937 0
-899 -938 0
-899 -939 0
-899 -940 0
-899 -941 0
-899 -942 0
-899 -943 0
-899 -944 0
-899 -945 0
-899 -946 0
-899 -947 0
-899 -948 0
-899 -949 0
-899 -950 0
-899 -951 0
-899 -952 0
-899 -953 0
-899 -954 0
-899 -955 0
-899 -956 0
-899 -957 0
-899 -958 0
-899 -959 0
-899 -960 0
-899 -961 0
-899 -962 0
-899 -963 0
-899 -964 0
-899 -965 0
-899 -966 0
-899 -967 0
-899 -968 0
-899 -969 0
-899 -970 0
-899 -971 0
-899 -972 0
-899 -973 0
-899 -974 0
-899 -975 0
-899 -976 0
-899 -977 0
-899 -978 0
-900 -901 0
-900 -902 0
-900 -903 0
-900 -904 0
-900 -905 0
-900 -906 0
-900 -907 0
-900 -908 0
-900 -909 0
-900 -910 0
-900 -911 0
-900 -912 0
-900 -913 0
-900 -914 0
-900 -915 0
-900 -916 0
-900 -917 0
-900 -918 0
-900 -919 0
-900 -920 0
-900 -921 0
-900 -922 0
-900 -923 0
-900 -924 0
-900 -925 0
-900 -926 0
-900 -927 0
-900 -928 0
-900 -929 0
-900 -930 0
-900 -931 0
-900 -932 0
-900 -933 0
-900 -934 0
-900 -935 0
-900 -936 0
-900 -937 0
-900 -938 0
-900 -939 0
-900 -940 0
-900 -941 0
-900 -942 0
-900 -943 0
-900 -944 0
-900 -945 0
-900 -946 0
-900 -947 0
-900 -948 0
-900 -949 0
-900 -950 0
-900 -951 0
-900 -952 0
-900 -953 0
-900 -954 0
-900 -955 0
-900 -956 0
-900 -957 0
-900 -958 0
-900 -959 0
-900 -960 0
-900 -961 0
-900 -962 0
-900 -963 0
-900 -964 0
-900 -965 0
-900 -966 0
-900 -967 0
-900 -968 0
-900 -969 0
-900 -970 0
-900 -971 0
-900 -972 0
-900 -973 0
-900 -974 0
-900 -975 0
-900 -976 0
-900 -977 0
-900 -978 0
-901 -902 0
-901 -903 0
-901 -904 0
-901 -905 0
-901 -906 0
-901 -907 0
-901 -908 0
-901 -909 0
-901 -910 0
-901 -911 0
-901 -912 0
-901 -913 0
-901 -914 0
-901 -915 0
-901 -916 0
-901 -917 0
-901 -918 0
-901 -919 0
-901 -920 0
-901 -921 0
-901 -922 0
-901 -923 0
-901 -924 0
-901 -925 0
-901 -926 0
-901 -927 0
-901 -928 0
-901 -929 0
-901 -930 0
-901 -931 0
-901 -932 0
-901 -933 0
-901 -934 0
-901 -935 0
-901 -936 0
-901 -937 0
-901 -938 0
-901 -939 0
-901 -940 0
-901 -941 0
-901 -942 0
-901 -943 0
-901 -944 0
-901 -945 0
-901 -946 0
-901 -947 0
-901 -948 0
-901 -949 0
-901 -950 0
-901 -951 0
-901 -952 0
-901 -953 0
-901 -954 0
-901 -955 0
-901 -956 0
-901 -957 0
-901 -958 0
-901 -959 0
-901 -960 0
-901 -961 0
-901 -962 0
-901 -963 0
-901 -964 0
-901 -965 0
-901 -966 0
-901 -967 0
-901 -968 0
-901 -969 0
-901 -970 0
-901 -971 0
-901 -972 0
-901 -973 0
-901 -974 0
-901 -975 0
-901 -976 0
-901 -977 0
-901 -978 0
-902 -903 0
-902 -904 0
-902 -905 0
-902 -906 0
-902 -907 0
-902 -908 0
-902 -909 0
-902 -910 0
-902 -911 0
-902 -912 0
-902 -913 0
-902 -914 0
-902 -915 0
-902 -916 0
-902 -917 0
-902 -918 0
-902 -919 0
-902 -920 0
-902 -921 0
-902 -922 0
-902 -923 0
-902 -924 0
-902 -925 0
-902 -926 0
-902 -927 0
-902 -928 0
-902 -929 0
-902 -930 0
-902 -931 0
-902 -932 0
-902 -933 0
-902 -934 0
-902 -935 0
-902 -936 0
-902 -937 0
-902 -938 0
-902 -939 0
-902 -940 0
-902 -941 0
-902 -942 0
-902 -943 0
-902 -944 0
-902 -945 0
-902 -946 0
-902 -947 0
-902 -948 0
-902 -949 0
-902 -950 0
-902 -951 0
-902 -952 0
-902 -953 0
-902 -954 0
-902 -955 0
-902 -956 0
-902 -957 0
-902 -958 0
-902 -959 0
-902 -960 0
-902 -961 0
-902 -962 0
-902 -963 0
-902 -964 0
-902 -965 0
-902 -966 0
-902 -967 0
-902 -968 0
-902 -969 0
-902 -970 0
-902 -971 0
-902 -972 0
-902 -973 0
-902 -974 0
-902 -975 0
-902 -976 0
-902 -977 0
-902 -978 0
-903 -904 0
-903 -905 0
-903 -906 0
-903 -907 0
-903 -908 0
-903 -909 0
-903 -910 0
-903 -911 0
-903 -912 0
-903 -913 0
-903 -914 0
-903 -915 0
-903 -916 0
-903 -917 0
-903 -918 0
-903 -919 0
-903 -920 0
-903 -921 0
-903 -922 0
-903 -923 0
-903 -924 0
-903 -925 0
-903 -926 0
-903 -927 0
-903 -928 0
-903 -929 0
-903 -930 0
-903 -931 0
-903 -932 0
-903 -933 0
-903 -934 0
-903 -935 0
-903 -936 0
-903 -937 0
-903 -938 0
-903 -939 0
-903 -940 0
-903 -941 0
-903 -942 0
-903 -943 0
-903 -944 0
-903 -945 0
-903 -946 0
-903 -947 0
-903 -948 0
-903 -949 0
-903 -950 0
-903 -951 0
-903 -952 0
-903 -953 0
-903 -954 0
-903 -955 0
-903 -956 0
-903 -957 0
-903 -958 0
-903 -959 0
-903 -960 0
-903 -961 0
-903 -962 0
-903 -963 0
-903 -964 0
-903 -965 0
-903 -966 0
-903 -967 0
-903 -968 0
-903 -969 0
-903 -970 0
-903 -971 0
-903 -972 0
-903 -973 0
-903 -974 0
-903 -975 0
-903 -976 0
-903 -977 0
-903 -978 0
-904 -905 0
-904 -906 0
-904 -907 0
-904 -908 0
-904 -909 0
-904 -910 0
-904 -911 0
-904 -912 0
-904 -913 0
-904 -914 0
-904 -915 0
-904 -916 0
-904 -917 0
-904 -918 0
-904 -919 0
-904 -920 0
-904 -921 0
-904 -922 0
-904 -923 0
-904 -924 0
-904 -925 0
-904 -926 0
-904 -927 0
-904 -928 0
-904 -929 0
-904 -930 0
-904 -931 0
-904 -932 0
-904 -933 0
-904 -934 0
-904 -935 0
-904 -936 0
-904 -937 0
-904 -938 0
-904 -939 0
-904 -940 0
-904 -941 0
-904 -942 0
-904 -943 0
-904 -944 0
-904 -945 0
-904 -946 0
-904 -947 0
-904 -948 0
-904 -949 0
-904 -950 0
-904 -951 0
-904 -952 0
-904 -953 0
-904 -954 0
-904 -955 0
-904 -956 0
-904 -957 0
-904 -958 0
-904 -959 0
-904 -960 0
-904 -961 0
-904 -962 0
-904 -963 0
-904 -964 0
-904 -965 0
-904 -966 0
-904 -967 0
-904 -968 0
-904 -969 0
-904 -970 0
-904 -971 0
-904 -972 0
-904 -973 0
-904 -974 0
-904 -975 0
-904 -976 0
-904 -977 0
-904 -978 0
-905 -906 0
-905 -907 0
-905 -908 0
-905 -909 0
-905 -910 0
-905 -911 0
-905 -912 0
-905 -913 0
-905 -914 0
-905 -915 0
-905 -916 0
-905 -917 0
-905 -918 0
-905 -919 0
-905 -920 0
-905 -921 0
-905 -922 0
-905 -923 0
-905 -924 0
-905 -925 0
-905 -926 0
-905 -927 0
-905 -928 0
-905 -929 0
-905 -930 0
-905 -931 0
-905 -932 0
-905 -933 0
-905 -934 0
-905 -935 0
-905 -936 0
-905 -937 0
-905 -938 0
-905 -939 0
-905 -940 0
-905 -941 0
-905 -942 0
-905 -943 0
-905 -944 0
-905 -945 0
-905 -946 0
-905 -947 0
-905 -948 0
-905 -949 0
-905 -950 0
-905 -951 0
-905 -952 0
-905 -953 0
-905 -954 0
-905 -955 0
-905 -956 0
-905 -957 0
-905 -958 0
-905 -959 0
-905 -960 0
-905 -961 0
-905 -962 0
-905 -963 0
-905 -964 0
-905 -965 0
-905 -966 0
-905 -967 0
-905 -968 0
-905 -969 0
-905 -970 0
-905 -971 0
-905 -972 0
-905 -973 0
-905 -974 0
-905 -975 0
-905 -976 0
-905 -977 0
-905 -978 0
-906 -907 0
-906 -908 0
-906 -909 0
-906 -910 0
-906 -911 0
-906 -912 0
-906 -913 0
-906 -914 0
-906 -915 0
-906 -916 0
-906 -917 0
-906 -918 0
-906 -919 0
-906 -920 0
-906 -921 0
-906 -922 0
-906 -923 0
-906 -924 0
-906 -925 0
-906 -926 0
-906 -927 0
-906 -928 0
-906 -929 0
-906 -930 0
-906 -931 0
-906 -932 0
-906 -933 0
-906 -934 0
-906 -935 0
-906 -936 0
-906 -937 0
-906 -938 0
-906 -939 0
-906 -940 0
-906 -941 0
-906 -942 0
-906 -943 0
-906 -944 0
-906 -945 0
-906 -946 0
-906 -947 0
-906 -948 0
-906 -949 0
-906 -950 0
-906 -951 0
-906 -952 0
-906 -953 0
-906 -954 0
-906 -955 0
-906 -956 0
-906 -957 0
-906 -958 0
-906 -959 0
-906 -960 0
-906 -961 0
-906 -962 0
-906 -963 0
-906 -964 0
-906 -965 0
-906 -966 0
-906 -967 0
-906 -968 0
-906 -969 0
-906 -970 0
-906 -971 0
-906 -972 0
-906 -973 0
-906 -974 0
-906 -975 0
-906 -976 0
-906 -977 0
-906 -978 0
-907 -908 0
-907 -909 0
-907 -910 0
-907 -911 0
-907 -912 0
-907 -913 0
-907 -914 0
-907 -915 0
-907 -916 0
-907 -917 0
-907 -918 0
-907 -919 0
-907 -920 0
-907 -921 0
-907 -922 0
-907 -923 0
-907 -924 0
-907 -925 0
-907 -926 0
-907 -927 0
-907 -928 0
-907 -929 0
-907 -930 0
-907 -931 0
-907 -932 0
-907 -933 0
-907 -934 0
-907 -935 0
-907 -936 0
-907 -937 0
-907 -938 0
-907 -939 0
-907 -940 0
-907 -941 0
-907 -942 0
-907 -943 0
-907 -944 0
-907 -945 0
-907 -946 0
-907 -947 0
-907 -948 0
-907 -949 0
-907 -950 0
-907 -951 0
-907 -952 0
-907 -953 0
-907 -954 0
-907 -955 0
-907 -956 0
-907 -957 0
-907 -958 0
-907 -959 0
-907 -960 0
-907 -961 0
-907 -962 0
-907 -963 0
-907 -964 0
-907 -965 0
-907 -966 0
-907 -967 0
-907 -968 0
-907 -969 0
-907 -970 0
-907 -971 0
-907 -972 0
-907 -973 0
-907 -974 0
-907 -975 0
-907 -976 0
-907 -977 0
-907 -978 0
-908 -909 0
-908 -910 0
-908 -911 0
-908 -912 0
-908 -913 0
-908 -914 0
-908 -915 0
-908 -916 0
-908 -917 0
-908 -918 0
-908 -919 0
-908 -920 0
-908 -921 0
-908 -922 0
-908 -923 0
-908 -924 0
-908 -925 0
-908 -926 0
-908 -927 0
-908 -928 0
-908 -929 0
-908 -930 0
-908 -931 0
-908 -932 0
-908 -933 0
-908 -934 0
-908 -935 0
-908 -936 0
-908 -937 0
-908 -938 0
-908 -939 0
-908 -940 0
-908 -941 0
-908 -942 0
-908 -943 0
-908 -944 0
-908 -945 0
-908 -946 0
-908 -947 0
-908 -948 0
-908 -949 0
-908 -950 0
-908 -951 0
-908 -952 0
-908 -953 0
-908 -954 0
-908 -955 0
-908 -956 0
-908 -957 0
-908 -958 0
-908 -959 0
-908 -960 0
-908 -961 0
-908 -962 0
-908 -963 0
-908 -964 0
-908 -965 0
-908 -966 0
-908 -967 0
-908 -968 0
-908 -969 0
-908 -970 0
-908 -971 0
-908 -972 0
-908 -973 0
-908 -974 0
-908 -975 0
-908 -976 0
-908 -977 0
-908 -978 0
-909 -910 0
-909 -911 0
-909 -912 0
-909 -913 0
-909 -914 0
-909 -915 0
-909 -916 0
-909 -917 0
-909 -918 0
-909 -919 0
-909 -920 0
-909 -921 0
-909 -922 0
-909 -923 0
-909 -924 0
-909 -925 0
-909 -926 0
-909 -927 0
-909 -928 0
-909 -929 0
-909 -930 0
-909 -931 0
-909 -932 0
-909 -933 0
-909 -934 0
-909 -935 0
-909 -936 0
-909 -937 0
-909 -938 0
-909 -939 0
-909 -940 0
-909 -941 0
-909 -942 0
-909 -943 0
-909 -944 0
-909 -945 0
-909 -946 0
-909 -947 0
-909 -948 0
-909 -949 0
-909 -950 0
-909 -951 0
-909 -952 0
-909 -953 0
-909 -954 0
-909 -955 0
-909 -956 0
-909 -957 0
-909 -958 0
-909 -959 0
-909 -960 0
-909 -961 0
-909 -962 0
-909 -963 0
-909 -964 0
-909 -965 0
-909 -966 0
-909 -967 0
-909 -968 0
-909 -969 0
-909 -970 0
-909 -971 0
-909 -972 0
-909 -973 0
-909 -974 0
-909 -975 0
-909 -976 0
-909 -977 0
-909 -978 0
-910 -911 0
-910 -912 0
-910 -913 0
-910 -914 0
-910 -915 0
-910 -916 0
-910 -917 0
-910 -918 0
-910 -919 0
-910 -920 0
-910 -921 0
-910 -922 0
-910 -923 0
-910 -924 0
-910 -925 0
-910 -926 0
-910 -927 0
-910 -928 0
-910 -929 0
-910 -930 0
-910 -931 0
-910 -932 0
-910 -933 0
-910 -934 0
-910 -935 0
-910 -936 0
-910 -937 0
-910 -938 0
-910 -939 0
-910 -940 0
-910 -941 0
-910 -942 0
-910 -943 0
-910 -944 0
-910 -945 0
-910 -946 0
-910 -947 0
-910 -948 0
-910 -949 0
-910 -950 0
-910 -951 0
-910 -952 0
-910 -953 0
-910 -954 0
-910 -955 0
-910 -956 0
-910 -957 0
-910 -958 0
-910 -959 0
-910 -960 0
-910 -961 0
-910 -962 0
-910 -963 0
-910 -964 0
-910 -965 0
-910 -966 0
-910 -967 0
-910 -968 0
-910 -969 0
-910 -970 0
-910 -971 0
-910 -972 0
-910 -973 0
-910 -974 0
-910 -975 0
-910 -976 0
-910 -977 0
-910 -978 0
-911 -912 0
-911 -913 0
-911 -914 0
-911 -915 0
-911 -916 0
-911 -917 0
-911 -918 0
-911 -919 0
-911 -920 0
-911 -921 0
-911 -922 0
-911 -923 0
-911 -924 0
-911 -925 0
-911 -926 0
-911 -927 0
-911 -928 0
-911 -929 0
-911 -930 0
-911 -931 0
-911 -932 0
-911 -933 0
-911 -934 0
-911 -935 0
-911 -936 0
-911 -937 0
-911 -938 0
-911 -939 0
-911 -940 0
-911 -941 0
-911 -942 0
-911 -943 0
-911 -944 0
-911 -945 0
-911 -946 0
-911 -947 0
-911 -948 0
-911 -949 0
-911 -950 0
-911 -951 0
-911 -952 0
-911 -953 0
-911 -954 0
-911 -955 0
-911 -956 0
-911 -957 0
-911 -958 0
-911 -959 0
-911 -960 0
-911 -961 0
-911 -962 0
-911 -963 0
-911 -964 0
-911 -965 0
-911 -966 0
-911 -967 0
-911 -968 0
-911 -969 0
-911 -970 0
-911 -971 0
-911 -972 0
-911 -973 0
-911 -974 0
-911 -975 0
-911 -976 0
-911 -977 0
-911 -978 0
-912 -913 0
-912 -914 0
-912 -915 0
-912 -916 0
-912 -917 0
-912 -918 0
-912 -919 0
-912 -920 0
-912 -921 0
-912 -922 0
-912 -923 0
-912 -924 0
-912 -925 0
-912 -926 0
-912 -927 0
-912 -928 0
-912 -929 0
-912 -930 0
-912 -931 0
-912 -932 0
-912 -933 0
-912 -934 0
-912 -935 0
-912 -936 0
-912 -937 0
-912 -938 0
-912 -939 0
-912 -940 0
-912 -941 0
-912 -942 0
-912 -943 0
-912 -944 0
-912 -945 0
-912 -946 0
-912 -947 0
-912 -948 0
-912 -949 0
-912 -950 0
-912 -951 0
-912 -952 0
-912 -953 0
-912 -954 0
-912 -955 0
-912 -956 0
-912 -957 0
-912 -958 0
-912 -959 0
-912 -960 0
-912 -961 0
-912 -962 0
-912 -963 0
-912 -964 0
-912 -965 0
-912 -966 0
-912 -967 0
-912 -968 0
-912 -969 0
-912 -970 0
-912 -971 0
-912 -972 0
-912 -973 0
-912 -974 0
-912 -975 0
-912 -976 0
-912 -977 0
-912 -978 0
-913 -914 0
-913 -915 0
-913 -916 0
-913 -917 0
-913 -918 0
-913 -919 0
-913 -920 0
-913 -921 0
-913 -922 0
-913 -923 0
-913 -924 0
-913 -925 0
-913 -926 0
-913 -927 0
-913 -928 0
-913 -929 0
-913 -930 0
-913 -931 0
-913 -932 0
-913 -933 0
-913 -934 0
-913 -935 0
-913 -936 0
-913 -937 0
-913 -938 0
-913 -939 0
-913 -940 0
-913 -941 0
-913 -942 0
-913 -943 0
-913 -944 0
-913 -945 0
-913 -946 0
-913 -947 0
-913 -948 0
-913 -949 0
-913 -950 0
-913 -951 0
-913 -952 0
-913 -953 0
-913 -954 0
-913 -955 0
-913 -956 0
-913 -957 0
-913 -958 0
-913 -959 0
-913 -960 0
-913 -961 0
-913 -962 0
-913 -963 0
-913 -964 0
-913 -965 0
-913 -966 0
-913 -967 0
-913 -968 0
-913 -969 0
-913 -970 0
-913 -971 0
-913 -972 0
-913 -973 0
-913 -974 0
-913 -975 0
-913 -976 0
-913 -977 0
-913 -978 0
-914 -915 0
-914 -916 0
-914 -917 0
-914 -918 0
-914 -919 0
-914 -920 0
-914 -921 0
-914 -922 0
-914 -923 0
-914 -924 0
-914 -925 0
-914 -926 0
-914 -927 0
-914 -928 0
-914 -929 0
-914 -930 0
-914 -931 0
-914 -932 0
-914 -933 0
-914 -934 0
-914 -935 0
-914 -936 0
-914 -937 0
-914 -938 0
-914 -939 0
-914 -940 0
-914 -941 0
-914 -942 0
-914 -943 0
-914 -944 0
-914 -945 0
-914 -946 0
-914 -947 0
-914 -948 0
-914 -949 0
-914 -950 0
-914 -951 0
-914 -952 0
-914 -953 0
-914 -954 0
-914 -955 0
-914 -956 0
-914 -957 0
-914 -958 0
-914 -959 0
-914 -960 0
-914 -961 0
-914 -962 0
-914 -963 0
-914 -964 0
-914 -965 0
-914 -966 0
-914 -967 0
-914 -968 0
-914 -969 0
-914 -970 0
-914 -971 0
-914 -972 0
-914 -973 0
-914 -974 0
-914 -975 0
-914 -976 0
-914 -977 0
-914 -978 0
-915 -916 0
-915 -917 0
-915 -918 0
-915 -919 0
-915 -920 0
-915 -921 0
-915 -922 0
-915 -923 0
-915 -924 0
-915 -925 0
-915 -926 0
-915 -927 0
-915 -928 0
-915 -929 0
-915 -930 0
-915 -931 0
-915 -932 0
-915 -933 0
-915 -934 0
-915 -935 0
-915 -936 0
-915 -937 0
-915 -938 0
-915 -939 0
-915 -940 0
-915 -941 0
-915 -942 0
-915 -943 0
-915 -944 0
-915 -945 0
-915 -946 0
-915 -947 0
-915 -948 0
-915 -949 0
-915 -950 0
-915 -951 0
-915 -952 0
-915 -953 0
-915 -954 0
-915 -955 0
-915 -956 0
-915 -957 0
-915 -958 0
-915 -959 0
-915 -960 0
-915 -961 0
-915 -962 0
-915 -963 0
-915 -964 0
-915 -965 0
-915 -966 0
-915 -967 0
-915 -968 0
-915 -969 0
-915 -970 0
-915 -971 0
-915 -972 0
-915 -973 0
-915 -974 0
-915 -975 0
-915 -976 0
-915 -977 0
-915 -978 0
-916 -917 0
-916 -918 0
-916 -919 0
-916 -920 0
-916 -921 0
-916 -922 0
-916 -923 0
-916 -924 0
-916 -925 0
-916 -926 0
-916 -927 0
-916 -928 0
-916 -929 0
-916 -930 0
-916 -931 0
-916 -932 0
-916 -933 0
-916 -934 0
-916 -935 0
-916 -936 0
-916 -937 0
-916 -938 0
-916 -939 0
-916 -940 0
-916 -941 0
-916 -942 0
-916 -943 0
-916 -944 0
-916 -945 0
-916 -946 0
-916 -947 0
-916 -948 0
-916 -949 0
-916 -950 0
-916 -951 0
-916 -952 0
-916 -953 0
-916 -954 0
-916 -955 0
-916 -956 0
-916 -957 0
-916 -958 0
-916 -959 0
-916 -960 0
-916 -961 0
-916 -962 0
-916 -963 0
-916 -964 0
-916 -965 0
-916 -966 0
-916 -967 0
-916 -968 0
-916 -969 0
-916 -970 0
-916 -971 0
-916 -972 0
-916 -973 0
-916 -974 0
-916 -975 0
-916 -976 0
-916 -977 0
-916 -978 0
-917 -918 0
-917 -919 0
-917 -920 0
-917 -921 0
-917 -922 0
-917 -923 0
-917 -924 0
-917 -925 0
-917 -926 0
-917 -927 0
-917 -928 0
-917 -929 0
-917 -930 0
-917 -931 0
-917 -932 0
-917 -933 0
-917 -934 0
-917 -935 0
-917 -936 0
-917 -937 0
-917 -938 0
-917 -939 0
-917 -940 0
-917 -941 0
-917 -942 0
-917 -943 0
-917 -944 0
-917 -945 0
-917 -946 0
-917 -947 0
-917 -948 0
-917 -949 0
-917 -950 0
-917 -951 0
-917 -952 0
-917 -953 0
-917 -954 0
-917 -955 0
-917 -956 0
-917 -957 0
-917 -958 0
-917 -959 0
-917 -960 0
-917 -961 0
-917 -962 0
-917 -963 0
-917 -964 0
-917 -965 0
-917 -966 0
-917 -967 0
-917 -968 0
-917 -969 0
-917 -970 0
-917 -971 0
-917 -972 0
-917 -973 0
-917 -974 0
-917 -975 0
-917 -976 0
-917 -977 0
-917 -978 0
-918 -919 0
-918 -920 0
-918 -921 0
-918 -922 0
-918 -923 0
-918 -924 0
-918 -925 0
-918 -926 0
-918 -927 0
-918 -928 0
-918 -929 0
-918 -930 0
-918 -931 0
-918 -932 0
-918 -933 0
-918 -934 0
-918 -935 0
-918 -936 0
-918 -937 0
-918 -938 0
-918 -939 0
-918 -940 0
-918 -941 0
-918 -942 0
-918 -943 0
-918 -944 0
-918 -945 0
-918 -946 0
-918 -947 0
-918 -948 0
-918 -949 0
-918 -950 0
-918 -951 0
-918 -952 0
-918 -953 0
-918 -954 0
-918 -955 0
-918 -956 0
-918 -957 0
-918 -958 0
-918 -959 0
-918 -960 0
-918 -961 0
-918 -962 0
-918 -963 0
-918 -964 0
-918 -965 0
-918 -966 0
-918 -967 0
-918 -968 0
-918 -969 0
-918 -970 0
-918 -971 0
-918 -972 0
-918 -973 0
-918 -974 0
-918 -975 0
-918 -976 0
-918 -977 0
-918 -978 0
-919 -920 0
-919 -921 0
-919 -922 0
-919 -923 0
-919 -924 0
-919 -925 0
-919 -926 0
-919 -927 0
-919 -928 0
-919 -929 0
-919 -930 0
-919 -931 0
-919 -932 0
-919 -933 0
-919 -934 0
-919 -935 0
-919 -936 0
-919 -937 0
-919 -938 0
-919 -939 0
-919 -940 0
-919 -941 0
-919 -942 0
-919 -943 0
-919 -944 0
-919 -945 0
-919 -946 0
-919 -947 0
-919 -948 0
-919 -949 0
-919 -950 0
-919 -951 0
-919 -952 0
-919 -953 0
-919 -954 0
-919 -955 0
-919 -956 0
-919 -957 0
-919 -958 0
-919 -959 0
-919 -960 0
-919 -961 0
-919 -962 0
-919 -963 0
-919 -964 0
-919 -965 0
-919 -966 0
-919 -967 0
-919 -968 0
-919 -969 0
-919 -970 0
-919 -971 0
-919 -972 0
-919 -973 0
-919 -974 0
-919 -975 0
-919 -976 0
-919 -977 0
-919 -978 0
-920 -921 0
-920 -922 0
-920 -923 0
-920 -924 0
-920 -925 0
-920 -926 0
-920 -927 0
-920 -928 0
-920 -929 0
-920 -930 0
-920 -931 0
-920 -932 0
-920 -933 0
-920 -934 0
-920 -935 0
-920 -936 0
-920 -937 0
-920 -938 0
-920 -939 0
-920 -940 0
-920 -941 0
-920 -942 0
-920 -943 0
-920 -944 0
-920 -945 0
-920 -946 0
-920 -947 0
-920 -948 0
-920 -949 0
-920 -950 0
-920 -951 0
-920 -952 0
-920 -953 0
-920 -954 0
-920 -955 0
-920 -956 0
-920 -957 0
-920 -958 0
-920 -959 0
-920 -960 0
-920 -961 0
-920 -962 0
-920 -963 0
-920 -964 0
-920 -965 0
-920 -966 0
-920 -967 0
-920 -968 0
-920 -969 0
-920 -970 0
-920 -971 0
-920 -972 0
-920 -973 0
-920 -974 0
-920 -975 0
-920 -976 0
-920 -977 0
-920 -978 0
-921 -922 0
-921 -923 0
-921 -924 0
-921 -925 0
-921 -926 0
-921 -927 0
-921 -928 0
-921 -929 0
-921 -930 0
-921 -931 0
-921 -932 0
-921 -933 0
-921 -934 0
-921 -935 0
-921 -936 0
-921 -937 0
-921 -938 0
-921 -939 0
-921 -940 0
-921 -941 0
-921 -942 0
-921 -943 0
-921 -944 0
-921 -945 0
-921 -946 0
-921 -947 0
-921 -948 0
-921 -949 0
-921 -950 0
-921 -951 0
-921 -952 0
-921 -953 0
-921 -954 0
-921 -955 0
-921 -956 0
-921 -957 0
-921 -958 0
-921 -959 0
-921 -960 0
-921 -961 0
-921 -962 0
-921 -963 0
-921 -964 0
-921 -965 0
-921 -966 0
-921 -967 0
-921 -968 0
-921 -969 0
-921 -970 0
-921 -971 0
-921 -972 0
-921 -973 0
-921 -974 0
-921 -975 0
-921 -976 0
-921 -977 0
-921 -978 0
-922 -923 0
-922 -924 0
-922 -925 0
-922 -926 0
-922 -927 0
-922 -928 0
-922 -929 0
-922 -930 0
-922 -931 0
-922 -932 0
-922 -933 0
-922 -934 0
-922 -935 0
-922 -936 0
-922 -937 0
-922 -938 0
-922 -939 0
-922 -940 0
-922 -941 0
-922 -942 0
-922 -943 0
-922 -944 0
-922 -945 0
-922 -946 0
-922 -947 0
-922 -948 0
-922 -949 0
-922 -950 0
-922 -951 0
-922 -952 0
-922 -953 0
-922 -954 0
-922 -955 0
-922 -956 0
-922 -957 0
-922 -958 0
-922 -959 0
-922 -960 0
-922 -961 0
-922 -962 0
-922 -963 0
-922 -964 0
-922 -965 0
-922 -966 0
-922 -967 0
-922 -968 0
-922 -969 0
-922 -970 0
-922 -971 0
-922 -972 0
-922 -973 0
-922 -974 0
-922 -975 0
-922 -976 0
-922 -977 0
-922 -978 0
-923 -924 0
-923 -925 0
-923 -926 0
-923 -927 0
-923 -928 0
-923 -929 0
-923 -930 0
-923 -931 0
-923 -932 0
-923 -933 0
-923 -934 0
-923 -935 0
-923 -936 0
-923 -937 0
-923 -938 0
-923 -939 0
-923 -940 0
-923 -941 0
-923 -942 0
-923 -943 0
-923 -944 0
-923 -945 0
-923 -946 0
-923 -947 0
-923 -948 0
-923 -949 0
-923 -950 0
-923 -951 0
-923 -952 0
-923 -953 0
-923 -954 0
-923 -955 0
-923 -956 0
-923 -957 0
-923 -958 0
-923 -959 0
-923 -960 0
-923 -961 0
-923 -962 0
-923 -963 0
-923 -964 0
-923 -965 0
-923 -966 0
-923 -967 0
-923 -968 0
-923 -969 0
-923 -970 0
-923 -971 0
-923 -972 0
-923 -973 0
-923 -974 0
-923 -975 0
-923 -976 0
-923 -977 0
-923 -978 0
-924 -925 0
-924 -926 0
-924 -927 0
-924 -928 0
-924 -929 0
-924 -930 0
-924 -931 0
-924 -932 0
-924 -933 0
-924 -934 0
-924 -935 0
-924 -936 0
-924 -937 0
-924 -938 0
-924 -939 0
-924 -940 0
-924 -941 0
-924 -942 0
-924 -943 0
-924 -944 0
-924 -945 0
-924 -946 0
-924 -947 0
-924 -948 0
-924 -949 0
-924 -950 0
-924 -951 0
-924 -952 0
-924 -953 0
-924 -954 0
-924 -955 0
-924 -956 0
-924 -957 0
-924 -958 0
-924 -959 0
-924 -960 0
-924 -961 0
-924 -962 0
-924 -963 0
-924 -964 0
-924 -965 0
-924 -966 0
-924 -967 0
-924 -968 0
-924 -969 0
-924 -970 0
-924 -971 0
-924 -972 0
-924 -973 0
-924 -974 0
-924 -975 0
-924 -976 0
-924 -977 0
-924 -978 0
-925 -926 0
-925 -927 0
-925 -928 0
-925 -929 0
-925 -930 0
-925 -931 0
-925 -932 0
-925 -933 0
-925 -934 0
-925 -935 0
-925 -936 0
-925 -937 0
-925 -938 0
-925 -939 0
-925 -940 0
-925 -941 0
-925 -942 0
-925 -943 0
-925 -944 0
-925 -945 0
-925 -946 0
-925 -947 0
-925 -948 0
-925 -949 0
-925 -950 0
-925 -951 0
-925 -952 0
-925 -953 0
-925 -954 0
-925 -955 0
-925 -956 0
-925 -957 0
-925 -958 0
-925 -959 0
-925 -960 0
-925 -961 0
-925 -962 0
-925 -963 0
-925 -964 0
-925 -965 0
-925 -966 0
-925 -967 0
-925 -968 0
-925 -969 0
-925 -970 0
-925 -971 0
-925 -972 0
-925 -973 0
-925 -974 0
-925 -975 0
-925 -976 0
-925 -977 0
-925 -978 0
-926 -927 0
-926 -928 0
-926 -929 0
-926 -930 0
-926 -931 0
-926 -932 0
-926 -933 0
-926 -934 0
-926 -935 0
-926 -936 0
-926 -937 0
-926 -938 0
-926 -939 0
-926 -940 0
-926 -941 0
-926 -942 0
-926 -943 0
-926 -944 0
-926 -945 0
-926 -946 0
-926 -947 0
-926 -948 0
-926 -949 0
-926 -950 0
-926 -951 0
-926 -952 0
-926 -953 0
-926 -954 0
-926 -955 0
-926 -956 0
-926 -957 0
-926 -958 0
-926 -959 0
-926 -960 0
-926 -961 0
-926 -962 0
-926 -963 0
-926 -964 0
-926 -965 0
-926 -966 0
-926 -967 0
-926 -968 0
-926 -969 0
-926 -970 0
-926 -971 0
-926 -972 0
-926 -973 0
-926 -974 0
-926 -975 0
-926 -976 0
-926 -977 0
-926 -978 0
-927 -928 0
-927 -929 0
-927 -930 0
-927 -931 0
-927 -932 0
-927 -933 0
-927 -934 0
-927 -935 0
-927 -936 0
-927 -937 0
-927 -938 0
-927 -939 0
-927 -940 0
-927 -941 0
-927 -942 0
-927 -943 0
-927 -944 0
-927 -945 0
-927 -946 0
-927 -947 0
-927 -948 0
-927 -949 0
-927 -950 0
-927 -951 0
-927 -952 0
-927 -953 0
-927 -954 0
-927 -955 0
-927 -956 0
-927 -957 0
-927 -958 0
-927 -959 0
-927 -960 0
-927 -961 0
-927 -962 0
-927 -963 0
-927 -964 0
-927 -965 0
-927 -966 0
-927 -967 0
-927 -968 0
-927 -969 0
-927 -970 0
-927 -971 0
-927 -972 0
-927 -973 0
-927 -974 0
-927 -975 0
-927 -976 0
-927 -977 0
-927 -978 0
-928 -929 0
-928 -930 0
-928 -931 0
-928 -932 0
-928 -933 0
-928 -934 0
-928 -935 0
-928 -936 0
-928 -937 0
-928 -938 0
-928 -939 0
-928 -940 0
-928 -941 0
-928 -942 0
-928 -943 0
-928 -944 0
-928 -945 0
-928 -946 0
-928 -947 0
-928 -948 0
-928 -949 0
-928 -950 0
-928 -951 0
-928 -952 0
-928 -953 0
-928 -954 0
-928 -955 0
-928 -956 0
-928 -957 0
-928 -958 0
-928 -959 0
-928 -960 0
-928 -961 0
-928 -962 0
-928 -963 0
-928 -964 0
-928 -965 0
-928 -966 0
-928 -967 0
-928 -968 0
-928 -969 0
-928 -970 0
-928 -971 0
-928 -972 0
-928 -973 0
-928 -974 0
-928 -975 0
-928 -976 0
-928 -977 0
-928 -978 0
-929 -930 0
-929 -931 0
-929 -932 0
-929 -933 0
-929 -934 0
-929 -935 0
-929 -936 0
-929 -937 0
-929 -938 0
-929 -939 0
-929 -940 0
-929 -941 0
-929 -942 0
-929 -943 0
-929 -944 0
-929 -945 0
-929 -946 0
-929 -947 0
-929 -948 0
-929 -949 0
-929 -950 0
-929 -951 0
-929 -952 0
-929 -953 0
-929 -954 0
-929 -955 0
-929 -956 0
-929 -957 0
-929 -958 0
-929 -959 0
-929 -960 0
-929 -961 0
-929 -962 0
-929 -963 0
-929 -964 0
-929 -965 0
-929 -966 0
-929 -967 0
-929 -968 0
-929 -969 0
-929 -970 0
-929 -971 0
-929 -972 0
-929 -973 0
-929 -974 0
-929 -975 0
-929 -976 0
-929 -977 0
-929 -978 0
-930 -931 0
-930 -932 0
-930 -933 0
-930 -934 0
-930 -935 0
-930 -936 0
-930 -937 0
-930 -938 0
-930 -939 0
-930 -940 0
-930 -941 0
-930 -942 0
-930 -943 0
-930 -944 0
-930 -945 0
-930 -946 0
-930 -947 0
-930 -948 0
-930 -949 0
-930 -950 0
-930 -951 0
-930 -952 0
-930 -953 0
-930 -954 0
-930 -955 0
-930 -956 0
-930 -957 0
-930 -958 0
-930 -959 0
-930 -960 0
-930 -961 0
-930 -962 0
-930 -963 0
-930 -964 0
-930 -965 0
-930 -966 0
-930 -967 0
-930 -968 0
-930 -969 0
-930 -970 0
-930 -971 0
-930 -972 0
-930 -973 0
-930 -974 0
-930 -975 0
-930 -976 0
-930 -977 0
-930 -978 0
-931 -932 0
-931 -933 0
-931 -934 0
-931 -935 0
-931 -936 0
-931 -937 0
-931 -938 0
-931 -939 0
-931 -940 0
-931 -941 0
-931 -942 0
-931 -943 0
-931 -944 0
-931 -945 0
-931 -946 0
-931 -947 0
-931 -948 0
-931 -949 0
-931 -950 0
-931 -951 0
-931 -952 0
-931 -953 0
-931 -954 0
-931 -955 0
-931 -956 0
-931 -957 0
-931 -958 0
-931 -959 0
-931 -960 0
-931 -961 0
-931 -962 0
-931 -963 0
-931 -964 0
-931 -965 0
-931 -966 0
-931 -967 0
-931 -968 0
-931 -969 0
-931 -970 0
-931 -971 0
-931 -972 0
-931 -973 0
-931 -974 0
-931 -975 0
-931 -976 0
-931 -977 0
-931 -978 0
-932 -933 0
-932 -934 0
-932 -935 0
-932 -936 0
-932 -937 0
-932 -938 0
-932 -939 0
-932 -940 0
-932 -941 0
-932 -942 0
-932 -943 0
-932 -944 0
-932 -945 0
-932 -946 0
-932 -947 0
-932 -948 0
-932 -949 0
-932 -950 0
-932 -951 0
-932 -952 0
-932 -953 0
-932 -954 0
-932 -955 0
-932 -956 0
-932 -957 0
-932 -958 0
-932 -959 0
-932 -960 0
-932 -961 0
-932 -962 0
-932 -963 0
-932 -964 0
-932 -965 0
-932 -966 0
-932 -967 0
-932 -968 0
-932 -969 0
-932 -970 0
-932 -971 0
-932 -972 0
-932 -973 0
-932 -974 0
-932 -975 0
-932 -976 0
-932 -977 0
-932 -978 0
-933 -934 0
-933 -935 0
-933 -936 0
-933 -937 0
-933 -938 0
-933 -939 0
-933 -940 0
-933 -941 0
-933 -942 0
-933 -943 0
-933 -944 0
-933 -945 0
-933 -946 0
-933 -947 0
-933 -948 0
-933 -949 0
-933 -950 0
-933 -951 0
-933 -952 0
-933 -953 0
-933 -954 0
-933 -955 0
-933 -956 0
-933 -957 0
-933 -958 0
-933 -959 0
-933 -960 0
-933 -961 0
-933 -962 0
-933 -963 0
-933 -964 0
-933 -965 0
-933 -966 0
-933 -967 0
-933 -968 0
-933 -969 0
-933 -970 0
-933 -971 0
-933 -972 0
-933 -973 0
-933 -974 0
-933 -975 0
-933 -976 0
-933 -977 0
-933 -978 0
-934 -935 0
-934 -936 0
-934 -937 0
-934 -938 0
-934 -939 0
-934 -940 0
-934 -941 0
-934 -942 0
-934 -943 0
-934 -944 0
-934 -945 0
-934 -946 0
-934 -947 0
-934 -948 0
-934 -949 0
-934 -950 0
-934 -951 0
-934 -952 0
-934 -953 0
-934 -954 0
-934 -955 0
-934 -956 0
-934 -957 0
-934 -958 0
-934 -959 0
-934 -960 0
-934 -961 0
-934 -962 0
-934 -963 0
-934 -964 0
-934 -965 0
-934 -966 0
-934 -967 0
-934 -968 0
-934 -969 0
-934 -970 0
-934 -971 0
-934 -972 0
-934 -973 0
-934 -974 0
-934 -975 0
-934 -976 0
-934 -977 0
-934 -978 0
-935 -936 0
-935 -937 0
-935 -938 0
-935 -939 0
-935 -940 0
-935 -941 0
-935 -942 0
-935 -943 0
-935 -944 0
-935 -945 0
-935 -946 0
-935 -947 0
-935 -948 0
-935 -949 0
-935 -950 0
-935 -951 0
-935 -952 0
-935 -953 0
-935 -954 0
-935 -955 0
-935 -956 0
-935 -957 0
-935 -958 0
-935 -959 0
-935 -960 0
-935 -961 0
-935 -962 0
-935 -963 0
-935 -964 0
-935 -965 0
-935 -966 0
-935 -967 0
-935 -968 0
-935 -969 0
-935 -970 0
-935 -971 0
-935 -972 0
-935 -973 0
-935 -974 0
-935 -975 0
-935 -976 0
-935 -977 0
-935 -978 0
-936 -937 0
-936 -938 0
-936 -939 0
-936 -940 0
-936 -941 0
-936 -942 0
-936 -943 0
-936 -944 0
-936 -945 0
-936 -946 0
-936 -947 0
-936 -948 0
-936 -949 0
-936 -950 0
-936 -951 0
-936 -952 0
-936 -953 0
-936 -954 0
-936 -955 0
-936 -956 0
-936 -957 0
-936 -958 0
-936 -959 0
-936 -960 0
-936 -961 0
-936 -962 0
-936 -963 0
-936 -964 0
-936 -965 0
-936 -966 0
-936 -967 0
-936 -968 0
-936 -969 0
-936 -970 0
-936 -971 0
-936 -972 0
-936 -973 0
-936 -974 0
-936 -975 0
-936 -976 0
-936 -977 0
-936 -978 0
-937 -938 0
-937 -939 0
-937 -940 0
-937 -941 0
-937 -942 0
-937 -943 0
-937 -944 0
-937 -945 0
-937 -946 0
-937 -947 0
-937 -948 0
-937 -949 0
-937 -950 0
-937 -951 0
-937 -952 0
-937 -953 0
-937 -954 0
-937 -955 0
-937 -956 0
-937 -957 0
-937 -958 0
-937 -959 0
-937 -960 0
-937 -961 0
-937 -962 0
-937 -963 0
-937 -964 0
-937 -965 0
-937 -966 0
-937 -967 0
-937 -968 0
-937 -969 0
-937 -970 0
-937 -971 0
-937 -972 0
-937 -973 0
-937 -974 0
-937 -975 0
-937 -976 0
-937 -977 0
-937 -978 0
-938 -939 0
-938 -940 0
-938 -941 0
-938 -942 0
-938 -943 0
-938 -944 0
-938 -945 0
-938 -946 0
-938 -947 0
-938 -948 0
-938 -949 0
-938 -950 0
-938 -951 0
-938 -952 0
-938 -953 0
-938 -954 0
-938 -955 0
-938 -956 0
-938 -957 0
-938 -958 0
-938 -959 0
-938 -960 0
-938 -961 0
-938 -962 0
-938 -963 0
-938 -964 0
-938 -965 0
-938 -966 0
-938 -967 0
-938 -968 0
-938 -969 0
-938 -970 0
-938 -971 0
-938 -972 0
-938 -973 0
-938 -974 0
-938 -975 0
-938 -976 0
-938 -977 0
-938 -978 0
-939 -940 0
-939 -941 0
-939 -942 0
-939 -943 0
-939 -944 0
-939 -945 0
-939 -946 0
-939 -947 0
-939 -948 0
-939 -949 0
-939 -950 0
-939 -951 0
-939 -952 0
-939 -953 0
-939 -954 0
-939 -955 0
-939 -956 0
-939 -957 0
-939 -958 0
-939 -959 0
-939 -960 0
-939 -961 0
-939 -962 0
-939 -963 0
-939 -964 0
-939 -965 0
-939 -966 0
-939 -967 0
-939 -968 0
-939 -969 0
-939 -970 0
-939 -971 0
-939 -972 0
-939 -973 0
-939 -974 0
-939 -975 0
-939 -976 0
-939 -977 0
-939 -978 0
-940 -941 0
-940 -942 0
-940 -943 0
-940 -944 0
-940 -945 0
-940 -946 0
-940 -947 0
-940 -948 0
-940 -949 0
-940 -950 0
-940 -951 0
-940 -952 0
-940 -953 0
-940 -954 0
-940 -955 0
-940 -956 0
-940 -957 0
-940 -958 0
-940 -959 0
-940 -960 0
-940 -961 0
-940 -962 0
-940 -963 0
-940 -964 0
-940 -965 0
-940 -966 0
-940 -967 0
-940 -968 0
-940 -969 0
-940 -970 0
-940 -971 0
-940 -972 0
-940 -973 0
-940 -974 0
-940 -975 0
-940 -976 0
-940 -977 0
-940 -978 0
-941 -942 0
-941 -943 0
-941 -944 0
-941 -945 0
-941 -946 0
-941 -947 0
-941 -948 0
-941 -949 0
-941 -950 0
-941 -951 0
-941 -952 0
-941 -953 0
-941 -954 0
-941 -955 0
-941 -956 0
-941 -957 0
-941 -958 0
-941 -959 0
-941 -960 0
-941 -961 0
-941 -962 0
-941 -963 0
-941 -964 0
-941 -965 0
-941 -966 0
-941 -967 0
-941 -968 0
-941 -969 0
-941 -970 0
-941 -971 0
-941 -972 0
-941 -973 0
-941 -974 0
-941 -975 0
-941 -976 0
-941 -977 0
-941 -978 0
-942 -943 0
-942 -944 0
-942 -945 0
-942 -946 0
-942 -947 0
-942 -948 0
-942 -949 0
-942 -950 0
-942 -951 0
-942 -952 0
-942 -953 0
-942 -954 0
-942 -955 0
-942 -956 0
-942 -957 0
-942 -958 0
-942 -959 0
-942 -960 0
-942 -961 0
-942 -962 0
-942 -963 0
-942 -964 0
-942 -965 0
-942 -966 0
-942 -967 0
-942 -968 0
-942 -969 0
-942 -970 0
-942 -971 0
-942 -972 0
-942 -973 0
-942 -974 0
-942 -975 0
-942 -976 0
-942 -977 0
-942 -978 0
-943 -944 0
-943 -945 0
-943 -946 0
-943 -947 0
-943 -948 0
-943 -949 0
-943 -950 0
-943 -951 0
-943 -952 0
-943 -953 0
-943 -954 0
-943 -955 0
-943 -956 0
-943 -957 0
-943 -958 0
-943 -959 0
-943 -960 0
-943 -961 0
-943 -962 0
-943 -963 0
-943 -964 0
-943 -965 0
-943 -966 0
-943 -967 0
-943 -968 0
-943 -969 0
-943 -970 0
-943 -971 0
-943 -972 0
-943 -973 0
-943 -974 0
-943 -975 0
-943 -976 0
-943 -977 0
-943 -978 0
-944 -945 0
-944 -946 0
-944 -947 0
-944 -948 0
-944 -949 0
-944 -950 0
-944 -951 0
-944 -952 0
-944 -953 0
-944 -954 0
-944 -955 0
-944 -956 0
-944 -957 0
-944 -958 0
-944 -959 0
-944 -960 0
-944 -961 0
-944 -962 0
-944 -963 0
-944 -964 0
-944 -965 0
-944 -966 0
-944 -967 0
-944 -968 0
-944 -969 0
-944 -970 0
-944 -971 0
-944 -972 0
-944 -973 0
-944 -974 0
-944 -975 0
-944 -976 0
-944 -977 0
-944 -978 0
-945 -946 0
-945 -947 0
-945 -948 0
-945 -949 0
-945 -950 0
-945 -951 0
-945 -952 0
-945 -953 0
-945 -954 0
-945 -955 0
-945 -956 0
-945 -957 0
-945 -958 0
-945 -959 0
-945 -960 0
-945 -961 0
-945 -962 0
-945 -963 0
-945 -964 0
-945 -965 0
-945 -966 0
-945 -967 0
-945 -968 0
-945 -969 0
-945 -970 0
-945 -971 0
-945 -972 0
-945 -973 0
-945 -974 0
-945 -975 0
-945 -976 0
-945 -977 0
-945 -978 0
-946 -947 0
-946 -948 0
-946 -949 0
-946 -950 0
-946 -951 0
-946 -952 0
-946 -953 0
-946 -954 0
-946 -955 0
-946 -956 0
-946 -957 0
-946 -958 0
-946 -959 0
-946 -960 0
-946 -961 0
-946 -962 0
-946 -963 0
-946 -964 0
-946 -965 0
-946 -966 0
-946 -967 0
-946 -968 0
-946 -969 0
-946 -970 0
-946 -971 0
-946 -972 0
-946 -973 0
-946 -974 0
-946 -975 0
-946 -976 0
-946 -977 0
-946 -978 0
-947 -948 0
-947 -949 0
-947 -950 0
-947 -951 0
-947 -952 0
-947 -953 0
-947 -954 0
-947 -955 0
-947 -956 0
-947 -957 0
-947 -958 0
-947 -959 0
-947 -960 0
-947 -961 0
-947 -962 0
-947 -963 0
-947 -964 0
-947 -965 0
-947 -966 0
-947 -967 0
-947 -968 0
-947 -969 0
-947 -970 0
-947 -971 0
-947 -972 0
-947 -973 0
-947 -974 0
-947 -975 0
-947 -976 0
-947 -977 0
-947 -978 0
-948 -949 0
-948 -950 0
-948 -951 0
-948 -952 0
-948 -953 0
-948 -954 0
-948 -955 0
-948 -956 0
-948 -957 0
-948 -958 0
-948 -959 0
-948 -960 0
-948 -961 0
-948 -962 0
-948 -963 0
-948 -964 0
-948 -965 0
-948 -966 0
-948 -967 0
-948 -968 0
-948 -969 0
-948 -970 0
-948 -971 0
-948 -972 0
-948 -973 0
-948 -974 0
-948 -975 0
-948 -976 0
-948 -977 0
-948 -978 0
-949 -950 0
-949 -951 0
-949 -952 0
-949 -953 0
-949 -954 0
-949 -955 0
-949 -956 0
-949 -957 0
-949 -958 0
-949 -959 0
-949 -960 0
-949 -961 0
-949 -962 0
-949 -963 0
-949 -964 0
-949 -965 0
-949 -966 0
-949 -967 0
-949 -968 0
-949 -969 0
-949 -970 0
-949 -971 0
-949 -972 0
-949 -973 0
-949 -974 0
-949 -975 0
-949 -976 0
-949 -977 0
-949 -978 0
-950 -951 0
-950 -952 0
-950 -953 0
-950 -954 0
-950 -955 0
-950 -956 0
-950 -957 0
-950 -958 0
-950 -959 0
-950 -960 0
-950 -961 0
-950 -962 0
-950 -963 0
-950 -964 0
-950 -965 0
-950 -966 0
-950 -967 0
-950 -968 0
-950 -969 0
-950 -970 0
-950 -971 0
-950 -972 0
-950 -973 0
-950 -974 0
-950 -975 0
-950 -976 0
-950 -977 0
-950 -978 0
-951 -952 0
-951 -953 0
-951 -954 0
-951 -955 0
-951 -956 0
-951 -957 0
-951 -958 0
-951 -959 0
-951 -960 0
-951 -961 0
-951 -962 0
-951 -963 0
-951 -964 0
-951 -965 0
-951 -966 0
-951 -967 0
-951 -968 0
-951 -969 0
-951 -970 0
-951 -971 0
-951 -972 0
-951 -973 0
-951 -974 0
-951 -975 0
-951 -976 0
-951 -977 0
-951 -978 0
-952 -953 0
-952 -954 0
-952 -955 0
-952 -956 0
-952 -957 0
-952 -958 0
-952 -959 0
-952 -960 0
-952 -961 0
-952 -962 0
-952 -963 0
-952 -964 0
-952 -965 0
-952 -966 0
-952 -967 0
-952 -968 0
-952 -969 0
-952 -970 0
-952 -971 0
-952 -972 0
-952 -973 0
-952 -974 0
-952 -975 0
-952 -976 0
-952 -977 0
-952 -978 0
-953 -954 0
-953 -955 0
-953 -956 0
-953 -957 0
-953 -958 0
-953 -959 0
-953 -960 0
-953 -961 0
-953 -962 0
-953 -963 0
-953 -964 0
-953 -965 0
-953 -966 0
-953 -967 0
-953 -968 0
-953 -969 0
-953 -970 0
-953 -971 0
-953 -972 0
-953 -973 0
-953 -974 0
-953 -975 0
-953 -976 0
-953 -977 0
-953 -978 0
-954 -955 0
-954 -956 0
-954 -957 0
-954 -958 0
-954 -959 0
-954 -960 0
-954 -961 0
-954 -962 0
-954 -963 0
-954 -964 0
-954 -965 0
-954 -966 0
-954 -967 0
-954 -968 0
-954 -969 0
-954 -970 0
-954 -971 0
-954 -972 0
-954 -973 0
-954 -974 0
-954 -975 0
-954 -976 0
-954 -977 0
-954 -978 0
-955 -956 0
-955 -957 0
-955 -958 0
-955 -959 0
-955 -960 0
-955 -961 0
-955 -962 0
-955 -963 0
-955 -964 0
-955 -965 0
-955 -966 0
-955 -967 0
-955 -968 0
-955 -969 0
-955 -970 0
-955 -971 0
-955 -972 0
-955 -973 0
-955 -974 0
-955 -975 0
-955 -976 0
-955 -977 0
-955 -978 0
-956 -957 0
-956 -958 0
-956 -959 0
-956 -960 0
-956 -961 0
-956 -962 0
-956 -963 0
-956 -964 0
-956 -965 0
-956 -966 0
-956 -967 0
-956 -968 0
-956 -969 0
-956 -970 0
-956 -971 0
-956 -972 0
-956 -973 0
-956 -974 0
-956 -975 0
-956 -976 0
-956 -977 0
-956 -978 0
-957 -958 0
-957 -959 0
-957 -960 0
-957 -961 0
-957 -962 0
-957 -963 0
-957 -964 0
-957 -965 0
-957 -966 0
-957 -967 0
-957 -968 0
-957 -969 0
-957 -970 0
-957 -971 0
-957 -972 0
-957 -973 0
-957 -974 0
-957 -975 0
-957 -976 0
-957 -977 0
-957 -978 0
-958 -959 0
-958 -960 0
-958 -961 0
-958 -962 0
-958 -963 0
-958 -964 0
-958 -965 0
-958 -966 0
-958 -967 0
-958 -968 0
-958 -969 0
-958 -970 0
-958 -971 0
-958 -972 0
-958 -973 0
-958 -974 0
-958 -975 0
-958 -976 0
-958 -977 0
-958 -978 0
-959 -960 0
-959 -961 0
-959 -962 0
-959 -963 0
-959 -964 0
-959 -965 0
-959 -966 0
-959 -967 0
-959 -968 0
-959 -969 0
-959 -970 0
-959 -971 0
-959 -972 0
-959 -973 0
-959 -974 0
-959 -975 0
-959 -976 0
-959 -977 0
-959 -978 0
-960 -961 0
-960 -962 0
-960 -963 0
-960 -964 0
-960 -965 0
-960 -966 0
-960 -967 0
-960 -968 0
-960 -969 0
-960 -970 0
-960 -971 0
-960 -972 0
-960 -973 0
-960 -974 0
-960 -975 0
-960 -976 0
-960 -977 0
-960 -978 0
-961 -962 0
-961 -963 0
-961 -964 0
-961 -965 0
-961 -966 0
-961 -967 0
-961 -968 0
-961 -969 0
-961 -970 0
-961 -971 0
-961 -972 0
-961 -973 0
-961 -974 0
-961 -975 0
-961 -976 0
-961 -977 0
-961 -978 0
-962 -963 0
-962 -964 0
-962 -965 0
-962 -966 0
-962 -967 0
-962 -968 0
-962 -969 0
-962 -970 0
-962 -971 0
-962 -972 0
-962 -973 0
-962 -974 0
-962 -975 0
-962 -976 0
-962 -977 0
-962 -978 0
-963 -964 0
-963 -965 0
-963 -966 0
-963 -967 0
-963 -968 0
-963 -969 0
-963 -970 0
-963 -971 0
-963 -972 0
-963 -973 0
-963 -974 0
-963 -975 0
-963 -976 0
-963 -977 0
-963 -978 0
-964 -965 0
-964 -966 0
-964 -967 0
-964 -968 0
-964 -969 0
-964 -970 0
-964 -971 0
-964 -972 0
-964 -973 0
-964 -974 0
-964 -975 0
-964 -976 0
-964 -977 0
-964 -978 0
-965 -966 0
-965 -967 0
-965 -968 0
-965 -969 0
-965 -970 0
-965 -971 0
-965 -972 0
-965 -973 0
-965 -974 0
-965 -975 0
-965 -976 0
-965 -977 0
-965 -978 0
-966 -967 0
-966 -968 0
-966 -969 0
-966 -970 0
-966 -971 0
-966 -972 0
-966 -973 0
-966 -974 0
-966 -975 0
-966 -976 0
-966 -977 0
-966 -978 0
-967 -968 0
-967 -969 0
-967 -970 0
-967 -971 0
-967 -972 0
-967 -973 0
-967 -974 0
-967 -975 0
-967 -976 0
-967 -977 0
-967 -978 0
-968 -969 0
-968 -970 0
-968 -971 0
-968 -972 0
-968 -973 0
-968 -974 0
-968 -975 0
-968 -976 0
-968 -977 0
-968 -978 0
-969 -970 0
-969 -971 0
-969 -972 0
-969 -973 0
-969 -974 0
-969 -975 0
-969 -976 0
-969 -977 0
-969 -978 0
-970 -971 0
-970 -972 0
-970 -973 0
-970 -974 0
-970 -975 0
-970 -976 0
-970 -977 0
-970 -978 0
-971 -972 0
-971 -973 0
-971 -974 0
-971 -975 0
-971 -976 0
-971 -977 0
-971 -978 0
-972 -973 0
-972 -974 0
-972 -975 0
-972 -976 0
-972 -977 0
-972 -978 0
-973 -974 0
-973 -975 0
-973 -976 0
-973 -977 0
-973 -978 0
-974 -975 0
-974 -976 0
-974 -977 0
-974 -978 0
-975 -976 0
-975 -977 0
-975 -978 0
-976 -977 0
-976 -978 0
-977 -978 0
-979 895 896 897 898 899 900 901 902 903 904 905 906 907 908 909 910 911 912 913 914 915 916 917 918 0
-895 979 0
-896 979 0
-897 979 0
-898 979 0
-899 979 0
-900 979 0
-901 979 0
-902 979 0
-903 979 0
-904 979 0
-905 979 0
-906 979 0
-907 979 0
-908 979 0
-909 979 0
-910 979 0
-911 979 0
-912 979 0
-913 979 0
-914 979 0
-915 979 0
-916 979 0
-917 979 0
-918 979 0
979 -1 150 0
979 1 -150 0
979 -2 151 0
979 2 -151 0
979 -3 152 0
979 3 -152 0
979 -4 153 0
979 4 -153 0
979 -5 154 0
979 5 -154 0
979 -6 155 0
979 6 -155 0
979 -7 156 0
979 7 -156 0
979 -8 157 0
979 8 -157 0
979 -9 158 0
979 9 -158 0
979 -10 159 0
979 10 -159 0
-980 919 920 921 922 923 924 925 926 927 928 929 930 931 932 933 934 935 936 937 938 939 940 941 942 0
-919 980 0
-920 980 0
-921 980 0
-922 980 0
-923 980 0
-924 980 0
-925 980 0
-926 980 0
-927 980 0
-928 980 0
-929 980 0
-930 980 0
-931 980 0
-932 980 0
-933 980 0
-934 980 0
-935 980 0
-936 980 0
-937 980 0
-938 980 0
-939 980 0
-940 980 0
-941 980 0
-942 980 0
980 -11 160 0
980 11 -160 0
980 -12 161 0
980 12 -161 0
980 -13 162 0
980 13 -162 0
980 -14 163 0
980 14 -163 0
980 -15 164 0
980 15 -164 0
980 -16 165 0
980 16 -165 0
980 -17 166 0
980 17 -166 0
980 -18 167 0
980 18 -167 0
980 -19 168 0
980 19 -168 0
980 -20 169 0
980 20 -169 0
-981 943 944 945 946 947 948 949 950 951 952 953 954 955 956 957 958 959 960 961 962 0
-943 981 0
-944 981 0
-945 981 0
-946 981 0
-947 981 0
-948 981 0
-949 981 0
-950 981 0
-951 981 0
-952 981 0
-953 981 0
-954 981 0
-955 981 0
-956 981 0
-957 981 0
-958 981 0
-959 981 0
-960 981 0
-961 981 0
-962 981 0
981 -21 170 0
981 21 -170 0
981 -22 171 0
981 22 -171 0
981 -23 172 0
981 23 -172 0
981 -24 173 0
981 24 -173 0
981 -25 174 0
981 25 -174 0
981 -26 175 0
981 26 -175 0
981 -27 176 0
981 27 -176 0
981 -28 177 0
981 28 -177 0
981 -29 178 0
981 29 -178 0
-982 963 964 965 966 967 968 969 970 971 972 973 974 975 976 977 978 0
-963 982 0
-964 982 0
-965 982 0
-966 982 0
-967 982 0
-968 982 0
-969 982 0
-970 982 0
-971 982 0
-972 982 0
-973 982 0
-974 982 0
-975 982 0
-976 982 0
-977 982 0
-978 982 0
982 -30 179 0
982 30 -179 0
982 -31 180 0
982 31 -180 0
982 -32 181 0
982 32 -181 0
982 -33 182 0
982 33 -182 0
982 -34 183 0
982 34 -183 0
982 -35 184 0
982 35 -184 0
982 -36 185 0
982 36 -185 0
982 -37 186 0
982 37 -186 0
-895 146 0
-895 150 0
-895 -12 0
-895 -13 0
-895 -14 0
-895 -15 0
-895 -16 0
-895 -20 0
-895 -17 157 0
-895 -17 -1 -8 0
-895 -17 -63 0
-895 -17 -64 0
-895 -17 -65 0
-895 -17 -87 0
-895 -17 -88 0
-895 -17 -89 0
-895 -17 -107 0
-895 -17 -108 0
-895 -17 -109 0
-895 -18 158 0
-895 -18 -1 -9 0
-895 -18 -64 0
-895 -18 -65 0
-895 -18 -88 0
-895 -18 -89 0
-895 -18 -108 0
-895 -18 -109 0
-895 -19 159 0
-895 -19 -1 -10 0
-895 -19 -65 0
-895 -19 -89 0
-895 -19 -109 0
-896 146 0
-896 151 0
-896 -11 0
-896 -13 0
-896 -14 0
-896 -15 0
-896 -16 0
-896 -20 0
-896 -17 157 0
-896 -17 -2 -8 0
-896 -17 -67 0
-896 -17 -68 0
-896 -17 -69 0
-896 -17 -87 0
-896 -17 -88 0
-896 -17 -89 0
-896 -17 -91 0
-896 -17 -92 0
-896 -17 -93 0
-896 -17 -107 0
-896 -17 -108 0
-896 -17 -109 0
-896 -17 -111 0
-896 -17 -112 0
-896 -17 -113 0
-896 -18 158 0
-896 -18 -2 -9 0
-896 -18 -68 0
-896 -18 -69 0
-896 -18 -88 0
-896 -18 -89 0
-896 -18 -92 0
-896 -18 -93 0
-896 -18 -108 0
-896 -18 -109 0
-896 -18 -112 0
-896 -18 -113 0
-896 -19 159 0
-896 -19 -2 -10 0
-896 -19 -69 0
-896 -19 -89 0
-896 -19 -93 0
-896 -19 -109 0
-896 -19 -113 0
-897 146 0
-897 152 0
-897 -11 0
-897 -12 0
-897 -14 0
-897 -15 0
-897 -16 0
-897 -20 0
-897 -17 157 0
-897 -17 -3 -8 0
-897 -17 -71 0
-897 -17 -72 0
-897 -17 -73 0
-897 -17 -91 0
-897 -17 -92 0
-897 -17 -93 0
-897 -17 -95 0
-897 -17 -96 0
-897 -17 -97 0
-897 -17 -107 0
-897 -17 -108 0
-897 -17 -109 0
-897 -17 -111 0
-897 -17 -112 0
-897 -17 -113 0
-897 -17 -115 0
-897 -17 -116 0
-897 -17 -117 0
-897 -18 158 0
-897 -18 -3 -9 0
-897 -18 -72 0
-897 -18 -73 0
-897 -18 -92 0
-897 -18 -93 0
-897 -18 -96 0
-897 -18 -97 0
-897 -18 -108 0
-897 -18 -109 0
-897 -18 -112 0
-897 -18 -113 0
-897 -18 -116 0
-897 -18 -117 0
-897 -19 159 0
-897 -19 -3 -10 0
-897 -19 -73 0
-897 -19 -93 0
-897 -19 -97 0
-897 -19 -109 0
-897 -19 -113 0
-897 -19 -117 0
-898 146 0
-898 153 0
-898 -11 0
-898 -12 0
-898 -13 0
-898 -15 0
-898 -16 0
-898 -20 0
-898 -17 157 0
-898 -17 -4 -8 0
-898 -17 -75 0
-898 -17 -76 0
-898 -17 -77 0
-898 -17 -95 0
-898 -17 -96 0
-898 -17 -97 0
-898 -17 -99 0
-898 -17 -100 0
-898 -17 -101 0
-898 -17 -111 0
-898 -17 -112 0
-898 -17 -113 0
-898 -17 -115 0
-898 -17 -116 0
-898 -17 -117 0
-898 -17 -119 0
-898 -17 -120 0
-898 -17 -121 0
-898 -18 158 0
-898 -18 -4 -9 0
-898 -18 -76 0
-898 -18 -77 0
-898 -18 -96 0
-898 -18 -97 0
-898 -18 -100 0
-898 -18 -101 0
-898 -18 -112 0
-898 -18 -113 0
-898 -18 -116 0
-898 -18 -117 0
-898 -18 -120 0
-898 -18 -121 0
-898 -19 159 0
-898 -19 -4 -10 0
-898 -19 -77 0
-898 -19 -97 0
-898 -19 -101 0
-898 -19 -113 0
-898 -19 -117 0
-898 -19 -121 0
-899 146 0
-899 154 0
-899 -11 0
-899 -12 0
-899 -13 0
-899 -14 0
-899 -16 0
-899 -20 0
-899 -17 157 0
-899 -17 -5 -8 0
-899 -17 -79 0
-899 -17 -80 0
-899 -17 -81 0
-899 -17 -99 0
-899 -17 -100 0
-899 -17 -101 0
-899 -17 -103 0
-899 -17 -104 0
-899 -17 -105 0
-899 -17 -115 0
-899 -17 -116 0
-899 -17 -117 0
-899 -17 -119 0
-899 -17 -120 0
-899 -17 -121 0
-899 -18 158 0
-899 -18 -5 -9 0
-899 -18 -80 0
-899 -18 -81 0
-899 -18 -100 0
-899 -18 -101 0
-899 -18 -104 0
-899 -18 -105 0
-899 -18 -116 0
-899 -18 -117 0
-899 -18 -120 0
-899 -18 -121 0
-899 -19 159 0
-899 -19 -5 -10 0
-899 -19 -81 0
-899 -19 -101 0
-899 -19 -105 0
-899 -19 -117 0
-899 -19 -121 0
-900 146 0
-900 155 0
-900 -11 0
-900 -12 0
-900 -13 0
-900 -14 0
-900 -15 0
-900 -20 0
-900 -17 157 0
-900 -17 -6 -8 0
-900 -17 -83 0
-900 -17 -84 0
-900 -17 -85 0
-900 -17 -103 0
-900 -17 -104 0
-900 -17 -105 0
-900 -17 -119 0
-900 -17 -120 0
-900 -17 -121 0
-900 -18 158 0
-900 -18 -6 -9 0
-900 -18 -84 0
-900 -18 -85 0
-900 -18 -104 0
-900 -18 -105 0
-900 -18 -120 0
-900 -18 -121 0
-900 -19 159 0
-900 -19 -6 -10 0
-900 -19 -85 0
-900 -19 -105 0
-900 -19 -121 0
-901 146 0
-901 150 0
-901 -22 0
-901 -23 0
-901 -24 0
-901 -25 0
-901 -29 0
-901 -26 157 0
-901 -26 -1 -8 0
-901 -26 -63 0
-901 -26 -64 0
-901 -26 -65 0
-901 -26 -87 0
-901 -26 -88 0
-901 -26 -89 0
-901 -26 -107 0
-901 -26 -108 0
-901 -26 -109 0
-901 -27 158 0
-901 -27 -1 -9 0
-901 -27 -64 0
-901 -27 -65 0
-901 -27 -88 0
-901 -27 -89 0
-901 -27 -108 0
-901 -27 -109 0
-901 -28 159 0
-901 -28 -1 -10 0
-901 -28 -65 0
-901 -28 -89 0
-901 -28 -109 0
-902 146 0
-902 151 0
-902 -23 0
-902 -24 0
-902 -25 0
-902 -29 0
-902 -26 157 0
-902 -26 -2 -8 0
-902 -26 -67 0
-902 -26 -68 0
-902 -26 -69 0
-902 -26 -87 0
-902 -26 -88 0
-902 -26 -89 0
-902 -26 -91 0
-902 -26 -92 0
-902 -26 -93 0
-902 -26 -107 0
-902 -26 -108 0
-902 -26 -109 0
-902 -26 -111 0
-902 -26 -112 0
-902 -26 -113 0
-902 -27 158 0
-902 -27 -2 -9 0
-902 -27 -68 0
-902 -27 -69 0
-902 -27 -88 0
-902 -27 -89 0
-902 -27 -92 0
-902 -27 -93 0
-902 -27 -108 0
-902 -27 -109 0
-902 -27 -112 0
-902 -27 -113 0
-902 -28 159 0
-902 -28 -2 -10 0
-902 -28 -69 0
-902 -28 -89 0
-902 -28 -93 0
-902 -28 -109 0
-902 -28 -113 0
-903 146 0
-903 152 0
-903 -21 0
-903 -24 0
-903 -25 0
-903 -29 0
-903 -26 157 0
-903 -26 -3 -8 0
-903 -26 -71 0
-903 -26 -72 0
-903 -26 -73 0
-903 -26 -91 0
-903 -26 -92 0
-903 -26 -93 0
-903 -26 -95 0
-903 -26 -96 0
-903 -26 -97 0
-903 -26 -107 0
-903 -26 -108 0
-903 -26 -109 0
-903 -26 -111 0
-903 -26 -112 0
-903 -26 -113 0
-903 -26 -115 0
-903 -26 -116 0
-903 -26 -117 0
-903 -27 158 0
-903 -27 -3 -9 0
-903 -27 -72 0
-903 -27 -73 0
-903 -27 -92 0
-903 -27 -93 0
-903 -27 -96 0
-903 -27 -97 0
-903 -27 -108 0
-903 -27 -109 0
-903 -27 -112 0
-903 -27 -113 0
-903 -27 -116 0
-903 -27 -117 0
-903 -28 159 0
-903 -28 -3 -10 0
-903 -28 -73 0
-903 -28 -93 0
-903 -28 -97 0
-903 -28 -109 0
-903 -28 -113 0
-903 -28 -117 0
-904 146 0
-904 153 0
-904 -21 0
-904 -22 0
-904 -25 0
-904 -29 0
-904 -26 157 0
-904 -26 -4 -8 0
-904 -26 -75 0
-904 -26 -76 0
-904 -26 -77 0
-904 -26 -95 0
-904 -26 -96 0
-904 -26 -97 0
-904 -26 -99 0
-904 -26 -100 0
-904 -26 -101 0
-904 -26 -111 0
-904 -26 -112 0
-904 -26 -113 0
-904 -26 -115 0
-904 -26 -116 0
-904 -26 -117 0
-904 -26 -119 0
-904 -26 -120 0
-904 -26 -121 0
-904 -27 158 0
-904 -27 -4 -9 0
-904 -27 -76 0
-904 -27 -77 0
-904 -27 -96 0
-904 -27 -97 0
-904 -27 -100 0
-904 -27 -101 0
-904 -27 -112 0
-904 -27 -113 0
-904 -27 -116 0
-904 -27 -117 0
-904 -27 -120 0
-904 -27 -121 0
-904 -28 159 0
-904 -28 -4 -10 0
-904 -28 -77 0
-904 -28 -97 0
-904 -28 -101 0
-904 -28 -113 0
-904 -28 -117 0
-904 -28 -121 0
-905 146 0
-905 154 0
-905 -21 0
-905 -22 0
-905 -23 0
-905 -29 0
-905 -26 157 0
-905 -26 -5 -8 0
-905 -26 -79 0
-905 -26 -80 0
-905 -26 -81 0
-905 -26 -99 0
-905 -26 -100 0
-905 -26 -101 0
-905 -26 -103 0
-905 -26 -104 0
-905 -26 -105 0
-905 -26 -115 0
-905 -26 -116 0
-905 -26 -117 0
-905 -26 -119 0
-905 -26 -120 0
-905 -26 -121 0
-905 -27 158 0
-905 -27 -5 -9 0
-905 -27 -80 0
-905 -27 -81 0
-905 -27 -100 0
-905 -27 -101 0
-905 -27 -104 0
-905 -27 -105 0
-905 -27 -116 0
-905 -27 -117 0
-905 -27 -120 0
-905 -27 -121 0
-905 -28 159 0
-905 -28 -5 -10 0
-905 -28 -81 0
-905 -28 -101 0
-905 -28 -105 0
-905 -28 -117 0
-905 -28 -121 0
-906 146 0
-906 155 0
-906 -21 0
-906 -22 0
-906 -23 0
-906 -24 0
-906 -29 0
-906 -26 157 0
-906 -26 -6 -8 0
-906 -26 -83 0
-906 -26 -84 0
-906 -26 -85 0
-906 -26 -103 0
-906 -26 -104 0
-906 -26 -105 0
-906 -26 -119 0
-906 -26 -120 0
-906 -26 -121 0
-906 -27 158 0
-906 -27 -6 -9 0
-906 -27 -84 0
-906 -27 -85 0
-906 -27 -104 0
-906 -27 -105 0
-906 -27 -120 0
-906 -27 -121 0
-906 -28 159 0
-906 -28 -6 -10 0
-906 -28 -85 0
-906 -28 -105 0
-906 -28 -121 0
-907 146 0
-907 150 0
-907 -31 0
-907 -32 0
-907 -33 0
-907 -37 0
-907 -34 157 0
-907 -34 -1 -8 0
-907 -34 -63 0
-907 -34 -64 0
-907 -34 -65 0
-907 -34 -87 0
-907 -34 -88 0
-907 -34 -89 0
-907 -34 -107 0
-907 -34 -108 0
-907 -34 -109 0
-907 -35 158 0
-907 -35 -1 -9 0
-907 -35 -64 0
-907 -35 -65 0
-907 -35 -88 0
-907 -35 -89 0
-907 -35 -108 0
-907 -35 -109 0
-907 -36 159 0
-907 -36 -1 -10 0
-907 -36 -65 0
-907 -36 -89 0
-907 -36 -109 0
-908 146 0
-908 151 0
-908 -32 0
-908 -33 0
-908 -37 0
-908 -34 157 0
-908 -34 -2 -8 0
-908 -34 -67 0
-908 -34 -68 0
-908 -34 -69 0
-908 -34 -87 0
-908 -34 -88 0
-908 -34 -89 0
-908 -34 -91 0
-908 -34 -92 0
-908 -34 -93 0
-908 -34 -107 0
-908 -34 -108 0
-908 -34 -109 0
-908 -34 -111 0
-908 -34 -112 0
-908 -34 -113 0
-908 -35 158 0
-908 -35 -2 -9 0
-908 -35 -68 0
-908 -35 -69 0
-908 -35 -88 0
-908 -35 -89 0
-908 -35 -92 0
-908 -35 -93 0
-908 -35 -108 0
-908 -35 -109 0
-908 -35 -112 0
-908 -35 -113 0
-908 -36 159 0
-908 -36 -2 -10 0
-908 -36 -69 0
-908 -36 -89 0
-908 -36 -93 0
-908 -36 -109 0
-908 -36 -113 0
-909 146 0
-909 152 0
-909 -33 0
-909 -37 0
-909 -34 157 0
-909 -34 -3 -8 0
-909 -34 -71 0
-909 -34 -72 0
-909 -34 -73 0
-909 -34 -91 0
-909 -34 -92 0
-909 -34 -93 0
-909 -34 -95 0
-909 -34 -96 0
-909 -34 -97 0
-909 -34 -107 0
-909 -34 -108 0
-909 -34 -109 0
-909 -34 -111 0
-909 -34 -112 0
-909 -34 -113 0
-909 -34 -115 0
-909 -34 -116 0
-909 -34 -117 0
-909 -35 158 0
-909 -35 -3 -9 0
-909 -35 -72 0
-909 -35 -73 0
-909 -35 -92 0
-909 -35 -93 0
-909 -35 -96 0
-909 -35 -97 0
-909 -35 -108 0
-909 -35 -109 0
-909 -35 -112 0
-909 -35 -113 0
-909 -35 -116 0
-909 -35 -117 0
-909 -36 159 0
-909 -36 -3 -10 0
-909 -36 -73 0
-909 -36 -93 0
-909 -36 -97 0
-909 -36 -109 0
-909 -36 -113 0
-909 -36 -117 0
-910 146 0
-910 153 0
-910 -30 0
-910 -37 0
-910 -34 157 0
-910 -34 -4 -8 0
-910 -34 -75 0
-910 -34 -76 0
-910 -34 -77 0
-910 -34 -95 0
-910 -34 -96 0
-910 -34 -97 0
-910 -34 -99 0
-910 -34 -100 0
-910 -34 -101 0
-910 -34 -111 0
-910 -34 -112 0
-910 -34 -113 0
-910 -34 -115 0
-910 -34 -116 0
-910 -34 -117 0
-910 -34 -119 0
-910 -34 -120 0
-910 -34 -121 0
-910 -35 158 0
-910 -35 -4 -9 0
-910 -35 -76 0
-910 -35 -77 0
-910 -35 -96 0
-910 -35 -97 0
-910 -35 -100 0
-910 -35 -101 0
-910 -35 -112 0
-910 -35 -113 0
-910 -35 -116 0
-910 -35 -117 0
-910 -35 -120 0
-910 -35 -121 0
-910 -36 159 0
-910 -36 -4 -10 0
-910 -36 -77 0
-910 -36 -97 0
-910 -36 -101 0
-910 -36 -113 0
-910 -36 -117 0
-910 -36 -121 0
-911 146 0
-911 154 0
-911 -30 0
-911 -31 0
-911 -37 0
-911 -34 157 0
-911 -34 -5 -8 0
-911 -34 -79 0
-911 -34 -80 0
-911 -34 -81 0
-911 -34 -99 0
-911 -34 -100 0
-911 -34 -101 0
-911 -34 -103 0
-911 -34 -104 0
-911 -34 -105 0
-911 -34 -115 0
-911 -34 -116 0
-911 -34 -117 0
-911 -34 -119 0
-911 -34 -120 0
-911 -34 -121 0
-911 -35 158 0
-911 -35 -5 -9 0
-911 -35 -80 0
-911 -35 -81 0
-911 -35 -100 0
-911 -35 -101 0
-911 -35 -104 0
-911 -35 -105 0
-911 -35 -116 0
-911 -35 -117 0
-911 -35 -120 0
-911 -35 -121 0
-911 -36 159 0
-911 -36 -5 -10 0
-911 -36 -81 0
-911 -36 -101 0
-911 -36 -105 0
-911 -36 -117 0
-911 -36 -121 0
-912 146 0
-912 155 0
-912 -30 0
-912 -31 0
-912 -32 0
-912 -37 0
-912 -34 157 0
-912 -34 -6 -8 0
-912 -34 -83 0
-912 -34 -84 0
-912 -34 -85 0
-912 -34 -103 0
-912 -34 -104 0
-912 -34 -105 0
-912 -34 -119 0
-912 -34 -120 0
-912 -34 -121 0
-912 -35 158 0
-912 -35 -6 -9 0
-912 -35 -84 0
-912 -35 -85 0
-912 -35 -104 0
-912 -35 -105 0
-912 -35 -120 0
-912 -35 -121 0
-912 -36 159 0
-912 -36 -6 -10 0
-912 -36 -85 0
-912 -36 -105 0
-912 -36 -121 0
-913 146 0
-913 150 0
-913 156 0
-913 -1 -7 0
-913 -62 0
-913 -63 0
-913 -64 0
-913 -65 0
-913 -86 0
-913 -87 0
-913 -88 0
-913 -89 0
-913 -106 0
-913 -107 0
-913 -108 0
-913 -109 0
-914 146 0
-914 151 0
-914 156 0
-914 -2 -7 0
-914 -66 0
-914 -67 0
-914 -68 0
-914 -69 0
-914 -86 0
-914 -87 0
-914 -88 0
-914 -89 0
-914 -90 0
-914 -91 0
-914 -92 0
-914 -93 0
-914 -106 0
-914 -107 0
-914 -108 0
-914 -109 0
-914 -110 0
-914 -111 0
-914 -112 0
-914 -113 0
-915 146 0
-915 152 0
-915 156 0
-915 -3 -7 0
-915 -70 0
-915 -71 0
-915 -72 0
-915 -73 0
-915 -90 0
-915 -91 0
-915 -92 0
-915 -93 0
-915 -94 0
-915 -95 0
-915 -96 0
-915 -97 0
-915 -106 0
-915 -107 0
-915 -108 0
-915 -109 0
-915 -110 0
-915 -111 0
-915 -112 0
-915 -113 0
-915 -114 0
-915 -115 0
-915 -116 0
-915 -117 0
-916 146 0
-916 153 0
-916 156 0
-916 -4 -7 0
-916 -74 0
-916 -75 0
-916 -76 0
-916 -77 0
-916 -94 0
-916 -95 0
-916 -96 0
-916 -97 0
-916 -98 0
-916 -99 0
-916 -100 0
-916 -101 0
-916 -110 0
-916 -111 0
-916 -112 0
-916 -113 0
-916 -114 0
-916 -115 0
-916 -116 0
-916 -117 0
-916 -118 0
-916 -119 0
-916 -120 0
-916 -121 0
-917 146 0
-917 154 0
-917 156 0
-917 -5 -7 0
-917 -78 0
-917 -79 0
-917 -80 0
-917 -81 0
-917 -98 0
-917 -99 0
-917 -100 0
-917 -101 0
-917 -102 0
-917 -103 0
-917 -104 0
-917 -105 0
-917 -114 0
-917 -115 0
-917 -116 0
-917 -117 0
-917 -118 0
-917 -119 0
-917 -120 0
-917 -121 0
-918 146 0
-918 155 0
-918 156 0
-918 -6 -7 0
-918 -82 0
-918 -83 0
-918 -84 0
-918 -85 0
-918 -102 0
-918 -103 0
-918 -104 0
-918 -105 0
-918 -118 0
-918 -119 0
-918 -120 0
-918 -121 0
-919 147 0
-919 160 0
-919 -2 0
-919 -3 0
-919 -4 0
-919 -5 0
-919 -6 0
-919 -10 0
-919 -7 167 0
-919 -7 -11 -18 0
-919 -7 -39 0
-919 -7 -40 0
-919 -7 -41 0
-919 -7 -87 0
-919 -7 -88 0
-919 -7 -89 0
-919 -7 -107 0
-919 -7 -108 0
-919 -7 -109 0
-919 -8 168 0
-919 -8 -11 -19 0
-919 -8 -40 0
-919 -8 -41 0
-919 -8 -88 0
-919 -8 -89 0
-919 -8 -108 0
-919 -8 -109 0
-919 -9 169 0
-919 -9 -11 -20 0
-919 -9 -41 0
-919 -9 -89 0
-919 -9 -109 0
-920 147 0
-920 161 0
-920 -1 0
-920 -3 0
-920 -4 0
-920 -5 0
-920 -6 0
-920 -10 0
-920 -7 167 0
-920 -7 -12 -18 0
-920 -7 -43 0
-920 -7 -44 0
-920 -7 -45 0
-920 -7 -87 0
-920 -7 -88 0
-920 -7 -89 0
-920 -7 -91 0
-920 -7 -92 0
-920 -7 -93 0
-920 -7 -107 0
-920 -7 -108 0
-920 -7 -109 0
-920 -7 -111 0
-920 -7 -112 0
-920 -7 -113 0
-920 -8 168 0
-920 -8 -12 -19 0
-920 -8 -44 0
-920 -8 -45 0
-920 -8 -88 0
-920 -8 -89 0
-920 -8 -92 0
-920 -8 -93 0
-920 -8 -108 0
-920 -8 -109 0
-920 -8 -112 0
-920 -8 -113 0
-920 -9 169 0
-920 -9 -12 -20 0
-920 -9 -45 0
-920 -9 -89 0
-920 -9 -93 0
-920 -9 -109 0
-920 -9 -113 0
-921 147 0
-921 162 0
-921 -1 0
-921 -2 0
-921 -4 0
-921 -5 0
-921 -6 0
-921 -10 0
-921 -7 167 0
-921 -7 -13 -18 0
-921 -7 -47 0
-921 -7 -48 0
-921 -7 -49 0
-921 -7 -91 0
-921 -7 -92 0
-921 -7 -93 0
-921 -7 -95 0
-921 -7 -96 0
-921 -7 -97 0
-921 -7 -107 0
-921 -7 -108 0
-921 -7 -109 0
-921 -7 -111 0
-921 -7 -112 0
-921 -7 -113 0
-921 -7 -115 0
-921 -7 -116 0
-921 -7 -117 0
-921 -8 168 0
-921 -8 -13 -19 0
-921 -8 -48 0
-921 -8 -49 0
-921 -8 -92 0
-921 -8 -93 0
-921 -8 -96 0
-921 -8 -97 0
-921 -8 -108 0
-921 -8 -109 0
-921 -8 -112 0
-921 -8 -113 0
-921 -8 -116 0
-921 -8 -117 0
-921 -9 169 0
-921 -9 -13 -20 0
-921 -9 -49 0
-921 -9 -93 0
-921 -9 -97 0
-921 -9 -109 0
-921 -9 -113 0
-921 -9 -117 0
-922 147 0
-922 163 0
-922 -1 0
-922 -2 0
-922 -3 0
-922 -5 0
-922 -6 0
-922 -10 0
-922 -7 167 0
-922 -7 -14 -18 0
-922 -7 -51 0
-922 -7 -52 0
-922 -7 -53 0
-922 -7 -95 0
-922 -7 -96 0
-922 -7 -97 0
-922 -7 -99 0
-922 -7 -100 0
-922 -7 -101 0
-922 -7 -111 0
-922 -7 -112 0
-922 -7 -113 0
-922 -7 -115 0
-922 -7 -116 0
-922 -7 -117 0
-922 -7 -119 0
-922 -7 -120 0
-922 -7 -121 0
-922 -8 168 0
-922 -8 -14 -19 0
-922 -8 -52 0
-922 -8 -53 0
-922 -8 -96 0
-922 -8 -97 0
-922 -8 -100 0
-922 -8 -101 0
-922 -8 -112 0
-922 -8 -113 0
-922 -8 -116 0
-922 -8 -117 0
-922 -8 -120 0
-922 -8 -121 0
-922 -9 169 0
-922 -9 -14 -20 0
-922 -9 -53 0
-922 -9 -97 0
-922 -9 -101 0
-922 -9 -113 0
-922 -9 -117 0
-922 -9 -121 0
-923 147 0
-923 164 0
-923 -1 0
-923 -2 0
-923 -3 0
-923 -4 0
-923 -6 0
-923 -10 0
-923 -7 167 0
-923 -7 -15 -18 0
-923 -7 -55 0
-923 -7 -56 0
-923 -7 -57 0
-923 -7 -99 0
-923 -7 -100 0
-923 -7 -101 0
-923 -7 -103 0
-923 -7 -104 0
-923 -7 -105 0
-923 -7 -115 0
-923 -7 -116 0
-923 -7 -117 0
-923 -7 -119 0
-923 -7 -120 0
-923 -7 -121 0
-923 -8 168 0
-923 -8 -15 -19 0
-923 -8 -56 0
-923 -8 -57 0
-923 -8 -100 0
-923 -8 -101 0
-923 -8 -104 0
-923 -8 -105 0
-923 -8 -116 0
-923 -8 -117 0
-923 -8 -120 0
-923 -8 -121 0
-923 -9 169 0
-923 -9 -15 -20 0
-923 -9 -57 0
-923 -9 -101 0
-923 -9 -105 0
-923 -9 -117 0
-923 -9 -121 0
-924 147 0
-924 165 0
-924 -1 0
-924 -2 0
-924 -3 0
-924 -4 0
-924 -5 0
-924 -10 0
-924 -7 167 0
-924 -7 -16 -18 0
-924 -7 -59 0
-924 -7 -60 0
-924 -7 -61 0
-924 -7 -103 0
-924 -7 -104 0
-924 -7 -105 0
-924 -7 -119 0
-924 -7 -120 0
-924 -7 -121 0
-924 -8 168 0
-924 -8 -16 -19 0
-924 -8 -60 0
-924 -8 -61 0
-924 -8 -104 0
-924 -8 -105 0
-924 -8 -120 0
-924 -8 -121 0
-924 -9 169 0
-924 -9 -16 -20 0
-924 -9 -61 0
-924 -9 -105 0
-924 -9 -121 0
-925 147 0
-925 160 0
-925 -22 0
-925 -23 0
-925 -24 0
-925 -25 0
-925 -29 0
-925 -26 167 0
-925 -26 -11 -18 0
-925 -26 -39 0
-925 -26 -40 0
-925 -26 -41 0
-925 -26 -87 0
-925 -26 -88 0
-925 -26 -89 0
-925 -26 -107 0
-925 -26 -108 0
-925 -26 -109 0
-925 -27 168 0
-925 -27 -11 -19 0
-925 -27 -40 0
-925 -27 -41 0
-925 -27 -88 0
-925 -27 -89 0
-925 -27 -108 0
-925 -27 -109 0
-925 -28 169 0
-925 -28 -11 -20 0
-925 -28 -41 0
-925 -28 -89 0
-925 -28 -109 0
-926 147 0
-926 161 0
-926 -23 0
-926 -24 0
-926 -25 0
-926 -29 0
-926 -26 167 0
-926 -26 -12 -18 0
-926 -26 -43 0
-926 -26 -44 0
-926 -26 -45 0
-926 -26 -87 0
-926 -26 -88 0
-926 -26 -89 0
-926 -26 -91 0
-926 -26 -92 0
-926 -26 -93 0
-926 -26 -107 0
-926 -26 -108 0
-926 -26 -109 0
-926 -26 -111 0
-926 -26 -112 0
-926 -26 -113 0
-926 -27 168 0
-926 -27 -12 -19 0
-926 -27 -44 0
-926 -27 -45 0
-926 -27 -88 0
-926 -27 -89 0
-926 -27 -92 0
-926 -27 -93 0
-926 -27 -108 0
-926 -27 -109 0
-926 -27 -112 0
-926 -27 -113 0
-926 -28 169 0
-926 -28 -12 -20 0
-926 -28 -45 0
-926 -28 -89 0
-926 -28 -93 0
-926 -28 -109 0
-926 -28 -113 0
-927 147 0
-927 162 0
-927 -21 0
-927 -24 0
-927 -25 0
-927 -29 0
-927 -26 167 0
-927 -26 -13 -18 0
-927 -26 -47 0
-927 -26 -48 0
-927 -26 -49 0
-927 -26 -91 0
-927 -26 -92 0
-927 -26 -93 0
-927 -26 -95 0
-927 -26 -96 0
-927 -26 -97 0
-927 -26 -107 0
-927 -26 -108 0
-927 -26 -109 0
-927 -26 -111 0
-927 -26 -112 0
-927 -26 -113 0
-927 -26 -115 0
-927 -26 -116 0
-927 -26 -117 0
-927 -27 168 0
-927 -27 -13 -19 0
-927 -27 -48 0
-927 -27 -49 0
-927 -27 -92 0
-927 -27 -93 0
-927 -27 -96 0
-927 -27 -97 0
-927 -27 -108 0
-927 -27 -109 0
-927 -27 -112 0
-927 -27 -113 0
-927 -27 -116 0
-927 -27 -117 0
-927 -28 169 0
-927 -28 -13 -20 0
-927 -28 -49 0
-927 -28 -93 0
-927 -28 -97 0
-927 -28 -109 0
-927 -28 -113 0
-927 -28 -117 0
-928 147 0
-928 163 0
-928 -21 0
-928 -22 0
-928 -25 0
-928 -29 0
-928 -26 167 0
-928 -26 -14 -18 0
-928 -26 -51 0
-928 -26 -52 0
-928 -26 -53 0
-928 -26 -95 0
-928 -26 -96 0
-928 -26 -97 0
-928 -26 -99 0
-928 -26 -100 0
-928 -26 -101 0
-928 -26 -111 0
-928 -26 -112 0
-928 -26 -113 0
-928 -26 -115 0
-928 -26 -116 0
-928 -26 -117 0
-928 -26 -119 0
-928 -26 -120 0
-928 -26 -121 0
-928 -27 168 0
-928 -27 -14 -19 0
-928 -27 -52 0
-928 -27 -53 0
-928 -27 -96 0
-928 -27 -97 0
-928 -27 -100 0
-928 -27 -101 0
-928 -27 -112 0
-928 -27 -113 0
-928 -27 -116 0
-928 -27 -117 0
-928 -27 -120 0
-928 -27 -121 0
-928 -28 169 0
-928 -28 -14 -20 0
-928 -28 -53 0
-928 -28 -97 0
-928 -28 -101 0
-928 -28 -113 0
-928 -28 -117 0
-928 -28 -121 0
-929 147 0
-929 164 0
-929 -21 0
-929 -22 0
-929 -23 0
-929 -29 0
-929 -26 167 0
-929 -26 -15 -18 0
-929 -26 -55 0
-929 -26 -56 0
-929 -26 -57 0
-929 -26 -99 0
-929 -26 -100 0
-929 -26 -101 0
-929 -26 -103 0
-929 -26 -104 0
-929 -26 -105 0
-929 -26 -115 0
-929 -26 -116 0
-929 -26 -117 0
-929 -26 -119 0
-929 -26 -120 0
-929 -26 -121 0
-929 -27 168 0
-929 -27 -15 -19 0
-929 -27 -56 0
-929 -27 -57 0
-929 -27 -100 0
-929 -27 -101 0
-929 -27 -104 0
-929 -27 -105 0
-929 -27 -116 0
-929 -27 -117 0
-929 -27 -120 0
-929 -27 -121 0
-929 -28 169 0
-929 -28 -15 -20 0
-929 -28 -57 0
-929 -28 -101 0
-929 -28 -105 0
-929 -28 -117 0
-929 -28 -121 0
-930 147 0
-930 165 0
-930 -21 0
-930 -22 0
-930 -23 0
-930 -24 0
-930 -29 0
-930 -26 167 0
-930 -26 -16 -18 0
-930 -26 -59 0
-930 -26 -60 0
-930 -26 -61 0
-930 -26 -103 0
-930 -26 -104 0
-930 -26 -105 0
-930 -26 -119 0
-930 -26 -120 0
-930 -26 -121 0
-930 -27 168 0
-930 -27 -16 -19 0
-930 -27 -60 0
-930 -27 -61 0
-930 -27 -104 0
-930 -27 -105 0
-930 -27 -120 0
-930 -27 -121 0
-930 -28 169 0
-930 -28 -16 -20 0
-930 -28 -61 0
-930 -28 -105 0
-930 -28 -121 0
-931 147 0
-931 160 0
-931 -31 0
-931 -32 0
-931 -33 0
-931 -37 0
-931 -34 167 0
-931 -34 -11 -18 0
-931 -34 -39 0
-931 -34 -40 0
-931 -34 -41 0
-931 -34 -87 0
-931 -34 -88 0
-931 -34 -89 0
-931 -34 -107 0
-931 -34 -108 0
-931 -34 -109 0
-931 -35 168 0
-931 -35 -11 -19 0
-931 -35 -40 0
-931 -35 -41 0
-931 -35 -88 0
-931 -35 -89 0
-931 -35 -108 0
-931 -35 -109 0
-931 -36 169 0
-931 -36 -11 -20 0
-931 -36 -41 0
-931 -36 -89 0
-931 -36 -109 0
-932 147 0
-932 161 0
-932 -32 0
-932 -33 0
-932 -37 0
-932 -34 167 0
-932 -34 -12 -18 0
-932 -34 -43 0
-932 -34 -44 0
-932 -34 -45 0
-932 -34 -87 0
-932 -34 -88 0
-932 -34 -89 0
-932 -34 -91 0
-932 -34 -92 0
-932 -34 -93 0
-932 -34 -107 0
-932 -34 -108 0
-932 -34 -109 0
-932 -34 -111 0
-932 -34 -112 0
-932 -34 -113 0
-932 -35 168 0
-932 -35 -12 -19 0
-932 -35 -44 0
-932 -35 -45 0
-932 -35 -88 0
-932 -35 -89 0
-932 -35 -92 0
-932 -35 -93 0
-932 -35 -108 0
-932 -35 -109 0
-932 -35 -112 0
-932 -35 -113 0
-932 -36 169 0
-932 -36 -12 -20 0
-932 -36 -45 0
-932 -36 -89 0
-932 -36 -93 0
-932 -36 -109 0
-932 -36 -113 0
-933 147 0
-933 162 0
-933 -33 0
-933 -37 0
-933 -34 167 0
-933 -34 -13 -18 0
-933 -34 -47 0
-933 -34 -48 0
-933 -34 -49 0
-933 -34 -91 0
-933 -34 -92 0
-933 -34 -93 0
-933 -34 -95 0
-933 -34 -96 0
-933 -34 -97 0
-933 -34 -107 0
-933 -34 -108 0
-933 -34 -109 0
-933 -34 -111 0
-933 -34 -112 0
-933 -34 -113 0
-933 -34 -115 0
-933 -34 -116 0
-933 -34 -117 0
-933 -35 168 0
-933 -35 -13 -19 0
-933 -35 -48 0
-933 -35 -49 0
-933 -35 -92 0
-933 -35 -93 0
-933 -35 -96 0
-933 -35 -97 0
-933 -35 -108 0
-933 -35 -109 0
-933 -35 -112 0
-933 -35 -113 0
-933 -35 -116 0
-933 -35 -117 0
-933 -36 169 0
-933 -36 -13 -20 0
-933 -36 -49 0
-933 -36 -93 0
-933 -36 -97 0
-933 -36 -109 0
-933 -36 -113 0
-933 -36 -117 0
-934 147 0
-934 163 0
-934 -30 0
-934 -37 0
-934 -34 167 0
-934 -34 -14 -18 0
-934 -34 -51 0
-934 -34 -52 0
-934 -34 -53 0
-934 -34 -95 0
-934 -34 -96 0
-934 -34 -97 0
-934 -34 -99 0
-934 -34 -100 0
-934 -34 -101 0
-934 -34 -111 0
-934 -34 -112 0
-934 -34 -113 0
-934 -34 -115 0
-934 -34 -116 0
-934 -34 -117 0
-934 -34 -119 0
-934 -34 -120 0
-934 -34 -121 0
-934 -35 168 0
-934 -35 -14 -19 0
-934 -35 -52 0
-934 -35 -53 0
-934 -35 -96 0
-934 -35 -97 0
-934 -35 -100 0
-934 -35 -101 0
-934 -35 -112 0
-934 -35 -113 0
-934 -35 -116 0
-934 -35 -117 0
-934 -35 -120 0
-934 -35 -121 0
-934 -36 169 0
-934 -36 -14 -20 0
-934 -36 -53 0
-934 -36 -97 0
-934 -36 -101 0
-934 -36 -113 0
-934 -36 -117 0
-934 -36 -121 0
-935 147 0
-935 164 0
-935 -30 0
-935 -31 0
-935 -37 0
-935 -34 167 0
-935 -34 -15 -18 0
-935 -34 -55 0
-935 -34 -56 0
-935 -34 -57 0
-935 -34 -99 0
-935 -34 -100 0
-935 -34 -101 0
-935 -34 -103 0
-935 -34 -104 0
-935 -34 -105 0
-935 -34 -115 0
-935 -34 -116 0
-935 -34 -117 0
-935 -34 -119 0
-935 -34 -120 0
-935 -34 -121 0
-935 -35 168 0
-935 -35 -15 -19 0
-935 -35 -56 0
-935 -35 -57 0
-935 -35 -100 0
-935 -35 -101 0
-935 -35 -104 0
-935 -35 -105 0
-935 -35 -116 0
-935 -35 -117 0
-935 -35 -120 0
-935 -35 -121 0
-935 -36 169 0
-935 -36 -15 -20 0
-935 -36 -57 0
-935 -36 -101 0
-935 -36 -105 0
-935 -36 -117 0
-935 -36 -121 0
-936 147 0
-936 165 0
-936 -30 0
-936 -31 0
-936 -32 0
-936 -37 0
-936 -34 167 0
-936 -34 -16 -18 0
-936 -34 -59 0
-936 -34 -60 0
-936 -34 -61 0
-936 -34 -103 0
-936 -34 -104 0
-936 -34 -105 0
-936 -34 -119 0
-936 -34 -120 0
-936 -34 -121 0
-936 -35 168 0
-936 -35 -16 -19 0
-936 -35 -60 0
-936 -35 -61 0
-936 -35 -104 0
-936 -35 -105 0
-936 -35 -120 0
-936 -35 -121 0
-936 -36 169 0
-936 -36 -16 -20 0
-936 -36 -61 0
-936 -36 -105 0
-936 -36 -121 0
-937 147 0
-937 160 0
-937 166 0
-937 -11 -17 0
-937 -38 0
-937 -39 0
-937 -40 0
-937 -41 0
-937 -86 0
-937 -87 0
-937 -88 0
-937 -89 0
-937 -106 0
-937 -107 0
-937 -108 0
-937 -109 0
-938 147 0
-938 161 0
-938 166 0
-938 -12 -17 0
-938 -42 0
-938 -43 0
-938 -44 0
-938 -45 0
-938 -86 0
-938 -87 0
-938 -88 0
-938 -89 0
-938 -90 0
-938 -91 0
-938 -92 0
-938 -93 0
-938 -106 0
-938 -107 0
-938 -108 0
-938 -109 0
-938 -110 0
-938 -111 0
-938 -112 0
-938 -113 0
-939 147 0
-939 162 0
-939 166 0
-939 -13 -17 0
-939 -46 0
-939 -47 0
-939 -48 0
-939 -49 0
-939 -90 0
-939 -91 0
-939 -92 0
-939 -93 0
-939 -94 0
-939 -95 0
-939 -96 0
-939 -97 0
-939 -106 0
-939 -107 0
-939 -108 0
-939 -109 0
-939 -110 0
-939 -111 0
-939 -112 0
-939 -113 0
-939 -114 0
-939 -115 0
-939 -116 0
-939 -117 0
-940 147 0
-940 163 0
-940 166 0
-940 -14 -17 0
-940 -50 0
-940 -51 0
-940 -52 0
-940 -53 0
-940 -94 0
-940 -95 0
-940 -96 0
-940 -97 0
-940 -98 0
-940 -99 0
-940 -100 0
-940 -101 0
-940 -110 0
-940 -111 0
-940 -112 0
-940 -113 0
-940 -114 0
-940 -115 0
-940 -116 0
-940 -117 0
-940 -118 0
-940 -119 0
-940 -120 0
-940 -121 0
-941 147 0
-941 164 0
-941 166 0
-941 -15 -17 0
-941 -54 0
-941 -55 0
-941 -56 0
-941 -57 0
-941 -98 0
-941 -99 0
-941 -100 0
-941 -101 0
-941 -102 0
-941 -103 0
-941 -104 0
-941 -105 0
-941 -114 0
-941 -115 0
-941 -116 0
-941 -117 0
-941 -118 0
-941 -119 0
-941 -120 0
-941 -121 0
-942 147 0
-942 165 0
-942 166 0
-942 -16 -17 0
-942 -58 0
-942 -59 0
-942 -60 0
-942 -61 0
-942 -102 0
-942 -103 0
-942 -104 0
-942 -105 0
-942 -118 0
-942 -119 0
-942 -120 0
-942 -121 0
-943 148 0
-943 170 0
-943 -3 0
-943 -4 0
-943 -5 0
-943 -6 0
-943 -10 0
-943 -7 176 0
-943 -7 -21 -27 0
-943 -7 -39 0
-943 -7 -40 0
-943 -7 -41 0
-943 -7 -43 0
-943 -7 -44 0
-943 -7 -45 0
-943 -7 -63 0
-943 -7 -64 0
-943 -7 -65 0
-943 -7 -67 0
-943 -7 -68 0
-943 -7 -69 0
-943 -7 -107 0
-943 -7 -108 0
-943 -7 -109 0
-943 -7 -111 0
-943 -7 -112 0
-943 -7 -113 0
-943 -8 177 0
-943 -8 -21 -28 0
-943 -8 -40 0
-943 -8 -41 0
-943 -8 -44 0
-943 -8 -45 0
-943 -8 -64 0
-943 -8 -65 0
-943 -8 -68 0
-943 -8 -69 0
-943 -8 -108 0
-943 -8 -109 0
-943 -8 -112 0
-943 -8 -113 0
-943 -9 178 0
-943 -9 -21 -29 0
-943 -9 -41 0
-943 -9 -45 0
-943 -9 -65 0
-943 -9 -69 0
-943 -9 -109 0
-943 -9 -113 0
-944 148 0
-944 171 0
-944 -1 0
-944 -4 0
-944 -5 0
-944 -6 0
-944 -10 0
-944 -7 176 0
-944 -7 -22 -27 0
-944 -7 -43 0
-944 -7 -44 0
-944 -7 -45 0
-944 -7 -47 0
-944 -7 -48 0
-944 -7 -49 0
-944 -7 -67 0
-944 -7 -68 0
-944 -7 -69 0
-944 -7 -71 0
-944 -7 -72 0
-944 -7 -73 0
-944 -7 -107 0
-944 -7 -108 0
-944 -7 -109 0
-944 -7 -111 0
-944 -7 -112 0
-944 -7 -113 0
-944 -7 -115 0
-944 -7 -116 0
-944 -7 -117 0
-944 -8 177 0
-944 -8 -22 -28 0
-944 -8 -44 0
-944 -8 -45 0
-944 -8 -48 0
-944 -8 -49 0
-944 -8 -68 0
-944 -8 -69 0
-944 -8 -72 0
-944 -8 -73 0
-944 -8 -108 0
-944 -8 -109 0
-944 -8 -112 0
-944 -8 -113 0
-944 -8 -116 0
-944 -8 -117 0
-944 -9 178 0
-944 -9 -22 -29 0
-944 -9 -45 0
-944 -9 -49 0
-944 -9 -69 0
-944 -9 -73 0
-944 -9 -109 0
-944 -9 -113 0
-944 -9 -117 0
-945 148 0
-945 172 0
-945 -1 0
-945 -2 0
-945 -5 0
-945 -6 0
-945 -10 0
-945 -7 176 0
-945 -7 -23 -27 0
-945 -7 -47 0
-945 -7 -48 0
-945 -7 -49 0
-945 -7 -51 0
-945 -7 -52 0
-945 -7 -53 0
-945 -7 -71 0
-945 -7 -72 0
-945 -7 -73 0
-945 -7 -75 0
-945 -7 -76 0
-945 -7 -77 0
-945 -7 -107 0
-945 -7 -108 0
-945 -7 -109 0
-945 -7 -111 0
-945 -7 -112 0
-945 -7 -113 0
-945 -7 -115 0
-945 -7 -116 0
-945 -7 -117 0
-945 -7 -119 0
-945 -7 -120 0
-945 -7 -121 0
-945 -8 177 0
-945 -8 -23 -28 0
-945 -8 -48 0
-945 -8 -49 0
-945 -8 -52 0
-945 -8 -53 0
-945 -8 -72 0
-945 -8 -73 0
-945 -8 -76 0
-945 -8 -77 0
-945 -8 -108 0
-945 -8 -109 0
-945 -8 -112 0
-945 -8 -113 0
-945 -8 -116 0
-945 -8 -117 0
-945 -8 -120 0
-945 -8 -121 0
-945 -9 178 0
-945 -9 -23 -29 0
-945 -9 -49 0
-945 -9 -53 0
-945 -9 -73 0
-945 -9 -77 0
-945 -9 -109 0
-945 -9 -113 0
-945 -9 -117 0
-945 -9 -121 0
-946 148 0
-946 173 0
-946 -1 0
-946 -2 0
-946 -3 0
-946 -6 0
-946 -10 0
-946 -7 176 0
-946 -7 -24 -27 0
-946 -7 -51 0
-946 -7 -52 0
-946 -7 -53 0
-946 -7 -55 0
-946 -7 -56 0
-946 -7 -57 0
-946 -7 -75 0
-946 -7 -76 0
-946 -7 -77 0
-946 -7 -79 0
-946 -7 -80 0
-946 -7 -81 0
-946 -7 -111 0
-946 -7 -112 0
-946 -7 -113 0
-946 -7 -115 0
-946 -7 -116 0
-946 -7 -117 0
-946 -7 -119 0
-946 -7 -120 0
-946 -7 -121 0
-946 -8 177 0
-946 -8 -24 -28 0
-946 -8 -52 0
-946 -8 -53 0
-946 -8 -56 0
-946 -8 -57 0
-946 -8 -76 0
-946 -8 -77 0
-946 -8 -80 0
-946 -8 -81 0
-946 -8 -112 0
-946 -8 -113 0
-946 -8 -116 0
-946 -8 -117 0
-946 -8 -120 0
-946 -8 -121 0
-946 -9 178 0
-946 -9 -24 -29 0
-946 -9 -53 0
-946 -9 -57 0
-946 -9 -77 0
-946 -9 -81 0
-946 -9 -113 0
-946 -9 -117 0
-946 -9 -121 0
-947 148 0
-947 174 0
-947 -1 0
-947 -2 0
-947 -3 0
-947 -4 0
-947 -10 0
-947 -7 176 0
-947 -7 -25 -27 0
-947 -7 -55 0
-947 -7 -56 0
-947 -7 -57 0
-947 -7 -59 0
-947 -7 -60 0
-947 -7 -61 0
-947 -7 -79 0
-947 -7 -80 0
-947 -7 -81 0
-947 -7 -83 0
-947 -7 -84 0
-947 -7 -85 0
-947 -7 -115 0
-947 -7 -116 0
-947 -7 -117 0
-947 -7 -119 0
-947 -7 -120 0
-947 -7 -121 0
-947 -8 177 0
-947 -8 -25 -28 0
-947 -8 -56 0
-947 -8 -57 0
-947 -8 -60 0
-947 -8 -61 0
-947 -8 -80 0
-947 -8 -81 0
-947 -8 -84 0
-947 -8 -85 0
-947 -8 -116 0
-947 -8 -117 0
-947 -8 -120 0
-947 -8 -121 0
-947 -9 178 0
-947 -9 -25 -29 0
-947 -9 -57 0
-947 -9 -61 0
-947 -9 -81 0
-947 -9 -85 0
-947 -9 -117 0
-947 -9 -121 0
-948 148 0
-948 170 0
-948 -13 0
-948 -14 0
-948 -15 0
-948 -16 0
-948 -20 0
-948 -17 176 0
-948 -17 -21 -27 0
-948 -17 -39 0
-948 -17 -40 0
-948 -17 -41 0
-948 -17 -43 0
-948 -17 -44 0
-948 -17 -45 0
-948 -17 -63 0
-948 -17 -64 0
-948 -17 -65 0
-948 -17 -67 0
-948 -17 -68 0
-948 -17 -69 0
-948 -17 -107 0
-948 -17 -108 0
-948 -17 -109 0
-948 -17 -111 0
-948 -17 -112 0
-948 -17 -113 0
-948 -18 177 0
-948 -18 -21 -28 0
-948 -18 -40 0
-948 -18 -41 0
-948 -18 -44 0
-948 -18 -45 0
-948 -18 -64 0
-948 -18 -65 0
-948 -18 -68 0
-948 -18 -69 0
-948 -18 -108 0
-948 -18 -109 0
-948 -18 -112 0
-948 -18 -113 0
-948 -19 178 0
-948 -19 -21 -29 0
-948 -19 -41 0
-948 -19 -45 0
-948 -19 -65 0
-948 -19 -69 0
-948 -19 -109 0
-948 -19 -113 0
-949 148 0
-949 171 0
-949 -11 0
-949 -14 0
-949 -15 0
-949 -16 0
-949 -20 0
-949 -17 176 0
-949 -17 -22 -27 0
-949 -17 -43 0
-949 -17 -44 0
-949 -17 -45 0
-949 -17 -47 0
-949 -17 -48 0
-949 -17 -49 0
-949 -17 -67 0
-949 -17 -68 0
-949 -17 -69 0
-949 -17 -71 0
-949 -17 -72 0
-949 -17 -73 0
-949 -17 -107 0
-949 -17 -108 0
-949 -17 -109 0
-949 -17 -111 0
-949 -17 -112 0
-949 -17 -113 0
-949 -17 -115 0
-949 -17 -116 0
-949 -17 -117 0
-949 -18 177 0
-949 -18 -22 -28 0
-949 -18 -44 0
-949 -18 -45 0
-949 -18 -48 0
-949 -18 -49 0
-949 -18 -68 0
-949 -18 -69 0
-949 -18 -72 0
-949 -18 -73 0
-949 -18 -108 0
-949 -18 -109 0
-949 -18 -112 0
-949 -18 -113 0
-949 -18 -116 0
-949 -18 -117 0
-949 -19 178 0
-949 -19 -22 -29 0
-949 -19 -45 0
-949 -19 -49 0
-949 -19 -69 0
-949 -19 -73 0
-949 -19 -109 0
-949 -19 -113 0
-949 -19 -117 0
-950 148 0
-950 172 0
-950 -11 0
-950 -12 0
-950 -15 0
-950 -16 0
-950 -20 0
-950 -17 176 0
-950 -17 -23 -27 0
-950 -17 -47 0
-950 -17 -48 0
-950 -17 -49 0
-950 -17 -51 0
-950 -17 -52 0
-950 -17 -53 0
-950 -17 -71 0
-950 -17 -72 0
-950 -17 -73 0
-950 -17 -75 0
-950 -17 -76 0
-950 -17 -77 0
-950 -17 -107 0
-950 -17 -108 0
-950 -17 -109 0
-950 -17 -111 0
-950 -17 -112 0
-950 -17 -113 0
-950 -17 -115 0
-950 -17 -116 0
-950 -17 -117 0
-950 -17 -119 0
-950 -17 -120 0
-950 -17 -121 0
-950 -18 177 0
-950 -18 -23 -28 0
-950 -18 -48 0
-950 -18 -49 0
-950 -18 -52 0
-950 -18 -53 0
-950 -18 -72 0
-950 -18 -73 0
-950 -18 -76 0
-950 -18 -77 0
-950 -18 -108 0
-950 -18 -109 0
-950 -18 -112 0
-950 -18 -113 0
-950 -18 -116 0
-950 -18 -117 0
-950 -18 -120 0
-950 -18 -121 0
-950 -19 178 0
-950 -19 -23 -29 0
-950 -19 -49 0
-950 -19 -53 0
-950 -19 -73 0
-950 -19 -77 0
-950 -19 -109 0
-950 -19 -113 0
-950 -19 -117 0
-950 -19 -121 0
-951 148 0
-951 173 0
-951 -11 0
-951 -12 0
-951 -13 0
-951 -16 0
-951 -20 0
-951 -17 176 0
-951 -17 -24 -27 0
-951 -17 -51 0
-951 -17 -52 0
-951 -17 -53 0
-951 -17 -55 0
-951 -17 -56 0
-951 -17 -57 0
-951 -17 -75 0
-951 -17 -76 0
-951 -17 -77 0
-951 -17 -79 0
-951 -17 -80 0
-951 -17 -81 0
-951 -17 -111 0
-951 -17 -112 0
-951 -17 -113 0
-951 -17 -115 0
-951 -17 -116 0
-951 -17 -117 0
-951 -17 -119 0
-951 -17 -120 0
-951 -17 -121 0
-951 -18 177 0
-951 -18 -24 -28 0
-951 -18 -52 0
-951 -18 -53 0
-951 -18 -56 0
-951 -18 -57 0
-951 -18 -76 0
-951 -18 -77 0
-951 -18 -80 0
-951 -18 -81 0
-951 -18 -112 0
-951 -18 -113 0
-951 -18 -116 0
-951 -18 -117 0
-951 -18 -120 0
-951 -18 -121 0
-951 -19 178 0
-951 -19 -24 -29 0
-951 -19 -53 0
-951 -19 -57 0
-951 -19 -77 0
-951 -19 -81 0
-951 -19 -113 0
-951 -19 -117 0
-951 -19 -121 0
-952 148 0
-952 174 0
-952 -11 0
-952 -12 0
-952 -13 0
-952 -14 0
-952 -20 0
-952 -17 176 0
-952 -17 -25 -27 0
-952 -17 -55 0
-952 -17 -56 0
-952 -17 -57 0
-952 -17 -59 0
-952 -17 -60 0
-952 -17 -61 0
-952 -17 -79 0
-952 -17 -80 0
-952 -17 -81 0
-952 -17 -83 0
-952 -17 -84 0
-952 -17 -85 0
-952 -17 -115 0
-952 -17 -116 0
-952 -17 -117 0
-952 -17 -119 0
-952 -17 -120 0
-952 -17 -121 0
-952 -18 177 0
-952 -18 -25 -28 0
-952 -18 -56 0
-952 -18 -57 0
-952 -18 -60 0
-952 -18 -61 0
-952 -18 -80 0
-952 -18 -81 0
-952 -18 -84 0
-952 -18 -85 0
-952 -18 -116 0
-952 -18 -117 0
-952 -18 -120 0
-952 -18 -121 0
-952 -19 178 0
-952 -19 -25 -29 0
-952 -19 -57 0
-952 -19 -61 0
-952 -19 -81 0
-952 -19 -85 0
-952 -19 -117 0
-952 -19 -121 0
-953 148 0
-953 170 0
-953 -32 0
-953 -33 0
-953 -37 0
-953 -34 176 0
-953 -34 -21 -27 0
-953 -34 -39 0
-953 -34 -40 0
-953 -34 -41 0
-953 -34 -43 0
-953 -34 -44 0
-953 -34 -45 0
-953 -34 -63 0
-953 -34 -64 0
-953 -34 -65 0
-953 -34 -67 0
-953 -34 -68 0
-953 -34 -69 0
-953 -34 -107 0
-953 -34 -108 0
-953 -34 -109 0
-953 -34 -111 0
-953 -34 -112 0
-953 -34 -113 0
-953 -35 177 0
-953 -35 -21 -28 0
-953 -35 -40 0
-953 -35 -41 0
-953 -35 -44 0
-953 -35 -45 0
-953 -35 -64 0
-953 -35 -65 0
-953 -35 -68 0
-953 -35 -69 0
-953 -35 -108 0
-953 -35 -109 0
-953 -35 -112 0
-953 -35 -113 0
-953 -36 178 0
-953 -36 -21 -29 0
-953 -36 -41 0
-953 -36 -45 0
-953 -36 -65 0
-953 -36 -69 0
-953 -36 -109 0
-953 -36 -113 0
-954 148 0
-954 171 0
-954 -33 0
-954 -37 0
-954 -34 176 0
-954 -34 -22 -27 0
-954 -34 -43 0
-954 -34 -44 0
-954 -34 -45 0
-954 -34 -47 0
-954 -34 -48 0
-954 -34 -49 0
-954 -34 -67 0
-954 -34 -68 0
-954 -34 -69 0
-954 -34 -71 0
-954 -34 -72 0
-954 -34 -73 0
-954 -34 -107 0
-954 -34 -108 0
-954 -34 -109 0
-954 -34 -111 0
-954 -34 -112 0
-954 -34 -113 0
-954 -34 -115 0
-954 -34 -116 0
-954 -34 -117 0
-954 -35 177 0
-954 -35 -22 -28 0
-954 -35 -44 0
-954 -35 -45 0
-954 -35 -48 0
-954 -35 -49 0
-954 -35 -68 0
-954 -35 -69 0
-954 -35 -72 0
-954 -35 -73 0
-954 -35 -108 0
-954 -35 -109 0
-954 -35 -112 0
-954 -35 -113 0
-954 -35 -116 0
-954 -35 -117 0
-954 -36 178 0
-954 -36 -22 -29 0
-954 -36 -45 0
-954 -36 -49 0
-954 -36 -69 0
-954 -36 -73 0
-954 -36 -109 0
-954 -36 -113 0
-954 -36 -117 0
-955 148 0
-955 172 0
-955 -37 0
-955 -34 176 0
-955 -34 -23 -27 0
-955 -34 -47 0
-955 -34 -48 0
-955 -34 -49 0
-955 -34 -51 0
-955 -34 -52 0
-955 -34 -53 0
-955 -34 -71 0
-955 -34 -72 0
-955 -34 -73 0
-955 -34 -75 0
-955 -34 -76 0
-955 -34 -77 0
-955 -34 -107 0
-955 -34 -108 0
-955 -34 -109 0
-955 -34 -111 0
-955 -34 -112 0
-955 -34 -113 0
-955 -34 -115 0
-955 -34 -116 0
-955 -34 -117 0
-955 -34 -119 0
-955 -34 -120 0
-955 -34 -121 0
-955 -35 177 0
-955 -35 -23 -28 0
-955 -35 -48 0
-955 -35 -49 0
-955 -35 -52 0
-955 -35 -53 0
-955 -35 -72 0
-955 -35 -73 0
-955 -35 -76 0
-955 -35 -77 0
-955 -35 -108 0
-955 -35 -109 0
-955 -35 -112 0
-955 -35 -113 0
-955 -35 -116 0
-955 -35 -117 0
-955 -35 -120 0
-955 -35 -121 0
-955 -36 178 0
-955 -36 -23 -29 0
-955 -36 -49 0
-955 -36 -53 0
-955 -36 -73 0
-955 -36 -77 0
-955 -36 -109 0
-955 -36 -113 0
-955 -36 -117 0
-955 -36 -121 0
-956 148 0
-956 173 0
-956 -30 0
-956 -37 0
-956 -34 176 0
-956 -34 -24 -27 0
-956 -34 -51 0
-956 -34 -52 0
-956 -34 -53 0
-956 -34 -55 0
-956 -34 -56 0
-956 -34 -57 0
-956 -34 -75 0
-956 -34 -76 0
-956 -34 -77 0
-956 -34 -79 0
-956 -34 -80 0
-956 -34 -81 0
-956 -34 -111 0
-956 -34 -112 0
-956 -34 -113 0
-956 -34 -115 0
-956 -34 -116 0
-956 -34 -117 0
-956 -34 -119 0
-956 -34 -120 0
-956 -34 -121 0
-956 -35 177 0
-956 -35 -24 -28 0
-956 -35 -52 0
-956 -35 -53 0
-956 -35 -56 0
-956 -35 -57 0
-956 -35 -76 0
-956 -35 -77 0
-956 -35 -80 0
-956 -35 -81 0
-956 -35 -112 0
-956 -35 -113 0
-956 -35 -116 0
-956 -35 -117 0
-956 -35 -120 0
-956 -35 -121 0
-956 -36 178 0
-956 -36 -24 -29 0
-956 -36 -53 0
-956 -36 -57 0
-956 -36 -77 0
-956 -36 -81 0
-956 -36 -113 0
-956 -36 -117 0
-956 -36 -121 0
-957 148 0
-957 174 0
-957 -30 0
-957 -31 0
-957 -37 0
-957 -34 176 0
-957 -34 -25 -27 0
-957 -34 -55 0
-957 -34 -56 0
-957 -34 -57 0
-957 -34 -59 0
-957 -34 -60 0
-957 -34 -61 0
-957 -34 -79 0
-957 -34 -80 0
-957 -34 -81 0
-957 -34 -83 0
-957 -34 -84 0
-957 -34 -85 0
-957 -34 -115 0
-957 -34 -116 0
-957 -34 -117 0
-957 -34 -119 0
-957 -34 -120 0
-957 -34 -121 0
-957 -35 177 0
-957 -35 -25 -28 0
-957 -35 -56 0
-957 -35 -57 0
-957 -35 -60 0
-957 -35 -61 0
-957 -35 -80 0
-957 -35 -81 0
-957 -35 -84 0
-957 -35 -85 0
-957 -35 -116 0
-957 -35 -117 0
-957 -35 -120 0
-957 -35 -121 0
-957 -36 178 0
-957 -36 -25 -29 0
-957 -36 -57 0
-957 -36 -61 0
-957 -36 -81 0
-957 -36 -85 0
-957 -36 -117 0
-957 -36 -121 0
-958 148 0
-958 170 0
-958 175 0
-958 -21 -26 0
-958 -38 0
-958 -39 0
-958 -40 0
-958 -41 0
-958 -42 0
-958 -43 0
-958 -44 0
-958 -45 0
-958 -62 0
-958 -63 0
-958 -64 0
-958 -65 0
-958 -66 0
-958 -67 0
-958 -68 0
-958 -69 0
-958 -106 0
-958 -107 0
-958 -108 0
-958 -109 0
-958 -110 0
-958 -111 0
-958 -112 0
-958 -113 0
-959 148 0
-959 171 0
-959 175 0
-959 -22 -26 0
-959 -42 0
-959 -43 0
-959 -44 0
-959 -45 0
-959 -46 0
-959 -47 0
-959 -48 0
-959 -49 0
-959 -66 0
-959 -67 0
-959 -68 0
-959 -69 0
-959 -70 0
-959 -71 0
-959 -72 0
-959 -73 0
-959 -106 0
-959 -107 0
-959 -108 0
-959 -109 0
-959 -110 0
-959 -111 0
-959 -112 0
-959 -113 0
-959 -114 0
-959 -115 0
-959 -116 0
-959 -117 0
-960 148 0
-960 172 0
-960 175 0
-960 -23 -26 0
-960 -46 0
-960 -47 0
-960 -48 0
-960 -49 0
-960 -50 0
-960 -51 0
-960 -52 0
-960 -53 0
-960 -70 0
-960 -71 0
-960 -72 0
-960 -73 0
-960 -74 0
-960 -75 0
-960 -76 0
-960 -77 0
-960 -106 0
-960 -107 0
-960 -108 0
-960 -109 0
-960 -110 0
-960 -111 0
-960 -112 0
-960 -113 0
-960 -114 0
-960 -115 0
-960 -116 0
-960 -117 0
-960 -118 0
-960 -119 0
-960 -120 0
-960 -121 0
-961 148 0
-961 173 0
-961 175 0
-961 -24 -26 0
-961 -50 0
-961 -51 0
-961 -52 0
-961 -53 0
-961 -54 0
-961 -55 0
-961 -56 0
-961 -57 0
-961 -74 0
-961 -75 0
-961 -76 0
-961 -77 0
-961 -78 0
-961 -79 0
-961 -80 0
-961 -81 0
-961 -110 0
-961 -111 0
-961 -112 0
-961 -113 0
-961 -114 0
-961 -115 0
-961 -116 0
-961 -117 0
-961 -118 0
-961 -119 0
-961 -120 0
-961 -121 0
-962 148 0
-962 174 0
-962 175 0
-962 -25 -26 0
-962 -54 0
-962 -55 0
-962 -56 0
-962 -57 0
-962 -58 0
-962 -59 0
-962 -60 0
-962 -61 0
-962 -78 0
-962 -79 0
-962 -80 0
-962 -81 0
-962 -82 0
-962 -83 0
-962 -84 0
-962 -85 0
-962 -114 0
-962 -115 0
-962 -116 0
-962 -117 0
-962 -118 0
-962 -119 0
-962 -120 0
-962 -121 0
-963 149 0
-963 179 0
-963 -4 0
-963 -5 0
-963 -6 0
-963 -10 0
-963 -7 184 0
-963 -7 -30 -35 0
-963 -7 -39 0
-963 -7 -40 0
-963 -7 -41 0
-963 -7 -43 0
-963 -7 -44 0
-963 -7 -45 0
-963 -7 -47 0
-963 -7 -48 0
-963 -7 -49 0
-963 -7 -63 0
-963 -7 -64 0
-963 -7 -65 0
-963 -7 -67 0
-963 -7 -68 0
-963 -7 -69 0
-963 -7 -71 0
-963 -7 -72 0
-963 -7 -73 0
-963 -7 -87 0
-963 -7 -88 0
-963 -7 -89 0
-963 -7 -91 0
-963 -7 -92 0
-963 -7 -93 0
-963 -7 -95 0
-963 -7 -96 0
-963 -7 -97 0
-963 -8 185 0
-963 -8 -30 -36 0
-963 -8 -40 0
-963 -8 -41 0
-963 -8 -44 0
-963 -8 -45 0
-963 -8 -48 0
-963 -8 -49 0
-963 -8 -64 0
-963 -8 -65 0
-963 -8 -68 0
-963 -8 -69 0
-963 -8 -72 0
-963 -8 -73 0
-963 -8 -88 0
-963 -8 -89 0
-963 -8 -92 0
-963 -8 -93 0
-963 -8 -96 0
-963 -8 -97 0
-963 -9 186 0
-963 -9 -30 -37 0
-963 -9 -41 0
-963 -9 -45 0
-963 -9 -49 0
-963 -9 -65 0
-963 -9 -69 0
-963 -9 -73 0
-963 -9 -89 0
-963 -9 -93 0
-963 -9 -97 0
-964 149 0
-964 180 0
-964 -1 0
-964 -5 0
-964 -6 0
-964 -10 0
-964 -7 184 0
-964 -7 -31 -35 0
-964 -7 -43 0
-964 -7 -44 0
-964 -7 -45 0
-964 -7 -47 0
-964 -7 -48 0
-964 -7 -49 0
-964 -7 -51 0
-964 -7 -52 0
-964 -7 -53 0
-964 -7 -67 0
-964 -7 -68 0
-964 -7 -69 0
-964 -7 -71 0
-964 -7 -72 0
-964 -7 -73 0
-964 -7 -75 0
-964 -7 -76 0
-964 -7 -77 0
-964 -7 -87 0
-964 -7 -88 0
-964 -7 -89 0
-964 -7 -91 0
-964 -7 -92 0
-964 -7 -93 0
-964 -7 -95 0
-964 -7 -96 0
-964 -7 -97 0
-964 -7 -99 0
-964 -7 -100 0
-964 -7 -101 0
-964 -8 185 0
-964 -8 -31 -36 0
-964 -8 -44 0
-964 -8 -45 0
-964 -8 -48 0
-964 -8 -49 0
-964 -8 -52 0
-964 -8 -53 0
-964 -8 -68 0
-964 -8 -69 0
-964 -8 -72 0
-964 -8 -73 0
-964 -8 -76 0
-964 -8 -77 0
-964 -8 -88 0
-964 -8 -89 0
-964 -8 -92 0
-964 -8 -93 0
-964 -8 -96 0
-964 -8 -97 0
-964 -8 -100 0
-964 -8 -101 0
-964 -9 186 0
-964 -9 -31 -37 0
-964 -9 -45 0
-964 -9 -49 0
-964 -9 -53 0
-964 -9 -69 0
-964 -9 -73 0
-964 -9 -77 0
-964 -9 -89 0
-964 -9 -93 0
-964 -9 -97 0
-964 -9 -101 0
-965 149 0
-965 181 0
-965 -1 0
-965 -2 0
-965 -6 0
-965 -10 0
-965 -7 184 0
-965 -7 -32 -35 0
-965 -7 -47 0
-965 -7 -48 0
-965 -7 -49 0
-965 -7 -51 0
-965 -7 -52 0
-965 -7 -53 0
-965 -7 -55 0
-965 -7 -56 0
-965 -7 -57 0
-965 -7 -71 0
-965 -7 -72 0
-965 -7 -73 0
-965 -7 -75 0
-965 -7 -76 0
-965 -7 -77 0
-965 -7 -79 0
-965 -7 -80 0
-965 -7 -81 0
-965 -7 -91 0
-965 -7 -92 0
-965 -7 -93 0
-965 -7 -95 0
-965 -7 -96 0
-965 -7 -97 0
-965 -7 -99 0
-965 -7 -100 0
-965 -7 -101 0
-965 -7 -103 0
-965 -7 -104 0
-965 -7 -105 0
-965 -8 185 0
-965 -8 -32 -36 0
-965 -8 -48 0
-965 -8 -49 0
-965 -8 -52 0
-965 -8 -53 0
-965 -8 -56 0
-965 -8 -57 0
-965 -8 -72 0
-965 -8 -73 0
-965 -8 -76 0
-965 -8 -77 0
-965 -8 -80 0
-965 -8 -81 0
-965 -8 -92 0
-965 -8 -93 0
-965 -8 -96 0
-965 -8 -97 0
-965 -8 -100 0
-965 -8 -101 0
-965 -8 -104 0
-965 -8 -105 0
-965 -9 186 0
-965 -9 -32 -37 0
-965 -9 -49 0
-965 -9 -53 0
-965 -9 -57 0
-965 -9 -73 0
-965 -9 -77 0
-965 -9 -81 0
-965 -9 -93 0
-965 -9 -97 0
-965 -9 -101 0
-965 -9 -105 0
-966 149 0
-966 182 0
-966 -1 0
-966 -2 0
-966 -3 0
-966 -10 0
-966 -7 184 0
-966 -7 -33 -35 0
-966 -7 -51 0
-966 -7 -52 0
-966 -7 -53 0
-966 -7 -55 0
-966 -7 -56 0
-966 -7 -57 0
-966 -7 -59 0
-966 -7 -60 0
-966 -7 -61 0
-966 -7 -75 0
-966 -7 -76 0
-966 -7 -77 0
-966 -7 -79 0
-966 -7 -80 0
-966 -7 -81 0
-966 -7 -83 0
-966 -7 -84 0
-966 -7 -85 0
-966 -7 -95 0
-966 -7 -96 0
-966 -7 -97 0
-966 -7 -99 0
-966 -7 -100 0
-966 -7 -101 0
-966 -7 -103 0
-966 -7 -104 0
-966 -7 -105 0
-966 -8 185 0
-966 -8 -33 -36 0
-966 -8 -52 0
-966 -8 -53 0
-966 -8 -56 0
-966 -8 -57 0
-966 -8 -60 0
-966 -8 -61 0
-966 -8 -76 0
-966 -8 -77 0
-966 -8 -80 0
-966 -8 -81 0
-966 -8 -84 0
-966 -8 -85 0
-966 -8 -96 0
-966 -8 -97 0
-966 -8 -100 0
-966 -8 -101 0
-966 -8 -104 0
-966 -8 -105 0
-966 -9 186 0
-966 -9 -33 -37 0
-966 -9 -53 0
-966 -9 -57 0
-966 -9 -61 0
-966 -9 -77 0
-966 -9 -81 0
-966 -9 -85 0
-966 -9 -97 0
-966 -9 -101 0
-966 -9 -105 0
-967 149 0
-967 179 0
-967 -14 0
-967 -15 0
-967 -16 0
-967 -20 0
-967 -17 184 0
-967 -17 -30 -35 0
-967 -17 -39 0
-967 -17 -40 0
-967 -17 -41 0
-967 -17 -43 0
-967 -17 -44 0
-967 -17 -45 0
-967 -17 -47 0
-967 -17 -48 0
-967 -17 -49 0
-967 -17 -63 0
-967 -17 -64 0
-967 -17 -65 0
-967 -17 -67 0
-967 -17 -68 0
-967 -17 -69 0
-967 -17 -71 0
-967 -17 -72 0
-967 -17 -73 0
-967 -17 -87 0
-967 -17 -88 0
-967 -17 -89 0
-967 -17 -91 0
-967 -17 -92 0
-967 -17 -93 0
-967 -17 -95 0
-967 -17 -96 0
-967 -17 -97 0
-967 -18 185 0
-967 -18 -30 -36 0
-967 -18 -40 0
-967 -18 -41 0
-967 -18 -44 0
-967 -18 -45 0
-967 -18 -48 0
-967 -18 -49 0
-967 -18 -64 0
-967 -18 -65 0
-967 -18 -68 0
-967 -18 -69 0
-967 -18 -72 0
-967 -18 -73 0
-967 -18 -88 0
-967 -18 -89 0
-967 -18 -92 0
-967 -18 -93 0
-967 -18 -96 0
-967 -18 -97 0
-967 -19 186 0
-967 -19 -30 -37 0
-967 -19 -41 0
-967 -19 -45 0
-967 -19 -49 0
-967 -19 -65 0
-967 -19 -69 0
-967 -19 -73 0
-967 -19 -89 0
-967 -19 -93 0
-967 -19 -97 0
-968 149 0
-968 180 0
-968 -11 0
-968 -15 0
-968 -16 0
-968 -20 0
-968 -17 184 0
-968 -17 -31 -35 0
-968 -17 -43 0
-968 -17 -44 0
-968 -17 -45 0
-968 -17 -47 0
-968 -17 -48 0
-968 -17 -49 0
-968 -17 -51 0
-968 -17 -52 0
-968 -17 -53 0
-968 -17 -67 0
-968 -17 -68 0
-968 -17 -69 0
-968 -17 -71 0
-968 -17 -72 0
-968 -17 -73 0
-968 -17 -75 0
-968 -17 -76 0
-968 -17 -77 0
-968 -17 -87 0
-968 -17 -88 0
-968 -17 -89 0
-968 -17 -91 0
-968 -17 -92 0
-968 -17 -93 0
-968 -17 -95 0
-968 -17 -96 0
-968 -17 -97 0
-968 -17 -99 0
-968 -17 -100 0
-968 -17 -101 0
-968 -18 185 0
-968 -18 -31 -36 0
-968 -18 -44 0
-968 -18 -45 0
-968 -18 -48 0
-968 -18 -49 0
-968 -18 -52 0
-968 -18 -53 0
-968 -18 -68 0
-968 -18 -69 0
-968 -18 -72 0
-968 -18 -73 0
-968 -18 -76 0
-968 -18 -77 0
-968 -18 -88 0
-968 -18 -89 0
-968 -18 -92 0
-968 -18 -93 0
-968 -18 -96 0
-968 -18 -97 0
-968 -18 -100 0
-968 -18 -101 0
-968 -19 186 0
-968 -19 -31 -37 0
-968 -19 -45 0
-968 -19 -49 0
-968 -19 -53 0
-968 -19 -69 0
-968 -19 -73 0
-968 -19 -77 0
-968 -19 -89 0
-968 -19 -93 0
-968 -19 -97 0
-968 -19 -101 0
-969 149 0
-969 181 0
-969 -11 0
-969 -12 0
-969 -16 0
-969 -20 0
-969 -17 184 0
-969 -17 -32 -35 0
-969 -17 -47 0
-969 -17 -48 0
-969 -17 -49 0
-969 -17 -51 0
-969 -17 -52 0
-969 -17 -53 0
-969 -17 -55 0
-969 -17 -56 0
-969 -17 -57 0
-969 -17 -71 0
-969 -17 -72 0
-969 -17 -73 0
-969 -17 -75 0
-969 -17 -76 0
-969 -17 -77 0
-969 -17 -79 0
-969 -17 -80 0
-969 -17 -81 0
-969 -17 -91 0
-969 -17 -92 0
-969 -17 -93 0
-969 -17 -95 0
-969 -17 -96 0
-969 -17 -97 0
-969 -17 -99 0
-969 -17 -100 0
-969 -17 -101 0
-969 -17 -103 0
-969 -17 -104 0
-969 -17 -105 0
-969 -18 185 0
-969 -18 -32 -36 0
-969 -18 -48 0
-969 -18 -49 0
-969 -18 -52 0
-969 -18 -53 0
-969 -18 -56 0
-969 -18 -57 0
-969 -18 -72 0
-969 -18 -73 0
-969 -18 -76 0
-969 -18 -77 0
-969 -18 -80 0
-969 -18 -81 0
-969 -18 -92 0
-969 -18 -93 0
-969 -18 -96 0
-969 -18 -97 0
-969 -18 -100 0
-969 -18 -101 0
-969 -18 -104 0
-969 -18 -105 0
-969 -19 186 0
-969 -19 -32 -37 0
-969 -19 -49 0
-969 -19 -53 0
-969 -19 -57 0
-969 -19 -73 0
-969 -19 -77 0
-969 -19 -81 0
-969 -19 -93 0
-969 -19 -97 0
-969 -19 -101 0
-969 -19 -105 0
-970 149 0
-970 182 0
-970 -11 0
-970 -12 0
-970 -13 0
-970 -20 0
-970 -17 184 0
-970 -17 -33 -35 0
-970 -17 -51 0
-970 -17 -52 0
-970 -17 -53 0
-970 -17 -55 0
-970 -17 -56 0
-970 -17 -57 0
-970 -17 -59 0
-970 -17 -60 0
-970 -17 -61 0
-970 -17 -75 0
-970 -17 -76 0
-970 -17 -77 0
-970 -17 -79 0
-970 -17 -80 0
-970 -17 -81 0
-970 -17 -83 0
-970 -17 -84 0
-970 -17 -85 0
-970 -17 -95 0
-970 -17 -96 0
-970 -17 -97 0
-970 -17 -99 0
-970 -17 -100 0
-970 -17 -101 0
-970 -17 -103 0
-970 -17 -104 0
-970 -17 -105 0
-970 -18 185 0
-970 -18 -33 -36 0
-970 -18 -52 0
-970 -18 -53 0
-970 -18 -56 0
-970 -18 -57 0
-970 -18 -60 0
-970 -18 -61 0
-970 -18 -76 0
-970 -18 -77 0
-970 -18 -80 0
-970 -18 -81 0
-970 -18 -84 0
-970 -18 -85 0
-970 -18 -96 0
-970 -18 -97 0
-970 -18 -100 0
-970 -18 -101 0
-970 -18 -104 0
-970 -18 -105 0
-970 -19 186 0
-970 -19 -33 -37 0
-970 -19 -53 0
-970 -19 -57 0
-970 -19 -61 0
-970 -19 -77 0
-970 -19 -81 0
-970 -19 -85 0
-970 -19 -97 0
-970 -19 -101 0
-970 -19 -105 0
-971 149 0
-971 179 0
-971 -24 0
-971 -25 0
-971 -29 0
-971 -26 184 0
-971 -26 -30 -35 0
-971 -26 -39 0
-971 -26 -40 0
-971 -26 -41 0
-971 -26 -43 0
-971 -26 -44 0
-971 -26 -45 0
-971 -26 -47 0
-971 -26 -48 0
-971 -26 -49 0
-971 -26 -63 0
-971 -26 -64 0
-971 -26 -65 0
-971 -26 -67 0
-971 -26 -68 0
-971 -26 -69 0
-971 -26 -71 0
-971 -26 -72 0
-971 -26 -73 0
-971 -26 -87 0
-971 -26 -88 0
-971 -26 -89 0
-971 -26 -91 0
-971 -26 -92 0
-971 -26 -93 0
-971 -26 -95 0
-971 -26 -96 0
-971 -26 -97 0
-971 -27 185 0
-971 -27 -30 -36 0
-971 -27 -40 0
-971 -27 -41 0
-971 -27 -44 0
-971 -27 -45 0
-971 -27 -48 0
-971 -27 -49 0
-971 -27 -64 0
-971 -27 -65 0
-971 -27 -68 0
-971 -27 -69 0
-971 -27 -72 0
-971 -27 -73 0
-971 -27 -88 0
-971 -27 -89 0
-971 -27 -92 0
-971 -27 -93 0
-971 -27 -96 0
-971 -27 -97 0
-971 -28 186 0
-971 -28 -30 -37 0
-971 -28 -41 0
-971 -28 -45 0
-971 -28 -49 0
-971 -28 -65 0
-971 -28 -69 0
-971 -28 -73 0
-971 -28 -89 0
-971 -28 -93 0
-971 -28 -97 0
-972 149 0
-972 180 0
-972 -25 0
-972 -29 0
-972 -26 184 0
-972 -26 -31 -35 0
-972 -26 -43 0
-972 -26 -44 0
-972 -26 -45 0
-972 -26 -47 0
-972 -26 -48 0
-972 -26 -49 0
-972 -26 -51 0
-972 -26 -52 0
-972 -26 -53 0
-972 -26 -67 0
-972 -26 -68 0
-972 -26 -69 0
-972 -26 -71 0
-972 -26 -72 0
-972 -26 -73 0
-972 -26 -75 0
-972 -26 -76 0
-972 -26 -77 0
-972 -26 -87 0
-972 -26 -88 0
-972 -26 -89 0
-972 -26 -91 0
-972 -26 -92 0
-972 -26 -93 0
-972 -26 -95 0
-972 -26 -96 0
-972 -26 -97 0
-972 -26 -99 0
-972 -26 -100 0
-972 -26 -101 0
-972 -27 185 0
-972 -27 -31 -36 0
-972 -27 -44 0
-972 -27 -45 0
-972 -27 -48 0
-972 -27 -49 0
-972 -27 -52 0
-972 -27 -53 0
-972 -27 -68 0
-972 -27 -69 0
-972 -27 -72 0
-972 -27 -73 0
-972 -27 -76 0
-972 -27 -77 0
-972 -27 -88 0
-972 -27 -89 0
-972 -27 -92 0
-972 -27 -93 0
-972 -27 -96 0
-972 -27 -97 0
-972 -27 -100 0
-972 -27 -101 0
-972 -28 186 0
-972 -28 -31 -37 0
-972 -28 -45 0
-972 -28 -49 0
-972 -28 -53 0
-972 -28 -69 0
-972 -28 -73 0
-972 -28 -77 0
-972 -28 -89 0
-972 -28 -93 0
-972 -28 -97 0
-972 -28 -101 0
-973 149 0
-973 181 0
-973 -21 0
-973 -29 0
-973 -26 184 0
-973 -26 -32 -35 0
-973 -26 -47 0
-973 -26 -48 0
-973 -26 -49 0
-973 -26 -51 0
-973 -26 -52 0
-973 -26 -53 0
-973 -26 -55 0
-973 -26 -56 0
-973 -26 -57 0
-973 -26 -71 0
-973 -26 -72 0
-973 -26 -73 0
-973 -26 -75 0
-973 -26 -76 0
-973 -26 -77 0
-973 -26 -79 0
-973 -26 -80 0
-973 -26 -81 0
-973 -26 -91 0
-973 -26 -92 0
-973 -26 -93 0
-973 -26 -95 0
-973 -26 -96 0
-973 -26 -97 0
-973 -26 -99 0
-973 -26 -100 0
-973 -26 -101 0
-973 -26 -103 0
-973 -26 -104 0
-973 -26 -105 0
-973 -27 185 0
-973 -27 -32 -36 0
-973 -27 -48 0
-973 -27 -49 0
-973 -27 -52 0
-973 -27 -53 0
-973 -27 -56 0
-973 -27 -57 0
-973 -27 -72 0
-973 -27 -73 0
-973 -27 -76 0
-973 -27 -77 0
-973 -27 -80 0
-973 -27 -81 0
-973 -27 -92 0
-973 -27 -93 0
-973 -27 -96 0
-973 -27 -97 0
-973 -27 -100 0
-973 -27 -101 0
-973 -27 -104 0
-973 -27 -105 0
-973 -28 186 0
-973 -28 -32 -37 0
-973 -28 -49 0
-973 -28 -53 0
-973 -28 -57 0
-973 -28 -73 0
-973 -28 -77 0
-973 -28 -81 0
-973 -28 -93 0
-973 -28 -97 0
-973 -28 -101 0
-973 -28 -105 0
-974 149 0
-974 182 0
-974 -21 0
-974 -22 0
-974 -29 0
-974 -26 184 0
-974 -26 -33 -35 0
-974 -26 -51 0
-974 -26 -52 0
-974 -26 -53 0
-974 -26 -55 0
-974 -26 -56 0
-974 -26 -57 0
-974 -26 -59 0
-974 -26 -60 0
-974 -26 -61 0
-974 -26 -75 0
-974 -26 -76 0
-974 -26 -77 0
-974 -26 -79 0
-974 -26 -80 0
-974 -26 -81 0
-974 -26 -83 0
-974 -26 -84 0
-974 -26 -85 0
-974 -26 -95 0
-974 -26 -96 0
-974 -26 -97 0
-974 -26 -99 0
-974 -26 -100 0
-974 -26 -101 0
-974 -26 -103 0
-974 -26 -104 0
-974 -26 -105 0
-974 -27 185 0
-974 -27 -33 -36 0
-974 -27 -52 0
-974 -27 -53 0
-974 -27 -56 0
-974 -27 -57 0
-974 -27 -60 0
-974 -27 -61 0
-974 -27 -76 0
-974 -27 -77 0
-974 -27 -80 0
-974 -27 -81 0
-974 -27 -84 0
-974 -27 -85 0
-974 -27 -96 0
-974 -27 -97 0
-974 -27 -100 0
-974 -27 -101 0
-974 -27 -104 0
-974 -27 -105 0
-974 -28 186 0
-974 -28 -33 -37 0
-974 -28 -53 0
-974 -28 -57 0
-974 -28 -61 0
-974 -28 -77 0
-974 -28 -81 0
-974 -28 -85 0
-974 -28 -97 0
-974 -28 -101 0
-974 -28 -105 0
-975 149 0
-975 179 0
-975 183 0
-975 -30 -34 0
-975 -38 0
-975 -39 0
-975 -40 0
-975 -41 0
-975 -42 0
-975 -43 0
-975 -44 0
-975 -45 0
-975 -46 0
-975 -47 0
-975 -48 0
-975 -49 0
-975 -62 0
-975 -63 0
-975 -64 0
-975 -65 0
-975 -66 0
-975 -67 0
-975 -68 0
-975 -69 0
-975 -70 0
-975 -71 0
-975 -72 0
-975 -73 0
-975 -86 0
-975 -87 0
-975 -88 0
-975 -89 0
-975 -90 0
-975 -91 0
-975 -92 0
-975 -93 0
-975 -94 0
-975 -95 0
-975 -96 0
-975 -97 0
-976 149 0
-976 180 0
-976 183 0
-976 -31 -34 0
-976 -42 0
-976 -43 0
-976 -44 0
-976 -45 0
-976 -46 0
-976 -47 0
-976 -48 0
-976 -49 0
-976 -50 0
-976 -51 0
-976 -52 0
-976 -53 0
-976 -66 0
-976 -67 0
-976 -68 0
-976 -69 0
-976 -70 0
-976 -71 0
-976 -72 0
-976 -73 0
-976 -74 0
-976 -75 0
-976 -76 0
-976 -77 0
-976 -86 0
-976 -87 0
-976 -88 0
-976 -89 0
-976 -90 0
-976 -91 0
-976 -92 0
-976 -93 0
-976 -94 0
-976 -95 0
-976 -96 0
-976 -97 0
-976 -98 0
-976 -99 0
-976 -100 0
-976 -101 0
-977 149 0
-977 181 0
-977 183 0
-977 -32 -34 0
-977 -46 0
-977 -47 0
-977 -48 0
-977 -49 0
-977 -50 0
-977 -51 0
-977 -52 0
-977 -53 0
-977 -54 0
-977 -55 0
-977 -56 0
-977 -57 0
-977 -70 0
-977 -71 0
-977 -72 0
-977 -73 0
-977 -74 0
-977 -75 0
-977 -76 0
-977 -77 0
-977 -78 0
-977 -79 0
-977 -80 0
-977 -81 0
-977 -90 0
-977 -91 0
-977 -92 0
-977 -93 0
-977 -94 0
-977 -95 0
-977 -96 0
-977 -97 0
-977 -98 0
-977 -99 0
-977 -100 0
-977 -101 0
-977 -102 0
-977 -103 0
-977 -104 0
-977 -105 0
-978 149 0
-978 182 0
-978 183 0
-978 -33 -34 0
-978 -50 0
-978 -51 0
-978 -52 0
-978 -53 0
-978 -54 0
-978 -55 0
-978 -56 0
-978 -57 0
-978 -58 0
-978 -59 0
-978 -60 0
-978 -61 0
-978 -74 0
-978 -75 0
-978 -76 0
-978 -77 0
-978 -78 0
-978 -79 0
-978 -80 0
-978 -81 0
-978 -82 0
-978 -83 0
-978 -84 0
-978 -85 0
-978 -94 0
-978 -95 0
-978 -96 0
-978 -97 0
-978 -98 0
-978 -99 0
-978 -100 0
-978 -101 0
-978 -102 0
-978 -103 0
-978 -104 0
-978 -105 0
983 984 985 986 987 988 989 990 991 992 993 994 995 996 997 998 999 1000 1001 1002 1003 1004 1005 1006 1007 1008 1009 1010 1011 1012 1013 1014 1015 1016 1017 1018 1019 1020 1021 1022 1023 1024 1025 1026 1027 1028 1029 1030 1031 1032 1033 1034 1035 1036 1037 1038 1039 1040 1041 1042 1043 1044 1045 1046 1047 1048 1049 1050 1051 1052 1053 1054 1055 1056 1057 1058 1059 1060 1061 1062 1063 1064 1065 1066 0
-983 -984 0
-983 -985 0
-983 -986 0
-983 -987 0
-983 -988 0
-983 -989 0
-983 -990 0
-983 -991 0
-983 -992 0
-983 -993 0
-983 -994 0
-983 -995 0
-983 -996 0
-983 -997 0
-983 -998 0
-983 -999 0
-983 -1000 0
-983 -1001 0
-983 -1002 0
-983 -1003 0
-983 -1004 0
-983 -1005 0
-983 -1006 0
-983 -1007 0
-983 -1008 0
-983 -1009 0
-983 -1010 0
-983 -1011 0
-983 -1012 0
-983 -1013 0
-983 -1014 0
-983 -1015 0
-983 -1016 0
-983 -1017 0
-983 -1018 0
-983 -1019 0
-983 -1020 0
-983 -1021 0
-983 -1022 0
-983 -1023 0
-983 -1024 0
-983 -1025 0
-983 -1026 0
-983 -1027 0
-983 -1028 0
-983 -1029 0
-983 -1030 0
-983 -1031 0
-983 -1032 0
-983 -1033 0
-983 -1034 0
-983 -1035 0
-983 -1036 0
-983 -1037 0
-983 -1038 0
-983 -1039 0
-983 -1040 0
-983 -1041 0
-983 -1042 0
-983 -1043 0
-983 -1044 0
-983 -1045 0
-983 -1046 0
-983 -1047 0
-983 -1048 0
-983 -1049 0
-983 -1050 0
-983 -1051 0
-983 -1052 0
-983 -1053 0
-983 -1054 0
-983 -1055 0
-983 -1056 0
-983 -1057 0
-983 -1058 0
-983 -1059 0
-983 -1060 0
-983 -1061 0
-983 -1062 0
-983 -1063 0
-983 -1064 0
-983 -1065 0
-983 -1066 0
-984 -985 0
-984 -986 0
-984 -987 0
-984 -988 0
-984 -989 0
-984 -990 0
-984 -991 0
-984 -992 0
-984 -993 0
-984 -994 0
-984 -995 0
-984 -996 0
-984 -997 0
-984 -998 0
-984 -999 0
-984 -1000 0
-984 -1001 0
-984 -1002 0
-984 -1003 0
-984 -1004 0
-984 -1005 0
-984 -1006 0
-984 -1007 0
-984 -1008 0
-984 -1009 0
-984 -1010 0
-984 -1011 0
-984 -1012 0
-984 -1013 0
-984 -1014 0
-984 -1015 0
-984 -1016 0
-984 -1017 0
-984 -1018 0
-984 -1019 0
-984 -1020 0
-984 -1021 0
-984 -1022 0
-984 -1023 0
-984 -1024 0
-984 -1025 0
-984 -1026 0
-984 -1027 0
-984 -1028 0
-984 -1029 0
-984 -1030 0
-984 -1031 0
-984 -1032 0
-984 -1033 0
-984 -1034 0
-984 -1035 0
-984 -1036 0
-984 -1037 0
-984 -1038 0
-984 -1039 0
-984 -1040 0
-984 -1041 0
-984 -1042 0
-984 -1043 0
-984 -1044 0
-984 -1045 0
-984 -1046 0
-984 -1047 0
-984 -1048 0
-984 -1049 0
-984 -1050 0
-984 -1051 0
-984 -1052 0
-984 -1053 0
-984 -1054 0
-984 -1055 0
-984 -1056 0
-984 -1057 0
-984 -1058 0
-984 -1059 0
-984 -1060 0
-984 -1061 0
-984 -1062 0
-984 -1063 0
-984 -1064 0
-984 -1065 0
-984 -1066 0
-985 -986 0
-985 -987 0
-985 -988 0
-985 -989 0
-985 -990 0
-985 -991 0
-985 -992 0
-985 -993 0
-985 -994 0
-985 -995 0
-985 -996 0
-985 -997 0
-985 -998 0
-985 -999 0
-985 -1000 0
-985 -1001 0
-985 -1002 0
-985 -1003 0
-985 -1004 0
-985 -1005 0
-985 -1006 0
-985 -1007 0
-985 -1008 0
-985 -1009 0
-985 -1010 0
-985 -1011 0
-985 -1012 0
-985 -1013 0
-985 -1014 0
-985 -1015 0
-985 -1016 0
-985 -1017 0
-985 -1018 0
-985 -1019 0
-985 -1020 0
-985 -1021 0
-985 -1022 0
-985 -1023 0
-985 -1024 0
-985 -1025 0
-985 -1026 0
-985 -1027 0
-985 -1028 0
-985 -1029 0
-985 -1030 0
-985 -1031 0
-985 -1032 0
-985 -1033 0
-985 -1034 0
-985 -1035 0
-985 -1036 0
-985 -1037 0
-985 -1038 0
-985 -1039 0
-985 -1040 0
-985 -1041 0
-985 -1042 0
-985 -1043 0
-985 -1044 0
-985 -1045 0
-985 -1046 0
-985 -1047 0
-985 -1048 0
-985 -1049 0
-985 -1050 0
-985 -1051 0
-985 -1052 0
-985 -1053 0
-985 -1054 0
-985 -1055 0
-985 -1056 0
-985 -1057 0
-985 -1058 0
-985 -1059 0
-985 -1060 0
-985 -1061 0
-985 -1062 0
-985 -1063 0
-985 -1064 0
-985 -1065 0
-985 -1066 0
-986 -987 0
-986 -988 0
-986 -989 0
-986 -990 0
-986 -991 0
-986 -992 0
-986 -993 0
-986 -994 0
-986 -995 0
-986 -996 0
-986 -997 0
-986 -998 0
-986 -999 0
-986 -1000 0
-986 -1001 0
-986 -1002 0
-986 -1003 0
-986 -1004 0
-986 -1005 0
-986 -1006 0
-986 -1007 0
-986 -1008 0
-986 -1009 0
-986 -1010 0
-986 -1011 0
-986 -1012 0
-986 -1013 0
-986 -1014 0
-986 -1015 0
-986 -1016 0
-986 -1017 0
-986 -1018 0
-986 -1019 0
-986 -1020 0
-986 -1021 0
-986 -1022 0
-986 -1023 0
-986 -1024 0
-986 -1025 0
-986 -1026 0
-986 -1027 0
-986 -1028 0
-986 -1029 0
-986 -1030 0
-986 -1031 0
-986 -1032 0
-986 -1033 0
-986 -1034 0
-986 -1035 0
-986 -1036 0
-986 -1037 0
-986 -1038 0
-986 -1039 0
-986 -1040 0
-986 -1041 0
-986 -1042 0
-986 -1043 0
-986 -1044 0
-986 -1045 0
-986 -1046 0
-986 -1047 0
-986 -1048 0
-986 -1049 0
-986 -1050 0
-986 -1051 0
-986 -1052 0
-986 -1053 0
-986 -1054 0
-986 -1055 0
-986 -1056 0
-986 -1057 0
-986 -1058 0
-986 -1059 0
-986 -1060 0
-986 -1061 0
-986 -1062 0
-986 -1063 0
-986 -1064 0
-986 -1065 0
-986 -1066 0
-987 -988 0
-987 -989 0
-987 -990 0
-987 -991 0
-987 -992 0
-987 -993 0
-987 -994 0
-987 -995 0
-987 -996 0
-987 -997 0
-987 -998 0
-987 -999 0
-987 -1000 0
-987 -1001 0
-987 -1002 0
-987 -1003 0
-987 -1004 0
-987 -1005 0
-987 -1006 0
-987 -1007 0
-987 -1008 0
-987 -1009 0
-987 -1010 0
-987 -1011 0
-987 -1012 0
-987 -1013 0
-987 -1014 0
-987 -1015 0
-987 -1016 0
-987 -1017 0
-987 -1018 0
-987 -1019 0
-987 -1020 0
-987 -1021 0
-987 -1022 0
-987 -1023 0
-987 -1024 0
-987 -1025 0
-987 -1026 0
-987 -1027 0
-987 -1028 0
-987 -1029 0
-987 -1030 0
-987 -1031 0
-987 -1032 0
-987 -1033 0
-987 -1034 0
-987 -1035 0
-987 -1036 0
-987 -1037 0
-987 -1038 0
-987 -1039 0
-987 -1040 0
-987 -1041 0
-987 -1042 0
-987 -1043 0
-987 -1044 0
-987 -1045 0
-987 -1046 0
-987 -1047 0
-987 -1048 0
-987 -1049 0
-987 -1050 0
-987 -1051 0
-987 -1052 0
-987 -1053 0
-987 -1054 0
-987 -1055 0
-987 -1056 0
-987 -1057 0
-987 -1058 0
-987 -1059 0
-987 -1060 0
-987 -1061 0
-987 -1062 0
-987 -1063 0
-987 -1064 0
-987 -1065 0
-987 -1066 0
-988 -989 0
-988 -990 0
-988 -991 0
-988 -992 0
-988 -993 0
-988 -994 0
-988 -995 0
-988 -996 0
-988 -997 0
-988 -998 0
-988 -999 0
-988 -1000 0
-988 -1001 0
-988 -1002 0
-988 -1003 0
-988 -1004 0
-988 -1005 0
-988 -1006 0
-988 -1007 0
-988 -1008 0
-988 -1009 0
-988 -1010 0
-988 -1011 0
-988 -1012 0
-988 -1013 0
-988 -1014 0
-988 -1015 0
-988 -1016 0
-988 -1017 0
-988 -1018 0
-988 -1019 0
-988 -1020 0
-988 -1021 0
-988 -1022 0
-988 -1023 0
-988 -1024 0
-988 -1025 0
-988 -1026 0
-988 -1027 0
-988 -1028 0
-988 -1029 0
-988 -1030 0
-988 -1031 0
-988 -1032 0
-988 -1033 0
-988 -1034 0
-988 -1035 0
-988 -1036 0
-988 -1037 0
-988 -1038 0
-988 -1039 0
-988 -1040 0
-988 -1041 0
-988 -1042 0
-988 -1043 0
-988 -1044 0
-988 -1045 0
-988 -1046 0
-988 -1047 0
-988 -1048 0
-988 -1049 0
-988 -1050 0
-988 -1051 0
-988 -1052 0
-988 -1053 0
-988 -1054 0
-988 -1055 0
-988 -1056 0
-988 -1057 0
-988 -1058 0
-988 -1059 0
-988 -1060 0
-988 -1061 0
-988 -1062 0
-988 -1063 0
-988 -1064 0
-988 -1065 0
-988 -1066 0
-989 -990 0
-989 -991 0
-989 -992 0
-989 -993 0
-989 -994 0
-989 -995 0
-989 -996 0
-989 -997 0
-989 -998 0
-989 -999 0
-989 -1000 0
-989 -1001 0
-989 -1002 0
-989 -1003 0
-989 -1004 0
-989 -1005 0
-989 -1006 0
-989 -1007 0
-989 -1008 0
-989 -1009 0
-989 -1010 0
-989 -1011 0
-989 -1012 0
-989 -1013 0
-989 -1014 0
-989 -1015 0
-989 -1016 0
-989 -1017 0
-989 -1018 0
-989 -1019 0
-989 -1020 0
-989 -1021 0
-989 -1022 0
-989 -1023 0
-989 -1024 0
-989 -1025 0
-989 -1026 0
-989 -1027 0
-989 -1028 0
-989 -1029 0
-989 -1030 0
-989 -1031 0
-989 -1032 0
-989 -1033 0
-989 -1034 0
-989 -1035 0
-989 -1036 0
-989 -1037 0
-989 -1038 0
-989 -1039 0
-989 -1040 0
-989 -1041 0
-989 -1042 0
-989 -1043 0
-989 -1044 0
-989 -1045 0
-989 -1046 0
-989 -1047 0
-989 -1048 0
-989 -1049 0
-989 -1050 0
-989 -1051 0
-989 -1052 0
-989 -1053 0
-989 -1054 0
-989 -1055 0
-989 -1056 0
-989 -1057 0
-989 -1058 0
-989 -1059 0
-989 -1060 0
-989 -1061 0
-989 -1062 0
-989 -1063 0
-989 -1064 0
-989 -1065 0
-989 -1066 0
-990 -991 0
-990 -992 0
-990 -993 0
-990 -994 0
-990 -995 0
-990 -996 0
-990 -997 0
-990 -998 0
-990 -999 0
-990 -1000 0
-990 -1001 0
-990 -1002 0
-990 -1003 0
-990 -1004 0
-990 -1005 0
-990 -1006 0
-990 -1007 0
-990 -1008 0
-990 -1009 0
-990 -1010 0
-990 -1011 0
-990 -1012 0
-990 -1013 0
-990 -1014 0
-990 -1015 0
-990 -1016 0
-990 -1017 0
-990 -1018 0
-990 -1019 0
-990 -1020 0
-990 -1021 0
-990 -1022 0
-990 -1023 0
-990 -1024 0
-990 -1025 0
-990 -1026 0
-990 -1027 0
-990 -1028 0
-990 -1029 0
-990 -1030 0
-990 -1031 0
-990 -1032 0
-990 -1033 0
-990 -1034 0
-990 -1035 0
-990 -1036 0
-990 -1037 0
-990 -1038 0
-990 -1039 0
-990 -1040 0
-990 -1041 0
-990 -1042 0
-990 -1043 0
-990 -1044 0
-990 -1045 0
-990 -1046 0
-990 -1047 0
-990 -1048 0
-990 -1049 0
-990 -1050 0
-990 -1051 0
-990 -1052 0
-990 -1053 0
-990 -1054 0
-990 -1055 0
-990 -1056 0
-990 -1057 0
-990 -1058 0
-990 -1059 0
-990 -1060 0
-990 -1061 0
-990 -1062 0
-990 -1063 0
-990 -1064 0
-990 -1065 0
-990 -1066 0
-991 -992 0
-991 -993 0
-991 -994 0
-991 -995 0
-991 -996 0
-991 -997 0
-991 -998 0
-991 -999 0
-991 -1000 0
-991 -1001 0
-991 -1002 0
-991 -1003 0
-991 -1004 0
-991 -1005 0
-991 -1006 0
-991 -1007 0
-991 -1008 0
-991 -1009 0
-991 -1010 0
-991 -1011 0
-991 -1012 0
-991 -1013 0
-991 -1014 0
-991 -1015 0
-991 -1016 0
-991 -1017 0
-991 -1018 0
-991 -1019 0
-991 -1020 0
-991 -1021 0
-991 -1022 0
-991 -1023 0
-991 -1024 0
-991 -1025 0
-991 -1026 0
-991 -1027 0
-991 -1028 0
-991 -1029 0
-991 -1030 0
-991 -1031 0
-991 -1032 0
-991 -1033 0
-991 -1034 0
-991 -1035 0
-991 -1036 0
-991 -1037 0
-991 -1038 0
-991 -1039 0
-991 -1040 0
-991 -1041 0
-991 -1042 0
-991 -1043 0
-991 -1044 0
-991 -1045 0
-991 -1046 0
-991 -1047 0
-991 -1048 0
-991 -1049 0
-991 -1050 0
-991 -1051 0
-991 -1052 0
-991 -1053 0
-991 -1054 0
-991 -1055 0
-991 -1056 0
-991 -1057 0
-991 -1058 0
-991 -1059 0
-991 -1060 0
-991 -1061 0
-991 -1062 0
-991 -1063 0
-991 -1064 0
-991 -1065 0
-991 -1066 0
-992 -993 0
-992 -994 0
-992 -995 0
-992 -996 0
-992 -997 0
-992 -998 0
-992 -999 0
-992 -1000 0
-992 -1001 0
-992 -1002 0
-992 -1003 0
-992 -1004 0
-992 -1005 0
-992 -1006 0
-992 -1007 0
-992 -1008 0
-992 -1009 0
-992 -1010 0
-992 -1011 0
-992 -1012 0
-992 -1013 0
-992 -1014 0
-992 -1015 0
-992 -1016 0
-992 -1017 0
-992 -1018 0
-992 -1019 0
-992 -1020 0
-992 -1021 0
-992 -1022 0
-992 -1023 0
-992 -1024 0
-992 -1025 0
-992 -1026 0
-992 -1027 0
-992 -1028 0
-992 -1029 0
-992 -1030 0
-992 -1031 0
-992 -1032 0
-992 -1033 0
-992 -1034 0
-992 -1035 0
-992 -1036 0
-992 -1037 0
-992 -1038 0
-992 -1039 0
-992 -1040 0
-992 -1041 0
-992 -1042 0
-992 -1043 0
-992 -1044 0
-992 -1045 0
-992 -1046 0
-992 -1047 0
-992 -1048 0
-992 -1049 0
-992 -1050 0
-992 -1051 0
-992 -1052 0
-992 -1053 0
-992 -1054 0
-992 -1055 0
-992 -1056 0
-992 -1057 0
-992 -1058 0
-992 -1059 0
-992 -1060 0
-992 -1061 0
-992 -1062 0
-992 -1063 0
-992 -1064 0
-992 -1065 0
-992 -1066 0
-993 -994 0
-993 -995 0
-993 -996 0
-993 -997 0
-993 -998 0
-993 -999 0
-993 -1000 0
-993 -1001 0
-993 -1002 0
-993 -1003 0
-993 -1004 0
-993 -1005 0
-993 -1006 0
-993 -1007 0
-993 -1008 0
-993 -1009 0
-993 -1010 0
-993 -1011 0
-993 -1012 0
-993 -1013 0
-993 -1014 0
-993 -1015 0
-993 -1016 0
-993 -1017 0
-993 -1018 0
-993 -1019 0
-993 -1020 0
-993 -1021 0
-993 -1022 0
-993 -1023 0
-993 -1024 0
-993 -1025 0
-993 -1026 0
-993 -1027 0
-993 -1028 0
-993 -1029 0
-993 -1030 0
-993 -1031 0
-993 -1032 0
-993 -1033 0
-993 -1034 0
-993 -1035 0
-993 -1036 0
-993 -1037 0
-993 -1038 0
-993 -1039 0
-993 -1040 0
-993 -1041 0
-993 -1042 0
-993 -1043 0
-993 -1044 0
-993 -1045 0
-993 -1046 0
-993 -1047 0
-993 -1048 0
-993 -1049 0
-993 -1050 0
-993 -1051 0
-993 -1052 0
-993 -1053 0
-993 -1054 0
-993 -1055 0
-993 -1056 0
-993 -1057 0
-993 -1058 0
-993 -1059 0
-993 -1060 0
-993 -1061 0
-993 -1062 0
-993 -1063 0
-993 -1064 0
-993 -1065 0
-993 -1066 0
-994 -995 0
-994 -996 0
-994 -997 0
-994 -998 0
-994 -999 0
-994 -1000 0
-994 -1001 0
-994 -1002 0
-994 -1003 0
-994 -1004 0
-994 -1005 0
-994 -1006 0
-994 -1007 0
-994 -1008 0
-994 -1009 0
-994 -1010 0
-994 -1011 0
-994 -1012 0
-994 -1013 0
-994 -1014 0
-994 -1015 0
-994 -1016 0
-994 -1017 0
-994 -1018 0
-994 -1019 0
-994 -1020 0
-994 -1021 0
-994 -1022 0
-994 -1023 0
-994 -1024 0
-994 -1025 0
-994 -1026 0
-994 -1027 0
-994 -1028 0
-994 -1029 0
-994 -1030 0
-994 -1031 0
-994 -1032 0
-994 -1033 0
-994 -1034 0
-994 -1035 0
-994 -1036 0
-994 -1037 0
-994 -1038 0
-994 -1039 0
-994 -1040 0
-994 -1041 0
-994 -1042 0
-994 -1043 0
-994 -1044 0
-994 -1045 0
-994 -1046 0
-994 -1047 0
-994 -1048 0
-994 -1049 0
-994 -1050 0
-994 -1051 0
-994 -1052 0
-994 -1053 0
-994 -1054 0
-994 -1055 0
-994 -1056 0
-994 -1057 0
-994 -1058 0
-994 -1059 0
-994 -1060 0
-994 -1061 0
-994 -1062 0
-994 -1063 0
-994 -1064 0
-994 -1065 0
-994 -1066 0
-995 -996 0
-995 -997 0
-995 -998 0
-995 -999 0
-995 -1000 0
-995 -1001 0
-995 -1002 0
-995 -1003 0
-995 -1004 0
-995 -1005 0
-995 -1006 0
-995 -1007 0
-995 -1008 0
-995 -1009 0
-995 -1010 0
-995 -1011 0
-995 -1012 0
-995 -1013 0
-995 -1014 0
-995 -1015 0
-995 -1016 0
-995 -1017 0
-995 -1018 0
-995 -1019 0
-995 -1020 0
-995 -1021 0
-995 -1022 0
-995 -1023 0
-995 -1024 0
-995 -1025 0
-995 -1026 0
-995 -1027 0
-995 -1028 0
-995 -1029 0
-995 -1030 0
-995 -1031 0
-995 -1032 0
-995 -1033 0
-995 -1034 0
-995 -1035 0
-995 -1036 0
-995 -1037 0
-995 -1038 0
-995 -1039 0
-995 -1040 0
-995 -1041 0
-995 -1042 0
-995 -1043 0
-995 -1044 0
-995 -1045 0
-995 -1046 0
-995 -1047 0
-995 -1048 0
-995 -1049 0
-995 -1050 0
-995 -1051 0
-995 -1052 0
-995 -1053 0
-995 -1054 0
-995 -1055 0
-995 -1056 0
-995 -1057 0
-995 -1058 0
-995 -1059 0
-995 -1060 0
-995 -1061 0
-995 -1062 0
-995 -1063 0
-995 -1064 0
-995 -1065 0
-995 -1066 0
-996 -997 0
-996 -998 0
-996 -999 0
-996 -1000 0
-996 -1001 0
-996 -1002 0
-996 -1003 0
-996 -1004 0
-996 -1005 0
-996 -1006 0
-996 -1007 0
-996 -1008 0
-996 -1009 0
-996 -1010 0
-996 -1011 0
-996 -1012 0
-996 -1013 0
-996 -1014 0
-996 -1015 0
-996 -1016 0
-996 -1017 0
-996 -1018 0
-996 -1019 0
-996 -1020 0
-996 -1021 0
-996 -1022 0
-996 -1023 0
-996 -1024 0
-996 -1025 0
-996 -1026 0
-996 -1027 0
-996 -1028 0
-996 -1029 0
-996 -1030 0
-996 -1031 0
-996 -1032 0
-996 -1033 0
-996 -1034 0
-996 -1035 0
-996 -1036 0
-996 -1037 0
-996 -1038 0
-996 -1039 0
-996 -1040 0
-996 -1041 0
-996 -1042 0
-996 -1043 0
-996 -1044 0
-996 -1045 0
-996 -1046 0
-996 -1047 0
-996 -1048 0
-996 -1049 0
-996 -1050 0
-996 -1051 0
-996 -1052 0
-996 -1053 0
-996 -1054 0
-996 -1055 0
-996 -1056 0
-996 -1057 0
-996 -1058 0
-996 -1059 0
-996 -1060 0
-996 -1061 0
-996 -1062 0
-996 -1063 0
-996 -1064 0
-996 -1065 0
-996 -1066 0
-997 -998 0
-997 -999 0
-997 -1000 0
-997 -1001 0
-997 -1002 0
-997 -1003 0
-997 -1004 0
-997 -1005 0
-997 -1006 0
-997 -1007 0
-997 -1008 0
-997 -1009 0
-997 -1010 0
-997 -1011 0
-997 -1012 0
-997 -1013 0
-997 -1014 0
-997 -1015 0
-997 -1016 0
-997 -1017 0
-997 -1018 0
-997 -1019 0
-997 -1020 0
-997 -1021 0
-997 -1022 0
-997 -1023 0
-997 -1024 0
-997 -1025 0
-997 -1026 0
-997 -1027 0
-997 -1028 0
-997 -1029 0
-997 -1030 0
-997 -1031 0
-997 -1032 0
-997 -1033 0
-997 -1034 0
-997 -1035 0
-997 -1036 0
-997 -1037 0
-997 -1038 0
-997 -1039 0
-997 -1040 0
-997 -1041 0
-997 -1042 0
-997 -1043 0
-997 -1044 0
-997 -1045 0
-997 -1046 0
-997 -1047 0
-997 -1048 0
-997 -1049 0
-997 -1050 0
-997 -1051 0
-997 -1052 0
-997 -1053 0
-997 -1054 0
-997 -1055 0
-997 -1056 0
-997 -1057 0
-997 -1058 0
-997 -1059 0
-997 -1060 0
-997 -1061 0
-997 -1062 0
-997 -1063 0
-997 -1064 0
-997 -1065 0
-997 -1066 0
-998 -999 0
-998 -1000 0
-998 -1001 0
-998 -1002 0
-998 -1003 0
-998 -1004 0
-998 -1005 0
-998 -1006 0
-998 -1007 0
-998 -1008 0
-998 -1009 0
-998 -1010 0
-998 -1011 0
-998 -1012 0
-998 -1013 0
-998 -1014 0
-998 -1015 0
-998 -1016 0
-998 -1017 0
-998 -1018 0
-998 -1019 0
-998 -1020 0
-998 -1021 0
-998 -1022 0
-998 -1023 0
-998 -1024 0
-998 -1025 0
-998 -1026 0
-998 -1027 0
-998 -1028 0
-998 -1029 0
-998 -1030 0
-998 -1031 0
-998 -1032 0
-998 -1033 0
-998 -1034 0
-998 -1035 0
-998 -1036 0
-998 -1037 0
-998 -1038 0
-998 -1039 0
-998 -1040 0
-998 -1041 0
-998 -1042 0
-998 -1043 0
-998 -1044 0
-998 -1045 0
-998 -1046 0
-998 -1047 0
-998 -1048 0
-998 -1049 0
-998 -1050 0
-998 -1051 0
-998 -1052 0
-998 -1053 0
-998 -1054 0
-998 -1055 0
-998 -1056 0
-998 -1057 0
-998 -1058 0
-998 -1059 0
-998 -1060 0
-998 -1061 0
-998 -1062 0
-998 -1063 0
-998 -1064 0
-998 -1065 0
-998 -1066 0
-999 -1000 0
-999 -1001 0
-999 -1002 0
-999 -1003 0
-999 -1004 0
-999 -1005 0
-999 -1006 0
-999 -1007 0
-999 -1008 0
-999 -1009 0
-999 -1010 0
-999 -1011 0
-999 -1012 0
-999 -1013 0
-999 -1014 0
-999 -1015 0
-999 -1016 0
-999 -1017 0
-999 -1018 0
-999 -1019 0
-999 -1020 0
-999 -1021 0
-999 -1022 0
-999 -1023 0
-999 -1024 0
-999 -1025 0
-999 -1026 0
-999 -1027 0
-999 -1028 0
-999 -1029 0
-999 -1030 0
-999 -1031 0
-999 -1032 0
-999 -1033 0
-999 -1034 0
-999 -1035 0
-999 -1036 0
-999 -1037 0
-999 -1038 0
-999 -1039 0
-999 -1040 0
-999 -1041 0
-999 -1042 0
-999 -1043 0
-999 -1044 0
-999 -1045 0
-999 -1046 0
-999 -1047 0
-999 -1048 0
-999 -1049 0
-999 -1050 0
-999 -1051 0
-999 -1052 0
-999 -1053 0
-999 -1054 0
-999 -1055 0
-999 -1056 0
-999 -1057 0
-999 -1058 0
-999 -1059 0
-999 -1060 0
-999 -1061 0
-999 -1062 0
-999 -1063 0
-999 -1064 0
-999 -1065 0
-999 -1066 0
-1000 -1001 0
-1000 -1002 0
-1000 -1003 0
-1000 -1004 0
-1000 -1005 0
-1000 -1006 0
-1000 -1007 0
-1000 -1008 0
-1000 -1009 0
-1000 -1010 0
-1000 -1011 0
-1000 -1012 0
-1000 -1013 0
-1000 -1014 0
-1000 -1015 0
-1000 -1016 0
-1000 -1017 0
-1000 -1018 0
-1000 -1019 0
-1000 -1020 0
-1000 -1021 0
-1000 -1022 0
-1000 -1023 0
-1000 -1024 0
-1000 -1025 0
-1000 -1026 0
-1000 -1027 0
-1000 -1028 0
-1000 -1029 0
-1000 -1030 0
-1000 -1031 0
-1000 -1032 0
-1000 -1033 0
-1000 -1034 0
-1000 -1035 0
-1000 -1036 0
-1000 -1037 0
-1000 -1038 0
-1000 -1039 0
-1000 -1040 0
-1000 -1041 0
-1000 -1042 0
-1000 -1043 0
-1000 -1044 0
-1000 -1045 0
-1000 -1046 0
-1000 -1047 0
-1000 -1048 0
-1000 -1049 0
-1000 -1050 0
-1000 -1051 0
-1000 -1052 0
-1000 -1053 0
-1000 -1054 0
-1000 -1055 0
-1000 -1056 0
-1000 -1057 0
-1000 -1058 0
-1000 -1059 0
-1000 -1060 0
-1000 -1061 0
-1000 -1062 0
-1000 -1063 0
-1000 -1064 0
-1000 -1065 0
-1000 -1066 0
-1001 -1002 0
-1001 -1003 0
-1001 -1004 0
-1001 -1005 0
-1001 -1006 0
-1001 -1007 0
-1001 -1008 0
-1001 -1009 0
-1001 -1010 0
-1001 -1011 0
-1001 -1012 0
-1001 -1013 0
-1001 -1014 0
-1001 -1015 0
-1001 -1016 0
-1001 -1017 0
-1001 -1018 0
-1001 -1019 0
-1001 -1020 0
-1001 -1021 0
-1001 -1022 0
-1001 -1023 0
-1001 -1024 0
-1001 -1025 0
-1001 -1026 0
-1001 -1027 0
-1001 -1028 0
-1001 -1029 0
-1001 -1030 0
-1001 -1031 0
-1001 -1032 0
-1001 -1033 0
-1001 -1034 0
-1001 -1035 0
-1001 -1036 0
-1001 -1037 0
-1001 -1038 0
-1001 -1039 0
-1001 -1040 0
-1001 -1041 0
-1001 -1042 0
-1001 -1043 0
-1001 -1044 0
-1001 -1045 0
-1001 -1046 0
-1001 -1047 0
-1001 -1048 0
-1001 -1049 0
-1001 -1050 0
-1001 -1051 0
-1001 -1052 0
-1001 -1053 0
-1001 -1054 0
-1001 -1055 0
-1001 -1056 0
-1001 -1057 0
-1001 -1058 0
-1001 -1059 0
-1001 -1060 0
-1001 -1061 0
-1001 -1062 0
-1001 -1063 0
-1001 -1064 0
-1001 -1065 0
-1001 -1066 0
-1002 -1003 0
-1002 -1004 0
-1002 -1005 0
-1002 -1006 0
-1002 -1007 0
-1002 -1008 0
-1002 -1009 0
-1002 -1010 0
-1002 -1011 0
-1002 -1012 0
-1002 -1013 0
-1002 -1014 0
-1002 -1015 0
-1002 -1016 0
-1002 -1017 0
-1002 -1018 0
-1002 -1019 0
-1002 -1020 0
-1002 -1021 0
-1002 -1022 0
-1002 -1023 0
-1002 -1024 0
-1002 -1025 0
-1002 -1026 0
-1002 -1027 0
-1002 -1028 0
-1002 -1029 0
-1002 -1030 0
-1002 -1031 0
-1002 -1032 0
-1002 -1033 0
-1002 -1034 0
-1002 -1035 0
-1002 -1036 0
-1002 -1037 0
-1002 -1038 0
-1002 -1039 0
-1002 -1040 0
-1002 -1041 0
-1002 -1042 0
-1002 -1043 0
-1002 -1044 0
-1002 -1045 0
-1002 -1046 0
-1002 -1047 0
-1002 -1048 0
-1002 -1049 0
-1002 -1050 0
-1002 -1051 0
-1002 -1052 0
-1002 -1053 0
-1002 -1054 0
-1002 -1055 0
-1002 -1056 0
-1002 -1057 0
-1002 -1058 0
-1002 -1059 0
-1002 -1060 0
-1002 -1061 0
-1002 -1062 0
-1002 -1063 0
-1002 -1064 0
-1002 -1065 0
-1002 -1066 0
-1003 -1004 0
-1003 -1005 0
-1003 -1006 0
-1003 -1007 0
-1003 -1008 0
-1003 -1009 0
-1003 -1010 0
-1003 -1011 0
-1003 -1012 0
-1003 -1013 0
-1003 -1014 0
-1003 -1015 0
-1003 -1016 0
-1003 -1017 0
-1003 -1018 0
-1003 -1019 0
-1003 -1020 0
-1003 -1021 0
-1003 -1022 0
-1003 -1023 0
-1003 -1024 0
-1003 -1025 0
-1003 -1026 0
-1003 -1027 0
-1003 -1028 0
-1003 -1029 0
-1003 -1030 0
-1003 -1031 0
-1003 -1032 0
-1003 -1033 0
-1003 -1034 0
-1003 -1035 0
-1003 -1036 0
-1003 -1037 0
-1003 -1038 0
-1003 -1039 0
-1003 -1040 0
-1003 -1041 0
-1003 -1042 0
-1003 -1043 0
-1003 -1044 0
-1003 -1045 0
-1003 -1046 0
-1003 -1047 0
-1003 -1048 0
-1003 -1049 0
-1003 -1050 0
-1003 -1051 0
-1003 -1052 0
-1003 -1053 0
-1003 -1054 0
-1003 -1055 0
-1003 -1056 0
-1003 -1057 0
-1003 -1058 0
-1003 -1059 0
-1003 -1060 0
-1003 -1061 0
-1003 -1062 0
-1003 -1063 0
-1003 -1064 0
-1003 -1065 0
-1003 -1066 0
-1004 -1005 0
-1004 -1006 0
-1004 -1007 0
-1004 -1008 0
-1004 -1009 0
-1004 -1010 0
-1004 -1011 0
-1004 -1012 0
-1004 -1013 0
-1004 -1014 0
-1004 -1015 0
-1004 -1016 0
-1004 -1017 0
-1004 -1018 0
-1004 -1019 0
-1004 -1020 0
-1004 -1021 0
-1004 -1022 0
-1004 -1023 0
-1004 -1024 0
-1004 -1025 0
-1004 -1026 0
-1004 -1027 0
-1004 -1028 0
-1004 -1029 0
-1004 -1030 0
-1004 -1031 0
-1004 -1032 0
-1004 -1033 0
-1004 -1034 0
-1004 -1035 0
-1004 -1036 0
-1004 -1037 0
-1004 -1038 0
-1004 -1039 0
-1004 -1040 0
-1004 -1041 0
-1004 -1042 0
-1004 -1043 0
-1004 -1044 0
-1004 -1045 0
-1004 -1046 0
-1004 -1047 0
-1004 -1048 0
-1004 -1049 0
-1004 -1050 0
-1004 -1051 0
-1004 -1052 0
-1004 -1053 0
-1004 -1054 0
-1004 -1055 0
-1004 -1056 0
-1004 -1057 0
-1004 -1058 0
-1004 -1059 0
-1004 -1060 0
-1004 -1061 0
-1004 -1062 0
-1004 -1063 0
-1004 -1064 0
-1004 -1065 0
-1004 -1066 0
-1005 -1006 0
-1005 -1007 0
-1005 -1008 0
-1005 -1009 0
-1005 -1010 0
-1005 -1011 0
-1005 -1012 0
-1005 -1013 0
-1005 -1014 0
-1005 -1015 0
-1005 -1016 0
-1005 -1017 0
-1005 -1018 0
-1005 -1019 0
-1005 -1020 0
-1005 -1021 0
-1005 -1022 0
-1005 -1023 0
-1005 -1024 0
-1005 -1025 0
-1005 -1026 0
-1005 -1027 0
-1005 -1028 0
-1005 -1029 0
-1005 -1030 0
-1005 -1031 0
-1005 -1032 0
-1005 -1033 0
-1005 -1034 0
-1005 -1035 0
-1005 -1036 0
-1005 -1037 0
-1005 -1038 0
-1005 -1039 0
-1005 -1040 0
-1005 -1041 0
-1005 -1042 0
-1005 -1043 0
-1005 -1044 0
-1005 -1045 0
-1005 -1046 0
-1005 -1047 0
-1005 -1048 0
-1005 -1049 0
-1005 -1050 0
-1005 -1051 0
-1005 -1052 0
-1005 -1053 0
-1005 -1054 0
-1005 -1055 0
-1005 -1056 0
-1005 -1057 0
-1005 -1058 0
-1005 -1059 0
-1005 -1060 0
-1005 -1061 0
-1005 -1062 0
-1005 -1063 0
-1005 -1064 0
-1005 -1065 0
-1005 -1066 0
-1006 -1007 0
-1006 -1008 0
-1006 -1009 0
-1006 -1010 0
-1006 -1011 0
-1006 -1012 0
-1006 -1013 0
-1006 -1014 0
-1006 -1015 0
-1006 -1016 0
-1006 -1017 0
-1006 -1018 0
-1006 -1019 0
-1006 -1020 0
-1006 -1021 0
-1006 -1022 0
-1006 -1023 0
-1006 -1024 0
-1006 -1025 0
-1006 -1026 0
-1006 -1027 0
-1006 -1028 0
-1006 -1029 0
-1006 -1030 0
-1006 -1031 0
-1006 -1032 0
-1006 -1033 0
-1006 -1034 0
-1006 -1035 0
-1006 -1036 0
-1006 -1037 0
-1006 -1038 0
-1006 -1039 0
-1006 -1040 0
-1006 -1041 0
-1006 -1042 0
-1006 -1043 0
-1006 -1044 0
-1006 -1045 0
-1006 -1046 0
-1006 -1047 0
-1006 -1048 0
-1006 -1049 0
-1006 -1050 0
-1006 -1051 0
-1006 -1052 0
-1006 -1053 0
-1006 -1054 0
-1006 -1055 0
-1006 -1056 0
-1006 -1057 0
-1006 -1058 0
-1006 -1059 0
-1006 -1060 0
-1006 -1061 0
-1006 -1062 0
-1006 -1063 0
-1006 -1064 0
-1006 -1065 0
-1006 -1066 0
-1007 -1008 0
-1007 -1009 0
-1007 -1010 0
-1007 -1011 0
-1007 -1012 0
-1007 -1013 0
-1007 -1014 0
-1007 -1015 0
-1007 -1016 0
-1007 -1017 0
-1007 -1018 0
-1007 -1019 0
-1007 -1020 0
-1007 -1021 0
-1007 -1022 0
-1007 -1023 0
-1007 -1024 0
-1007 -1025 0
-1007 -1026 0
-1007 -1027 0
-1007 -1028 0
-1007 -1029 0
-1007 -1030 0
-1007 -1031 0
-1007 -1032 0
-1007 -1033 0
-1007 -1034 0
-1007 -1035 0
-1007 -1036 0
-1007 -1037 0
-1007 -1038 0
-1007 -1039 0
-1007 -1040 0
-1007 -1041 0
-1007 -1042 0
-1007 -1043 0
-1007 -1044 0
-1007 -1045 0
-1007 -1046 0
-1007 -1047 0
-1007 -1048 0
-1007 -1049 0
-1007 -1050 0
-1007 -1051 0
-1007 -1052 0
-1007 -1053 0
-1007 -1054 0
-1007 -1055 0
-1007 -1056 0
-1007 -1057 0
-1007 -1058 0
-1007 -1059 0
-1007 -1060 0
-1007 -1061 0
-1007 -1062 0
-1007 -1063 0
-1007 -1064 0
-1007 -1065 0
-1007 -1066 0
-1008 -1009 0
-1008 -1010 0
-1008 -1011 0
-1008 -1012 0
-1008 -1013 0
-1008 -1014 0
-1008 -1015 0
-1008 -1016 0
-1008 -1017 0
-1008 -1018 0
-1008 -1019 0
-1008 -1020 0
-1008 -1021 0
-1008 -1022 0
-1008 -1023 0
-1008 -1024 0
-1008 -1025 0
-1008 -1026 0
-1008 -1027 0
-1008 -1028 0
-1008 -1029 0
-1008 -1030 0
-1008 -1031 0
-1008 -1032 0
-1008 -1033 0
-1008 -1034 0
-1008 -1035 0
-1008 -1036 0
-1008 -1037 0
-1008 -1038 0
-1008 -1039 0
-1008 -1040 0
-1008 -1041 0
-1008 -1042 0
-1008 -1043 0
-1008 -1044 0
-1008 -1045 0
-1008 -1046 0
-1008 -1047 0
-1008 -1048 0
-1008 -1049 0
-1008 -1050 0
-1008 -1051 0
-1008 -1052 0
-1008 -1053 0
-1008 -1054 0
-1008 -1055 0
-1008 -1056 0
-1008 -1057 0
-1008 -1058 0
-1008 -1059 0
-1008 -1060 0
-1008 -1061 0
-1008 -1062 0
-1008 -1063 0
-1008 -1064 0
-1008 -1065 0
-1008 -1066 0
-1009 -1010 0
-1009 -1011 0
-1009 -1012 0
-1009 -1013 0
-1009 -1014 0
-1009 -1015 0
-1009 -1016 0
-1009 -1017 0
-1009 -1018 0
-1009 -1019 0
-1009 -1020 0
-1009 -1021 0
-1009 -1022 0
-1009 -1023 0
-1009 -1024 0
-1009 -1025 0
-1009 -1026 0
-1009 -1027 0
-1009 -1028 0
-1009 -1029 0
-1009 -1030 0
-1009 -1031 0
-1009 -1032 0
-1009 -1033 0
-1009 -1034 0
-1009 -1035 0
-1009 -1036 0
-1009 -1037 0
-1009 -1038 0
-1009 -1039 0
-1009 -1040 0
-1009 -1041 0
-1009 -1042 0
-1009 -1043 0
-1009 -1044 0
-1009 -1045 0
-1009 -1046 0
-1009 -1047 0
-1009 -1048 0
-1009 -1049 0
-1009 -1050 0
-1009 -1051 0
-1009 -1052 0
-1009 -1053 0
-1009 -1054 0
-1009 -1055 0
-1009 -1056 0
-1009 -1057 0
-1009 -1058 0
-1009 -1059 0
-1009 -1060 0
-1009 -1061 0
-1009 -1062 0
-1009 -1063 0
-1009 -1064 0
-1009 -1065 0
-1009 -1066 0
-1010 -1011 0
-1010 -1012 0
-1010 -1013 0
-1010 -1014 0
-1010 -1015 0
-1010 -1016 0
-1010 -1017 0
-1010 -1018 0
-1010 -1019 0
-1010 -1020 0
-1010 -1021 0
-1010 -1022 0
-1010 -1023 0
-1010 -1024 0
-1010 -1025 0
-1010 -1026 0
-1010 -1027 0
-1010 -1028 0
-1010 -1029 0
-1010 -1030 0
-1010 -1031 0
-1010 -1032 0
-1010 -1033 0
-1010 -1034 0
-1010 -1035 0
-1010 -1036 0
-1010 -1037 0
-1010 -1038 0
-1010 -1039 0
-1010 -1040 0
-1010 -1041 0
-1010 -1042 0
-1010 -1043 0
-1010 -1044 0
-1010 -1045 0
-1010 -1046 0
-1010 -1047 0
-1010 -1048 0
-1010 -1049 0
-1010 -1050 0
-1010 -1051 0
-1010 -1052 0
-1010 -1053 0
-1010 -1054 0
-1010 -1055 0
-1010 -1056 0
-1010 -1057 0
-1010 -1058 0
-1010 -1059 0
-1010 -1060 0
-1010 -1061 0
-1010 -1062 0
-1010 -1063 0
-1010 -1064 0
-1010 -1065 0
-1010 -1066 0
-1011 -1012 0
-1011 -1013 0
-1011 -1014 0
-1011 -1015 0
-1011 -1016 0
-1011 -1017 0
-1011 -1018 0
-1011 -1019 0
-1011 -1020 0
-1011 -1021 0
-1011 -1022 0
-1011 -1023 0
-1011 -1024 0
-1011 -1025 0
-1011 -1026 0
-1011 -1027 0
-1011 -1028 0
-1011 -1029 0
-1011 -1030 0
-1011 -1031 0
-1011 -1032 0
-1011 -1033 0
-1011 -1034 0
-1011 -1035 0
-1011 -1036 0
-1011 -1037 0
-1011 -1038 0
-1011 -1039 0
-1011 -1040 0
-1011 -1041 0
-1011 -1042 0
-1011 -1043 0
-1011 -1044 0
-1011 -1045 0
-1011 -1046 0
-1011 -1047 0
-1011 -1048 0
-1011 -1049 0
-1011 -1050 0
-1011 -1051 0
-1011 -1052 0
-1011 -1053 0
-1011 -1054 0
-1011 -1055 0
-1011 -1056 0
-1011 -1057 0
-1011 -1058 0
-1011 -1059 0
-1011 -1060 0
-1011 -1061 0
-1011 -1062 0
-1011 -1063 0
-1011 -1064 0
-1011 -1065 0
-1011 -1066 0
-1012 -1013 0
-1012 -1014 0
-1012 -1015 0
-1012 -1016 0
-1012 -1017 0
-1012 -1018 0
-1012 -1019 0
-1012 -1020 0
-1012 -1021 0
-1012 -1022 0
-1012 -1023 0
-1012 -1024 0
-1012 -1025 0
-1012 -1026 0
-1012 -1027 0
-1012 -1028 0
-1012 -1029 0
-1012 -1030 0
-1012 -1031 0
-1012 -1032 0
-1012 -1033 0
-1012 -1034 0
-1012 -1035 0
-1012 -1036 0
-1012 -1037 0
-1012 -1038 0
-1012 -1039 0
-1012 -1040 0
-1012 -1041 0
-1012 -1042 0
-1012 -1043 0
-1012 -1044 0
-1012 -1045 0
-1012 -1046 0
-1012 -1047 0
-1012 -1048 0
-1012 -1049 0
-1012 -1050 0
-1012 -1051 0
-1012 -1052 0
-1012 -1053 0
-1012 -1054 0
-1012 -1055 0
-1012 -1056 0
-1012 -1057 0
-1012 -1058 0
-1012 -1059 0
-1012 -1060 0
-1012 -1061 0
-1012 -1062 0
-1012 -1063 0
-1012 -1064 0
-1012 -1065 0
-1012 -1066 0
-1013 -1014 0
-1013 -1015 0
-1013 -1016 0
-1013 -1017 0
-1013 -1018 0
-1013 -1019 0
-1013 -1020 0
-1013 -1021 0
-1013 -1022 0
-1013 -1023 0
-1013 -1024 0
-1013 -1025 0
-1013 -1026 0
-1013 -1027 0
-1013 -1028 0
-1013 -1029 0
-1013 -1030 0
-1013 -1031 0
-1013 -1032 0
-1013 -1033 0
-1013 -1034 0
-1013 -1035 0
-1013 -1036 0
-1013 -1037 0
-1013 -1038 0
-1013 -1039 0
-1013 -1040 0
-1013 -1041 0
-1013 -1042 0
-1013 -1043 0
-1013 -1044 0
-1013 -1045 0
-1013 -1046 0
-1013 -1047 0
-1013 -1048 0
-1013 -1049 0
-1013 -1050 0
-1013 -1051 0
-1013 -1052 0
-1013 -1053 0
-1013 -1054 0
-1013 -1055 0
-1013 -1056 0
-1013 -1057 0
-1013 -1058 0
-1013 -1059 0
-1013 -1060 0
-1013 -1061 0
-1013 -1062 0
-1013 -1063 0
-1013 -1064 0
-1013 -1065 0
-1013 -1066 0
-1014 -1015 0
-1014 -1016 0
-1014 -1017 0
-1014 -1018 0
-1014 -1019 0
-1014 -1020 0
-1014 -1021 0
-1014 -1022 0
-1014 -1023 0
-1014 -1024 0
-1014 -1025 0
-1014 -1026 0
-1014 -1027 0
-1014 -1028 0
-1014 -1029 0
-1014 -1030 0
-1014 -1031 0
-1014 -1032 0
-1014 -1033 0
-1014 -1034 0
-1014 -1035 0
-1014 -1036 0
-1014 -1037 0
-1014 -1038 0
-1014 -1039 0
-1014 -1040 0
-1014 -1041 0
-1014 -1042 0
-1014 -1043 0
-1014 -1044 0
-1014 -1045 0
-1014 -1046 0
-1014 -1047 0
-1014 -1048 0
-1014 -1049 0
-1014 -1050 0
-1014 -1051 0
-1014 -1052 0
-1014 -1053 0
-1014 -1054 0
-1014 -1055 0
-1014 -1056 0
-1014 -1057 0
-1014 -1058 0
-1014 -1059 0
-1014 -1060 0
-1014 -1061 0
-1014 -1062 0
-1014 -1063 0
-1014 -1064 0
-1014 -1065 0
-1014 -1066 0
-1015 -1016 0
-1015 -1017 0
-1015 -1018 0
-1015 -1019 0
-1015 -1020 0
-1015 -1021 0
-1015 -1022 0
-1015 -1023 0
-1015 -1024 0
-1015 -1025 0
-1015 -1026 0
-1015 -1027 0
-1015 -1028 0
-1015 -1029 0
-1015 -1030 0
-1015 -1031 0
-1015 -1032 0
-1015 -1033 0
-1015 -1034 0
-1015 -1035 0
-1015 -1036 0
-1015 -1037 0
-1015 -1038 0
-1015 -1039 0
-1015 -1040 0
-1015 -1041 0
-1015 -1042 0
-1015 -1043 0
-1015 -1044 0
-1015 -1045 0
-1015 -1046 0
-1015 -1047 0
-1015 -1048 0
-1015 -1049 0
-1015 -1050 0
-1015 -1051 0
-1015 -1052 0
-1015 -1053 0
-1015 -1054 0
-1015 -1055 0
-1015 -1056 0
-1015 -1057 0
-1015 -1058 0
-1015 -1059 0
-1015 -1060 0
-1015 -1061 0
-1015 -1062 0
-1015 -1063 0
-1015 -1064 0
-1015 -1065 0
-1015 -1066 0
-1016 -1017 0
-1016 -1018 0
-1016 -1019 0
-1016 -1020 0
-1016 -1021 0
-1016 -1022 0
-1016 -1023 0
-1016 -1024 0
-1016 -1025 0
-1016 -1026 0
-1016 -1027 0
-1016 -1028 0
-1016 -1029 0
-1016 -1030 0
-1016 -1031 0
-1016 -1032 0
-1016 -1033 0
-1016 -1034 0
-1016 -1035 0
-1016 -1036 0
-1016 -1037 0
-1016 -1038 0
-1016 -1039 0
-1016 -1040 0
-1016 -1041 0
-1016 -1042 0
-1016 -1043 0
-1016 -1044 0
-1016 -1045 0
-1016 -1046 0
-1016 -1047 0
-1016 -1048 0
-1016 -1049 0
-1016 -1050 0
-1016 -1051 0
-1016 -1052 0
-1016 -1053 0
-1016 -1054 0
-1016 -1055 0
-1016 -1056 0
-1016 -1057 0
-1016 -1058 0
-1016 -1059 0
-1016 -1060 0
-1016 -1061 0
-1016 -1062 0
-1016 -1063 0
-1016 -1064 0
-1016 -1065 0
-1016 -1066 0
-1017 -1018 0
-1017 -1019 0
-1017 -1020 0
-1017 -1021 0
-1017 -1022 0
-1017 -1023 0
-1017 -1024 0
-1017 -1025 0
-1017 -1026 0
-1017 -1027 0
-1017 -1028 0
-1017 -1029 0
-1017 -1030 0
-1017 -1031 0
-1017 -1032 0
-1017 -1033 0
-1017 -1034 0
-1017 -1035 0
-1017 -1036 0
-1017 -1037 0
-1017 -1038 0
-1017 -1039 0
-1017 -1040 0
-1017 -1041 0
-1017 -1042 0
-1017 -1043 0
-1017 -1044 0
-1017 -1045 0
-1017 -1046 0
-1017 -1047 0
-1017 -1048 0
-1017 -1049 0
-1017 -1050 0
-1017 -1051 0
-1017 -1052 0
-1017 -1053 0
-1017 -1054 0
-1017 -1055 0
-1017 -1056 0
-1017 -1057 0
-1017 -1058 0
-1017 -1059 0
-1017 -1060 0
-1017 -1061 0
-1017 -1062 0
-1017 -1063 0
-1017 -1064 0
-1017 -1065 0
-1017 -1066 0
-1018 -1019 0
-1018 -1020 0
-1018 -1021 0
-1018 -1022 0
-1018 -1023 0
-1018 -1024 0
-1018 -1025 0
-1018 -1026 0
-1018 -1027 0
-1018 -1028 0
-1018 -1029 0
-1018 -1030 0
-1018 -1031 0
-1018 -1032 0
-1018 -1033 0
-1018 -1034 0
-1018 -1035 0
-1018 -1036 0
-1018 -1037 0
-1018 -1038 0
-1018 -1039 0
-1018 -1040 0
-1018 -1041 0
-1018 -1042 0
-1018 -1043 0
-1018 -1044 0
-1018 -1045 0
-1018 -1046 0
-1018 -1047 0
-1018 -1048 0
-1018 -1049 0
-1018 -1050 0
-1018 -1051 0
-1018 -1052 0
-1018 -1053 0
-1018 -1054 0
-1018 -1055 0
-1018 -1056 0
-1018 -1057 0
-1018 -1058 0
-1018 -1059 0
-1018 -1060 0
-1018 -1061 0
-1018 -1062 0
-1018 -1063 0
-1018 -1064 0
-1018 -1065 0
-1018 -1066 0
-1019 -1020 0
-1019 -1021 0
-1019 -1022 0
-1019 -1023 0
-1019 -1024 0
-1019 -1025 0
-1019 -1026 0
-1019 -1027 0
-1019 -1028 0
-1019 -1029 0
-1019 -1030 0
-1019 -1031 0
-1019 -1032 0
-1019 -1033 0
-1019 -1034 0
-1019 -1035 0
-1019 -1036 0
-1019 -1037 0
-1019 -1038 0
-1019 -1039 0
-1019 -1040 0
-1019 -1041 0
-1019 -1042 0
-1019 -1043 0
-1019 -1044 0
-1019 -1045 0
-1019 -1046 0
-1019 -1047 0
-1019 -1048 0
-1019 -1049 0
-1019 -1050 0
-1019 -1051 0
-1019 -1052 0
-1019 -1053 0
-1019 -1054 0
-1019 -1055 0
-1019 -1056 0
-1019 -1057 0
-1019 -1058 0
-1019 -1059 0
-1019 -1060 0
-1019 -1061 0
-1019 -1062 0
-1019 -1063 0
-1019 -1064 0
-1019 -1065 0
-1019 -1066 0
-1020 -1021 0
-1020 -1022 0
-1020 -1023 0
-1020 -1024 0
-1020 -1025 0
-1020 -1026 0
-1020 -1027 0
-1020 -1028 0
-1020 -1029 0
-1020 -1030 0
-1020 -1031 0
-1020 -1032 0
-1020 -1033 0
-1020 -1034 0
-1020 -1035 0
-1020 -1036 0
-1020 -1037 0
-1020 -1038 0
-1020 -1039 0
-1020 -1040 0
-1020 -1041 0
-1020 -1042 0
-1020 -1043 0
-1020 -1044 0
-1020 -1045 0
-1020 -1046 0
-1020 -1047 0
-1020 -1048 0
-1020 -1049 0
-1020 -1050 0
-1020 -1051 0
-1020 -1052 0
-1020 -1053 0
-1020 -1054 0
-1020 -1055 0
-1020 -1056 0
-1020 -1057 0
-1020 -1058 0
-1020 -1059 0
-1020 -1060 0
-1020 -1061 0
-1020 -1062 0
-1020 -1063 0
-1020 -1064 0
-1020 -1065 0
-1020 -1066 0
-1021 -1022 0
-1021 -1023 0
-1021 -1024 0
-1021 -1025 0
-1021 -1026 0
-1021 -1027 0
-1021 -1028 0
-1021 -1029 0
-1021 -1030 0
-1021 -1031 0
-1021 -1032 0
-1021 -1033 0
-1021 -1034 0
-1021 -1035 0
-1021 -1036 0
-1021 -1037 0
-1021 -1038 0
-1021 -1039 0
-1021 -1040 0
-1021 -1041 0
-1021 -1042 0
-1021 -1043 0
-1021 -1044 0
-1021 -1045 0
-1021 -1046 0
-1021 -1047 0
-1021 -1048 0
-1021 -1049 0
-1021 -1050 0
-1021 -1051 0
-1021 -1052 0
-1021 -1053 0
-1021 -1054 0
-1021 -1055 0
-1021 -1056 0
-1021 -1057 0
-1021 -1058 0
-1021 -1059 0
-1021 -1060 0
-1021 -1061 0
-1021 -1062 0
-1021 -1063 0
-1021 -1064 0
-1021 -1065 0
-1021 -1066 0
-1022 -1023 0
-1022 -1024 0
-1022 -1025 0
-1022 -1026 0
-1022 -1027 0
-1022 -1028 0
-1022 -1029 0
-1022 -1030 0
-1022 -1031 0
-1022 -1032 0
-1022 -1033 0
-1022 -1034 0
-1022 -1035 0
-1022 -1036 0
-1022 -1037 0
-1022 -1038 0
-1022 -1039 0
-1022 -1040 0
-1022 -1041 0
-1022 -1042 0
-1022 -1043 0
-1022 -1044 0
-1022 -1045 0
-1022 -1046 0
-1022 -1047 0
-1022 -1048 0
-1022 -1049 0
-1022 -1050 0
-1022 -1051 0
-1022 -1052 0
-1022 -1053 0
-1022 -1054 0
-1022 -1055 0
-1022 -1056 0
-1022 -1057 0
-1022 -1058 0
-1022 -1059 0
-1022 -1060 0
-1022 -1061 0
-1022 -1062 0
-1022 -1063 0
-1022 -1064 0
-1022 -1065 0
-1022 -1066 0
-1023 -1024 0
-1023 -1025 0
-1023 -1026 0
-1023 -1027 0
-1023 -1028 0
-1023 -1029 0
-1023 -1030 0
-1023 -1031 0
-1023 -1032 0
-1023 -1033 0
-1023 -1034 0
-1023 -1035 0
-1023 -1036 0
-1023 -1037 0
-1023 -1038 0
-1023 -1039 0
-1023 -1040 0
-1023 -1041 0
-1023 -1042 0
-1023 -1043 0
-1023 -1044 0
-1023 -1045 0
-1023 -1046 0
-1023 -1047 0
-1023 -1048 0
-1023 -1049 0
-1023 -1050 0
-1023 -1051 0
-1023 -1052 0
-1023 -1053 0
-1023 -1054 0
-1023 -1055 0
-1023 -1056 0
-1023 -1057 0
-1023 -1058 0
-1023 -1059 0
-1023 -1060 0
-1023 -1061 0
-1023 -1062 0
-1023 -1063 0
-1023 -1064 0
-1023 -1065 0
-1023 -1066 0
-1024 -1025 0
-1024 -1026 0
-1024 -1027 0
-1024 -1028 0
-1024 -1029 0
-1024 -1030 0
-1024 -1031 0
-1024 -1032 0
-1024 -1033 0
-1024 -1034 0
-1024 -1035 0
-1024 -1036 0
-1024 -1037 0
-1024 -1038 0
-1024 -1039 0
-1024 -1040 0
-1024 -1041 0
-1024 -1042 0
-1024 -1043 0
-1024 -1044 0
-1024 -1045 0
-1024 -1046 0
-1024 -1047 0
-1024 -1048 0
-1024 -1049 0
-1024 -1050 0
-1024 -1051 0
-1024 -1052 0
-1024 -1053 0
-1024 -1054 0
-1024 -1055 0
-1024 -1056 0
-1024 -1057 0
-1024 -1058 0
-1024 -1059 0
-1024 -1060 0
-1024 -1061 0
-1024 -1062 0
-1024 -1063 0
-1024 -1064 0
-1024 -1065 0
-1024 -1066 0
-1025 -1026 0
-1025 -1027 0
-1025 -1028 0
-1025 -1029 0
-1025 -1030 0
-1025 -1031 0
-1025 -1032 0
-1025 -1033 0
-1025 -1034 0
-1025 -1035 0
-1025 -1036 0
-1025 -1037 0
-1025 -1038 0
-1025 -1039 0
-1025 -1040 0
-1025 -1041 0
-1025 -1042 0
-1025 -1043 0
-1025 -1044 0
-1025 -1045 0
-1025 -1046 0
-1025 -1047 0
-1025 -1048 0
-1025 -1049 0
-1025 -1050 0
-1025 -1051 0
-1025 -1052 0
-1025 -1053 0
-1025 -1054 0
-1025 -1055 0
-1025 -1056 0
-1025 -1057 0
-1025 -1058 0
-1025 -1059 0
-1025 -1060 0
-1025 -1061 0
-1025 -1062 0
-1025 -1063 0
-1025 -1064 0
-1025 -1065 0
-1025 -1066 0
-1026 -1027 0
-1026 -1028 0
-1026 -1029 0
-1026 -1030 0
-1026 -1031 0
-1026 -1032 0
-1026 -1033 0
-1026 -1034 0
-1026 -1035 0
-1026 -1036 0
-1026 -1037 0
-1026 -1038 0
-1026 -1039 0
-1026 -1040 0
-1026 -1041 0
-1026 -1042 0
-1026 -1043 0
-1026 -1044 0
-1026 -1045 0
-1026 -1046 0
-1026 -1047 0
-1026 -1048 0
-1026 -1049 0
-1026 -1050 0
-1026 -1051 0
-1026 -1052 0
-1026 -1053 0
-1026 -1054 0
-1026 -1055 0
-1026 -1056 0
-1026 -1057 0
-1026 -1058 0
-1026 -1059 0
-1026 -1060 0
-1026 -1061 0
-1026 -1062 0
-1026 -1063 0
-1026 -1064 0
-1026 -1065 0
-1026 -1066 0
-1027 -1028 0
-1027 -1029 0
-1027 -1030 0
-1027 -1031 0
-1027 -1032 0
-1027 -1033 0
-1027 -1034 0
-1027 -1035 0
-1027 -1036 0
-1027 -1037 0
-1027 -1038 0
-1027 -1039 0
-1027 -1040 0
-1027 -1041 0
-1027 -1042 0
-1027 -1043 0
-1027 -1044 0
-1027 -1045 0
-1027 -1046 0
-1027 -1047 0
-1027 -1048 0
-1027 -1049 0
-1027 -1050 0
-1027 -1051 0
-1027 -1052 0
-1027 -1053 0
-1027 -1054 0
-1027 -1055 0
-1027 -1056 0
-1027 -1057 0
-1027 -1058 0
-1027 -1059 0
-1027 -1060 0
-1027 -1061 0
-1027 -1062 0
-1027 -1063 0
-1027 -1064 0
-1027 -1065 0
-1027 -1066 0
-1028 -1029 0
-1028 -1030 0
-1028 -1031 0
-1028 -1032 0
-1028 -1033 0
-1028 -1034 0
-1028 -1035 0
-1028 -1036 0
-1028 -1037 0
-1028 -1038 0
-1028 -1039 0
-1028 -1040 0
-1028 -1041 0
-1028 -1042 0
-1028 -1043 0
-1028 -1044 0
-1028 -1045 0
-1028 -1046 0
-1028 -1047 0
-1028 -1048 0
-1028 -1049 0
-1028 -1050 0
-1028 -1051 0
-1028 -1052 0
-1028 -1053 0
-1028 -1054 0
-1028 -1055 0
-1028 -1056 0
-1028 -1057 0
-1028 -1058 0
-1028 -1059 0
-1028 -1060 0
-1028 -1061 0
-1028 -1062 0
-1028 -1063 0
-1028 -1064 0
-1028 -1065 0
-1028 -1066 0
-1029 -1030 0
-1029 -1031 0
-1029 -1032 0
-1029 -1033 0
-1029 -1034 0
-1029 -1035 0
-1029 -1036 0
-1029 -1037 0
-1029 -1038 0
-1029 -1039 0
-1029 -1040 0
-1029 -1041 0
-1029 -1042 0
-1029 -1043 0
-1029 -1044 0
-1029 -1045 0
-1029 -1046 0
-1029 -1047 0
-1029 -1048 0
-1029 -1049 0
-1029 -1050 0
-1029 -1051 0
-1029 -1052 0
-1029 -1053 0
-1029 -1054 0
-1029 -1055 0
-1029 -1056 0
-1029 -1057 0
-1029 -1058 0
-1029 -1059 0
-1029 -1060 0
-1029 -1061 0
-1029 -1062 0
-1029 -1063 0
-1029 -1064 0
-1029 -1065 0
-1029 -1066 0
-1030 -1031 0
-1030 -1032 0
-1030 -1033 0
-1030 -1034 0
-1030 -1035 0
-1030 -1036 0
-1030 -1037 0
-1030 -1038 0
-1030 -1039 0
-1030 -1040 0
-1030 -1041 0
-1030 -1042 0
-1030 -1043 0
-1030 -1044 0
-1030 -1045 0
-1030 -1046 0
-1030 -1047 0
-1030 -1048 0
-1030 -1049 0
-1030 -1050 0
-1030 -1051 0
-1030 -1052 0
-1030 -1053 0
-1030 -1054 0
-1030 -1055 0
-1030 -1056 0
-1030 -1057 0
-1030 -1058 0
-1030 -1059 0
-1030 -1060 0
-1030 -1061 0
-1030 -1062 0
-1030 -1063 0
-1030 -1064 0
-1030 -1065 0
-1030 -1066 0
-1031 -1032 0
-1031 -1033 0
-1031 -1034 0
-1031 -1035 0
-1031 -1036 0
-1031 -1037 0
-1031 -1038 0
-1031 -1039 0
-1031 -1040 0
-1031 -1041 0
-1031 -1042 0
-1031 -1043 0
-1031 -1044 0
-1031 -1045 0
-1031 -1046 0
-1031 -1047 0
-1031 -1048 0
-1031 -1049 0
-1031 -1050 0
-1031 -1051 0
-1031 -1052 0
-1031 -1053 0
-1031 -1054 0
-1031 -1055 0
-1031 -1056 0
-1031 -1057 0
-1031 -1058 0
-1031 -1059 0
-1031 -1060 0
-1031 -1061 0
-1031 -1062 0
-1031 -1063 0
-1031 -1064 0
-1031 -1065 0
-1031 -1066 0
-1032 -1033 0
-1032 -1034 0
-1032 -1035 0
-1032 -1036 0
-1032 -1037 0
-1032 -1038 0
-1032 -1039 0
-1032 -1040 0
-1032 -1041 0
-1032 -1042 0
-1032 -1043 0
-1032 -1044 0
-1032 -1045 0
-1032 -1046 0
-1032 -1047 0
-1032 -1048 0
-1032 -1049 0
-1032 -1050 0
-1032 -1051 0
-1032 -1052 0
-1032 -1053 0
-1032 -1054 0
-1032 -1055 0
-1032 -1056 0
-1032 -1057 0
-1032 -1058 0
-1032 -1059 0
-1032 -1060 0
-1032 -1061 0
-1032 -1062 0
-1032 -1063 0
-1032 -1064 0
-1032 -1065 0
-1032 -1066 0
-1033 -1034 0
-1033 -1035 0
-1033 -1036 0
-1033 -1037 0
-1033 -1038 0
-1033 -1039 0
-1033 -1040 0
-1033 -1041 0
-1033 -1042 0
-1033 -1043 0
-1033 -1044 0
-1033 -1045 0
-1033 -1046 0
-1033 -1047 0
-1033 -1048 0
-1033 -1049 0
-1033 -1050 0
-1033 -1051 0
-1033 -1052 0
-1033 -1053 0
-1033 -1054 0
-1033 -1055 0
-1033 -1056 0
-1033 -1057 0
-1033 -1058 0
-1033 -1059 0
-1033 -1060 0
-1033 -1061 0
-1033 -1062 0
-1033 -1063 0
-1033 -1064 0
-1033 -1065 0
-1033 -1066 0
-1034 -1035 0
-1034 -1036 0
-1034 -1037 0
-1034 -1038 0
-1034 -1039 0
-1034 -1040 0
-1034 -1041 0
-1034 -1042 0
-1034 -1043 0
-1034 -1044 0
-1034 -1045 0
-1034 -1046 0
-1034 -1047 0
-1034 -1048 0
-1034 -1049 0
-1034 -1050 0
-1034 -1051 0
-1034 -1052 0
-1034 -1053 0
-1034 -1054 0
-1034 -1055 0
-1034 -1056 0
-1034 -1057 0
-1034 -1058 0
-1034 -1059 0
-1034 -1060 0
-1034 -1061 0
-1034 -1062 0
-1034 -1063 0
-1034 -1064 0
-1034 -1065 0
-1034 -1066 0
-1035 -1036 0
-1035 -1037 0
-1035 -1038 0
-1035 -1039 0
-1035 -1040 0
-1035 -1041 0
-1035 -1042 0
-1035 -1043 0
-1035 -1044 0
-1035 -1045 0
-1035 -1046 0
-1035 -1047 0
-1035 -1048 0
-1035 -1049 0
-1035 -1050 0
-1035 -1051 0
-1035 -1052 0
-1035 -1053 0
-1035 -1054 0
-1035 -1055 0
-1035 -1056 0
-1035 -1057 0
-1035 -1058 0
-1035 -1059 0
-1035 -1060 0
-1035 -1061 0
-1035 -1062 0
-1035 -1063 0
-1035 -1064 0
-1035 -1065 0
-1035 -1066 0
-1036 -1037 0
-1036 -1038 0
-1036 -1039 0
-1036 -1040 0
-1036 -1041 0
-1036 -1042 0
-1036 -1043 0
-1036 -1044 0
-1036 -1045 0
-1036 -1046 0
-1036 -1047 0
-1036 -1048 0
-1036 -1049 0
-1036 -1050 0
-1036 -1051 0
-1036 -1052 0
-1036 -1053 0
-1036 -1054 0
-1036 -1055 0
-1036 -1056 0
-1036 -1057 0
-1036 -1058 0
-1036 -1059 0
-1036 -1060 0
-1036 -1061 0
-1036 -1062 0
-1036 -1063 0
-1036 -1064 0
-1036 -1065 0
-1036 -1066 0
-1037 -1038 0
-1037 -1039 0
-1037 -1040 0
-1037 -1041 0
-1037 -1042 0
-1037 -1043 0
-1037 -1044 0
-1037 -1045 0
-1037 -1046 0
-1037 -1047 0
-1037 -1048 0
-1037 -1049 0
-1037 -1050 0
-1037 -1051 0
-1037 -1052 0
-1037 -1053 0
-1037 -1054 0
-1037 -1055 0
-1037 -1056 0
-1037 -1057 0
-1037 -1058 0
-1037 -1059 0
-1037 -1060 0
-1037 -1061 0
-1037 -1062 0
-1037 -1063 0
-1037 -1064 0
-1037 -1065 0
-1037 -1066 0
-1038 -1039 0
-1038 -1040 0
-1038 -1041 0
-1038 -1042 0
-1038 -1043 0
-1038 -1044 0
-1038 -1045 0
-1038 -1046 0
-1038 -1047 0
-1038 -1048 0
-1038 -1049 0
-1038 -1050 0
-1038 -1051 0
-1038 -1052 0
-1038 -1053 0
-1038 -1054 0
-1038 -1055 0
-1038 -1056 0
-1038 -1057 0
-1038 -1058 0
-1038 -1059 0
-1038 -1060 0
-1038 -1061 0
-1038 -1062 0
-1038 -1063 0
-1038 -1064 0
-1038 -1065 0
-1038 -1066 0
-1039 -1040 0
-1039 -1041 0
-1039 -1042 0
-1039 -1043 0
-1039 -1044 0
-1039 -1045 0
-1039 -1046 0
-1039 -1047 0
-1039 -1048 0
-1039 -1049 0
-1039 -1050 0
-1039 -1051 0
-1039 -1052 0
-1039 -1053 0
-1039 -1054 0
-1039 -1055 0
-1039 -1056 0
-1039 -1057 0
-1039 -1058 0
-1039 -1059 0
-1039 -1060 0
-1039 -1061 0
-1039 -1062 0
-1039 -1063 0
-1039 -1064 0
-1039 -1065 0
-1039 -1066 0
-1040 -1041 0
-1040 -1042 0
-1040 -1043 0
-1040 -1044 0
-1040 -1045 0
-1040 -1046 0
-1040 -1047 0
-1040 -1048 0
-1040 -1049 0
-1040 -1050 0
-1040 -1051 0
-1040 -1052 0
-1040 -1053 0
-1040 -1054 0
-1040 -1055 0
-1040 -1056 0
-1040 -1057 0
-1040 -1058 0
-1040 -1059 0
-1040 -1060 0
-1040 -1061 0
-1040 -1062 0
-1040 -1063 0
-1040 -1064 0
-1040 -1065 0
-1040 -1066 0
-1041 -1042 0
-1041 -1043 0
-1041 -1044 0
-1041 -1045 0
-1041 -1046 0
-1041 -1047 0
-1041 -1048 0
-1041 -1049 0
-1041 -1050 0
-1041 -1051 0
-1041 -1052 0
-1041 -1053 0
-1041 -1054 0
-1041 -1055 0
-1041 -1056 0
-1041 -1057 0
-1041 -1058 0
-1041 -1059 0
-1041 -1060 0
-1041 -1061 0
-1041 -1062 0
-1041 -1063 0
-1041 -1064 0
-1041 -1065 0
-1041 -1066 0
-1042 -1043 0
-1042 -1044 0
-1042 -1045 0
-1042 -1046 0
-1042 -1047 0
-1042 -1048 0
-1042 -1049 0
-1042 -1050 0
-1042 -1051 0
-1042 -1052 0
-1042 -1053 0
-1042 -1054 0
-1042 -1055 0
-1042 -1056 0
-1042 -1057 0
-1042 -1058 0
-1042 -1059 0
-1042 -1060 0
-1042 -1061 0
-1042 -1062 0
-1042 -1063 0
-1042 -1064 0
-1042 -1065 0
-1042 -1066 0
-1043 -1044 0
-1043 -1045 0
-1043 -1046 0
-1043 -1047 0
-1043 -1048 0
-1043 -1049 0
-1043 -1050 0
-1043 -1051 0
-1043 -1052 0
-1043 -1053 0
-1043 -1054 0
-1043 -1055 0
-1043 -1056 0
-1043 -1057 0
-1043 -1058 0
-1043 -1059 0
-1043 -1060 0
-1043 -1061 0
-1043 -1062 0
-1043 -1063 0
-1043 -1064 0
-1043 -1065 0
-1043 -1066 0
-1044 -1045 0
-1044 -1046 0
-1044 -1047 0
-1044 -1048 0
-1044 -1049 0
-1044 -1050 0
-1044 -1051 0
-1044 -1052 0
-1044 -1053 0
-1044 -1054 0
-1044 -1055 0
-1044 -1056 0
-1044 -1057 0
-1044 -1058 0
-1044 -1059 0
-1044 -1060 0
-1044 -1061 0
-1044 -1062 0
-1044 -1063 0
-1044 -1064 0
-1044 -1065 0
-1044 -1066 0
-1045 -1046 0
-1045 -1047 0
-1045 -1048 0
-1045 -1049 0
-1045 -1050 0
-1045 -1051 0
-1045 -1052 0
-1045 -1053 0
-1045 -1054 0
-1045 -1055 0
-1045 -1056 0
-1045 -1057 0
-1045 -1058 0
-1045 -1059 0
-1045 -1060 0
-1045 -1061 0
-1045 -1062 0
-1045 -1063 0
-1045 -1064 0
-1045 -1065 0
-1045 -1066 0
-1046 -1047 0
-1046 -1048 0
-1046 -1049 0
-1046 -1050 0
-1046 -1051 0
-1046 -1052 0
-1046 -1053 0
-1046 -1054 0
-1046 -1055 0
-1046 -1056 0
-1046 -1057 0
-1046 -1058 0
-1046 -1059 0
-1046 -1060 0
-1046 -1061 0
-1046 -1062 0
-1046 -1063 0
-1046 -1064 0
-1046 -1065 0
-1046 -1066 0
-1047 -1048 0
-1047 -1049 0
-1047 -1050 0
-1047 -1051 0
-1047 -1052 0
-1047 -1053 0
-1047 -1054 0
-1047 -1055 0
-1047 -1056 0
-1047 -1057 0
-1047 -1058 0
-1047 -1059 0
-1047 -1060 0
-1047 -1061 0
-1047 -1062 0
-1047 -1063 0
-1047 -1064 0
-1047 -1065 0
-1047 -1066 0
-1048 -1049 0
-1048 -1050 0
-1048 -1051 0
-1048 -1052 0
-1048 -1053 0
-1048 -1054 0
-1048 -1055 0
-1048 -1056 0
-1048 -1057 0
-1048 -1058 0
-1048 -1059 0
-1048 -1060 0
-1048 -1061 0
-1048 -1062 0
-1048 -1063 0
-1048 -1064 0
-1048 -1065 0
-1048 -1066 0
-1049 -1050 0
-1049 -1051 0
-1049 -1052 0
-1049 -1053 0
-1049 -1054 0
-1049 -1055 0
-1049 -1056 0
-1049 -1057 0
-1049 -1058 0
-1049 -1059 0
-1049 -1060 0
-1049 -1061 0
-1049 -1062 0
-1049 -1063 0
-1049 -1064 0
-1049 -1065 0
-1049 -1066 0
-1050 -1051 0
-1050 -1052 0
-1050 -1053 0
-1050 -1054 0
-1050 -1055 0
-1050 -1056 0
-1050 -1057 0
-1050 -1058 0
-1050 -1059 0
-1050 -1060 0
-1050 -1061 0
-1050 -1062 0
-1050 -1063 0
-1050 -1064 0
-1050 -1065 0
-1050 -1066 0
-1051 -1052 0
-1051 -1053 0
-1051 -1054 0
-1051 -1055 0
-1051 -1056 0
-1051 -1057 0
-1051 -1058 0
-1051 -1059 0
-1051 -1060 0
-1051 -1061 0
-1051 -1062 0
-1051 -1063 0
-1051 -1064 0
-1051 -1065 0
-1051 -1066 0
-1052 -1053 0
-1052 -1054 0
-1052 -1055 0
-1052 -1056 0
-1052 -1057 0
-1052 -1058 0
-1052 -1059 0
-1052 -1060 0
-1052 -1061 0
-1052 -1062 0
-1052 -1063 0
-1052 -1064 0
-1052 -1065 0
-1052 -1066 0
-1053 -1054 0
-1053 -1055 0
-1053 -1056 0
-1053 -1057 0
-1053 -1058 0
-1053 -1059 0
-1053 -1060 0
-1053 -1061 0
-1053 -1062 0
-1053 -1063 0
-1053 -1064 0
-1053 -1065 0
-1053 -1066 0
-1054 -1055 0
-1054 -1056 0
-1054 -1057 0
-1054 -1058 0
-1054 -1059 0
-1054 -1060 0
-1054 -1061 0
-1054 -1062 0
-1054 -1063 0
-1054 -1064 0
-1054 -1065 0
-1054 -1066 0
-1055 -1056 0
-1055 -1057 0
-1055 -1058 0
-1055 -1059 0
-1055 -1060 0
-1055 -1061 0
-1055 -1062 0
-1055 -1063 0
-1055 -1064 0
-1055 -1065 0
-1055 -1066 0
-1056 -1057 0
-1056 -1058 0
-1056 -1059 0
-1056 -1060 0
-1056 -1061 0
-1056 -1062 0
-1056 -1063 0
-1056 -1064 0
-1056 -1065 0
-1056 -1066 0
-1057 -1058 0
-1057 -1059 0
-1057 -1060 0
-1057 -1061 0
-1057 -1062 0
-1057 -1063 0
-1057 -1064 0
-1057 -1065 0
-1057 -1066 0
-1058 -1059 0
-1058 -1060 0
-1058 -1061 0
-1058 -1062 0
-1058 -1063 0
-1058 -1064 0
-1058 -1065 0
-1058 -1066 0
-1059 -1060 0
-1059 -1061 0
-1059 -1062 0
-1059 -1063 0
-1059 -1064 0
-1059 -1065 0
-1059 -1066 0
-1060 -1061 0
-1060 -1062 0
-1060 -1063 0
-1060 -1064 0
-1060 -1065 0
-1060 -1066 0
-1061 -1062 0
-1061 -1063 0
-1061 -1064 0
-1061 -1065 0
-1061 -1066 0
-1062 -1063 0
-1062 -1064 0
-1062 -1065 0
-1062 -1066 0
-1063 -1064 0
-1063 -1065 0
-1063 -1066 0
-1064 -1065 0
-1064 -1066 0
-1065 -1066 0
-1067 983 984 985 986 987 988 989 990 991 992 993 994 995 996 997 998 999 1000 1001 1002 1003 1004 1005 1006 0
-983 1067 0
-984 1067 0
-985 1067 0
-986 1067 0
-987 1067 0
-988 1067 0
-989 1067 0
-990 1067 0
-991 1067 0
-992 1067 0
-993 1067 0
-994 1067 0
-995 1067 0
-996 1067 0
-997 1067 0
-998 1067 0
-999 1067 0
-1000 1067 0
-1001 1067 0
-1002 1067 0
-1003 1067 0
-1004 1067 0
-1005 1067 0
-1006 1067 0
1067 -150 299 0
1067 150 -299 0
1067 -151 300 0
1067 151 -300 0
1067 -152 301 0
1067 152 -301 0
1067 -153 302 0
1067 153 -302 0
1067 -154 303 0
1067 154 -303 0
1067 -155 304 0
1067 155 -304 0
1067 -156 305 0
1067 156 -305 0
1067 -157 306 0
1067 157 -306 0
1067 -158 307 0
1067 158 -307 0
1067 -159 308 0
1067 159 -308 0
-1068 1007 1008 1009 1010 1011 1012 1013 1014 1015 1016 1017 1018 1019 1020 1021 1022 1023 1024 1025 1026 1027 1028 1029 1030 0
-1007 1068 0
-1008 1068 0
-1009 1068 0
-1010 1068 0
-1011 1068 0
-1012 1068 0
-1013 1068 0
-1014 1068 0
-1015 1068 0
-1016 1068 0
-1017 1068 0
-1018 1068 0
-1019 1068 0
-1020 1068 0
-1021 1068 0
-1022 1068 0
-1023 1068 0
-1024 1068 0
-1025 1068 0
-1026 1068 0
-1027 1068 0
-1028 1068 0
-1029 1068 0
-1030 1068 0
1068 -160 309 0
1068 160 -309 0
1068 -161 310 0
1068 161 -310 0
1068 -162 311 0
1068 162 -311 0
1068 -163 312 0
1068 163 -312 0
1068 -164 313 0
1068 164 -313 0
1068 -165 314 0
1068 165 -314 0
1068 -166 315 0
1068 166 -315 0
1068 -167 316 0
1068 167 -316 0
1068 -168 317 0
1068 168 -317 0
1068 -169 318 0
1068 169 -318 0
-1069 1031 1032 1033 1034 1035 1036 1037 1038 1039 1040 1041 1042 1043 1044 1045 1046 1047 1048 1049 1050 0
-1031 1069 0
-1032 1069 0
-1033 1069 0
-1034 1069 0
-1035 1069 0
-1036 1069 0
-1037 1069 0
-1038 1069 0
-1039 1069 0
-1040 1069 0
-1041 1069 0
-1042 1069 0
-1043 1069 0
-1044 1069 0
-1045 1069 0
-1046 1069 0
-1047 1069 0
-1048 1069 0
-1049 1069 0
-1050 1069 0
1069 -170 319 0
1069 170 -319 0
1069 -171 320 0
1069 171 -320 0
1069 -172 321 0
1069 172 -321 0
1069 -173 322 0
1069 173 -322 0
1069 -174 323 0
1069 174 -323 0
1069 -175 324 0
1069 175 -324 0
1069 -176 325 0
1069 176 -325 0
1069 -177 326 0
1069 177 -326 0
1069 -178 327 0
1069 178 -327 0
-1070 1051 1052 1053 1054 1055 1056 1057 1058 1059 1060 1061 1062 1063 1064 1065 1066 0
-1051 1070 0
-1052 1070 0
-1053 1070 0
-1054 1070 0
-1055 1070 0
-1056 1070 0
-1057 1070 0
-1058 1070 0
-1059 1070 0
-1060 1070 0
-1061 1070 0
-1062 1070 0
-1063 1070 0
-1064 1070 0
-1065 1070 0
-1066 1070 0
1070 -179 328 0
1070 179 -328 0
1070 -180 329 0
1070 180 -329 0
1070 -181 330 0
1070 181 -330 0
1070 -182 331 0
1070 182 -331 0
1070 -183 332 0
1070 183 -332 0
1070 -184 333 0
1070 184 -333 0
1070 -185 334 0
1070 185 -334 0
1070 -186 335 0
1070 186 -335 0
-983 295 0
-983 299 0
-983 -161 0
-983 -162 0
-983 -163 0
-983 -164 0
-983 -165 0
-983 -169 0
-983 -166 306 0
-983 -166 -150 -157 0
-983 -166 -212 0
-983 -166 -213 0
-983 -166 -214 0
-983 -166 -236 0
-983 -166 -237 0
-983 -166 -238 0
-983 -166 -256 0
-983 -166 -257 0
-983 -166 -258 0
-983 -167 307 0
-983 -167 -150 -158 0
-983 -167 -213 0
-983 -167 -214 0
-983 -167 -237 0
-983 -167 -238 0
-983 -167 -257 0
-983 -167 -258 0
-983 -168 308 0
-983 -168 -150 -159 0
-983 -168 -214 0
-983 -168 -238 0
-983 -168 -258 0
-984 295 0
-984 300 0
-984 -160 0
-984 -162 0
-984 -163 0
-984 -164 0
-984 -165 0
-984 -169 0
-984 -166 306 0
-984 -166 -151 -157 0
-984 -166 -216 0
-984 -166 -217 0
-984 -166 -218 0
-984 -166 -236 0
-984 -166 -237 0
-984 -166 -238 0
-984 -166 -240 0
-984 -166 -241 0
-984 -166 -242 0
-984 -166 -256 0
-984 -166 -257 0
-984 -166 -258 0
-984 -166 -260 0
-984 -166 -261 0
-984 -166 -262 0
-984 -167 307 0
-984 -167 -151 -158 0
-984 -167 -217 0
-984 -167 -218 0
-984 -167 -237 0
-984 -167 -238 0
-984 -167 -241 0
-984 -167 -242 0
-984 -167 -257 0
-984 -167 -258 0
-984 -167 -261 0
-984 -167 -262 0
-984 -168 308 0
-984 -168 -151 -159 0
-984 -168 -218 0
-984 -168 -238 0
-984 -168 -242 0
-984 -168 -258 0
-984 -168 -262 0
-985 295 0
-985 301 0
-985 -160 0
-985 -161 0
-985 -163 0
-985 -164 0
-985 -165 0
-985 -169 0
-985 -166 306 0
-985 -166 -152 -157 0
-985 -166 -220 0
-985 -166 -221 0
-985 -166 -222 0
-985 -166 -240 0
-985 -166 -241 0
-985 -166 -242 0
-985 -166 -244 0
-985 -166 -245 0
-985 -166 -246 0
-985 -166 -256 0
-985 -166 -257 0
-985 -166 -258 0
-985 -166 -260 0
-985 -166 -261 0
-985 -166 -262 0
-985 -166 -264 0
-985 -166 -265 0
-985 -166 -266 0
-985 -167 307 0
-985 -167 -152 -158 0
-985 -167 -221 0
-985 -167 -222 0
-985 -167 -241 0
-985 -167 -242 0
-985 -167 -245 0
-985 -167 -246 0
-985 -167 -257 0
-985 -167 -258 0
-985 -167 -261 0
-985 -167 -262 0
-985 -167 -265 0
-985 -167 -266 0
-985 -168 308 0
-985 -168 -152 -159 0
-985 -168 -222 0
-985 -168 -242 0
-985 -168 -246 0
-985 -168 -258 0
-985 -168 -262 0
-985 -168 -266 0
-986 295 0
-986 302 0
-986 -160 0
-986 -161 0
-986 -162 0
-986 -164 0
-986 -165 0
-986 -169 0
-986 -166 306 0
-986 -166 -153 -157 0
-986 -166 -224 0
-986 -166 -225 0
-986 -166 -226 0
-986 -166 -244 0
-986 -166 -245 0
-986 -166 -246 0
-986 -166 -248 0
-986 -166 -249 0
-986 -166 -250 0
-986 -166 -260 0
-986 -166 -261 0
-986 -166 -262 0
-986 -166 -264 0
-986 -166 -265 0
-986 -166 -266 0
-986 -166 -268 0
-986 -166 -269 0
-986 -166 -270 0
-986 -167 307 0
-986 -167 -153 -158 0
-986 -167 -225 0
-986 -167 -226 0
-986 -167 -245 0
-986 -167 -246 0
-986 -167 -249 0
-986 -167 -250 0
-986 -167 -261 0
-986 -167 -262 0
-986 -167 -265 0
-986 -167 -266 0
-986 -167 -269 0
-986 -167 -270 0
-986 -168 308 0
-986 -168 -153 -159 0
-986 -168 -226 0
-986 -168 -246 0
-986 -168 -250 0
-986 -168 -262 0
-986 -168 -266 0
-986 -168 -270 0
-987 295 0
-987 303 0
-987 -160 0
-987 -161 0
-987 -162 0
-987 -163 0
-987 -165 0
-987 -169 0
-987 -166 306 0
-987 -166 -154 -157 0
-987 -166 -228 0
-987 -166 -229 0
-987 -166 -230 0
-987 -166 -248 0
-987 -166 -249 0
-987 -166 -250 0
-987 -166 -252 0
-987 -166 -253 0
-987 -166 -254 0
-987 -166 -264 0
-987 -166 -265 0
-987 -166 -266 0
-987 -166 -268 0
-987 -166 -269 0
-987 -166 -270 0
-987 -167 307 0
-987 -167 -154 -158 0
-987 -167 -229 0
-987 -167 -230 0
-987 -167 -249 0
-987 -167 -250 0
-987 -167 -253 0
-987 -167 -254 0
-987 -167 -265 0
-987 -167 -266 0
-987 -167 -269 0
-987 -167 -270 0
-987 -168 308 0
-987 -168 -154 -159 0
-987 -168 -230 0
-987 -168 -250 0
-987 -168 -254 0
-987 -168 -266 0
-987 -168 -270 0
-988 295 0
-988 304 0
-988 -160 0
-988 -161 0
-988 -162 0
-988 -163 0
-988 -164 0
-988 -169 0
-988 -166 306 0
-988 -166 -155 -157 0
-988 -166 -232 0
-988 -166 -233 0
-988 -166 -234 0
-988 -166 -252 0
-988 -166 -253 0
-988 -166 -254 0
-988 -166 -268 0
-988 -166 -269 0
-988 -166 -270 0
-988 -167 307 0
-988 -167 -155 -158 0
-988 -167 -233 0
-988 -167 -234 0
-988 -167 -253 0
-988 -167 -254 0
-988 -167 -269 0
-988 -167 -270 0
-988 -168 308 0
-988 -168 -155 -159 0
-988 -168 -234 0
-988 -168 -254 0
-988 -168 -270 0
-989 295 0
-989 299 0
-989 -171 0
-989 -172 0
-989 -173 0
-989 -174 0
-989 -178 0
-989 -175 306 0
-989 -175 -150 -157 0
-989 -175 -212 0
-989 -175 -213 0
-989 -175 -214 0
-989 -175 -236 0
-989 -175 -237 0
-989 -175 -238 0
-989 -175 -256 0
-989 -175 -257 0
-989 -175 -258 0
-989 -176 307 0
-989 -176 -150 -158 0
-989 -176 -213 0
-989 -176 -214 0
-989 -176 -237 0
-989 -176 -238 0
-989 -176 -257 0
-989 -176 -258 0
-989 -177 308 0
-989 -177 -150 -159 0
-989 -177 -214 0
-989 -177 -238 0
-989 -177 -258 0
-990 295 0
-990 300 0
-990 -172 0
-990 -173 0
-990 -174 0
-990 -178 0
-990 -175 306 0
-990 -175 -151 -157 0
-990 -175 -216 0
-990 -175 -217 0
-990 -175 -218 0
-990 -175 -236 0
-990 -175 -237 0
-990 -175 -238 0
-990 -175 -240 0
-990 -175 -241 0
-990 -175 -242 0
-990 -175 -256 0
-990 -175 -257 0
-990 -175 -258 0
-990 -175 -260 0
-990 -175 -261 0
-990 -175 -262 0
-990 -176 307 0
-990 -176 -151 -158 0
-990 -176 -217 0
-990 -176 -218 0
-990 -176 -237 0
-990 -176 -238 0
-990 -176 -241 0
-990 -176 -242 0
-990 -176 -257 0
-990 -176 -258 0
-990 -176 -261 0
-990 -176 -262 0
-990 -177 308 0
-990 -177 -151 -159 0
-990 -177 -218 0
-990 -177 -238 0
-990 -177 -242 0
-990 -177 -258 0
-990 -177 -262 0
-991 295 0
-991 301 0
-991 -170 0
-991 -173 0
-991 -174 0
-991 -178 0
-991 -175 306 0
-991 -175 -152 -157 0
-991 -175 -220 0
-991 -175 -221 0
-991 -175 -222 0
-991 -175 -240 0
-991 -175 -241 0
-991 -175 -242 0
-991 -175 -244 0
-991 -175 -245 0
-991 -175 -246 0
-991 -175 -256 0
-991 -175 -257 0
-991 -175 -258 0
-991 -175 -260 0
-991 -175 -261 0
-991 -175 -262 0
-991 -175 -264 0
-991 -175 -265 0
-991 -175 -266 0
-991 -176 307 0
-991 -176 -152 -158 0
-991 -176 -221 0
-991 -176 -222 0
-991 -176 -241 0
-991 -176 -242 0
-991 -176 -245 0
-991 -176 -246 0
-991 -176 -257 0
-991 -176 -258 0
-991 -176 -261 0
-991 -176 -262 0
-991 -176 -265 0
-991 -176 -266 0
-991 -177 308 0
-991 -177 -152 -159 0
-991 -177 -222 0
-991 -177 -242 0
-991 -177 -246 0
-991 -177 -258 0
-991 -177 -262 0
-991 -177 -266 0
-992 295 0
-992 302 0
-992 -170 0
-992 -171 0
-992 -174 0
-992 -178 0
-992 -175 306 0
-992 -175 -153 -157 0
-992 -175 -224 0
-992 -175 -225 0
-992 -175 -226 0
-992 -175 -244 0
-992 -175 -245 0
-992 -175 -246 0
-992 -175 -248 0
-992 -175 -249 0
-992 -175 -250 0
-992 -175 -260 0
-992 -175 -261 0
-992 -175 -262 0
-992 -175 -264 0
-992 -175 -265 0
-992 -175 -266 0
-992 -175 -268 0
-992 -175 -269 0
-992 -175 -270 0
-992 -176 307 0
-992 -176 -153 -158 0
-992 -176 -225 0
-992 -176 -226 0
-992 -176 -245 0
-992 -176 -246 0
-992 -176 -249 0
-992 -176 -250 0
-992 -176 -261 0
-992 -176 -262 0
-992 -176 -265 0
-992 -176 -266 0
-992 -176 -269 0
-992 -176 -270 0
-992 -177 308 0
-992 -177 -153 -159 0
-992 -177 -226 0
-992 -177 -246 0
-992 -177 -250 0
-992 -177 -262 0
-992 -177 -266 0
-992 -177 -270 0
-993 295 0
-993 303 0
-993 -170 0
-993 -171 0
-993 -172 0
-993 -178 0
-993 -175 306 0
-993 -175 -154 -157 0
-993 -175 -228 0
-993 -175 -229 0
-993 -175 -230 0
-993 -175 -248 0
-993 -175 -249 0
-993 -175 -250 0
-993 -175 -252 0
-993 -175 -253 0
-993 -175 -254 0
-993 -175 -264 0
-993 -175 -265 0
-993 -175 -266 0
-993 -175 -268 0
-993 -175 -269 0
-993 -175 -270 0
-993 -176 307 0
-993 -176 -154 -158 0
-993 -176 -229 0
-993 -176 -230 0
-993 -176 -249 0
-993 -176 -250 0
-993 -176 -253 0
-993 -176 -254 0
-993 -176 -265 0
-993 -176 -266 0
-993 -176 -269 0
-993 -176 -270 0
-993 -177 308 0
-993 -177 -154 -159 0
-993 -177 -230 0
-993 -177 -250 0
-993 -177 -254 0
-993 -177 -266 0
-993 -177 -270 0
-994 295 0
-994 304 0
-994 -170 0
-994 -171 0
-994 -172 0
-994 -173 0
-994 -178 0
-994 -175 306 0
-994 -175 -155 -157 0
-994 -175 -232 0
-994 -175 -233 0
-994 -175 -234 0
-994 -175 -252 0
-994 -175 -253 0
-994 -175 -254 0
-994 -175 -268 0
-994 -175 -269 0
-994 -175 -270 0
-994 -176 307 0
-994 -176 -155 -158 0
-994 -176 -233 0
-994 -176 -234 0
-994 -176 -253 0
-994 -176 -254 0
-994 -176 -269 0
-994 -176 -270 0
-994 -177 308 0
-994 -177 -155 -159 0
-994 -177 -234 0
-994 -177 -254 0
-994 -177 -270 0
-995 295 0
-995 299 0
-995 -180 0
-995 -181 0
-995 -182 0
-995 -186 0
-995 -183 306 0
-995 -183 -150 -157 0
-995 -183 -212 0
-995 -183 -213 0
-995 -183 -214 0
-995 -183 -236 0
-995 -183 -237 0
-995 -183 -238 0
-995 -183 -256 0
-995 -183 -257 0
-995 -183 -258 0
-995 -184 307 0
-995 -184 -150 -158 0
-995 -184 -213 0
-995 -184 -214 0
-995 -184 -237 0
-995 -184 -238 0
-995 -184 -257 0
-995 -184 -258 0
-995 -185 308 0
-995 -185 -150 -159 0
-995 -185 -214 0
-995 -185 -238 0
-995 -185 -258 0
-996 295 0
-996 300 0
-996 -181 0
-996 -182 0
-996 -186 0
-996 -183 306 0
-996 -183 -151 -157 0
-996 -183 -216 0
-996 -183 -217 0
-996 -183 -218 0
-996 -183 -236 0
-996 -183 -237 0
-996 -183 -238 0
-996 -183 -240 0
-996 -183 -241 0
-996 -183 -242 0
-996 -183 -256 0
-996 -183 -257 0
-996 -183 -258 0
-996 -183 -260 0
-996 -183 -261 0
-996 -183 -262 0
-996 -184 307 0
-996 -184 -151 -158 0
-996 -184 -217 0
-996 -184 -218 0
-996 -184 -237 0
-996 -184 -238 0
-996 -184 -241 0
-996 -184 -242 0
-996 -184 -257 0
-996 -184 -258 0
-996 -184 -261 0
-996 -184 -262 0
-996 -185 308 0
-996 -185 -151 -159 0
-996 -185 -218 0
-996 -185 -238 0
-996 -185 -242 0
-996 -185 -258 0
-996 -185 -262 0
-997 295 0
-997 301 0
-997 -182 0
-997 -186 0
-997 -183 306 0
-997 -183 -152 -157 0
-997 -183 -220 0
-997 -183 -221 0
-997 -183 -222 0
-997 -183 -240 0
-997 -183 -241 0
-997 -183 -242 0
-997 -183 -244 0
-997 -183 -245 0
-997 -183 -246 0
-997 -183 -256 0
-997 -183 -257 0
-997 -183 -258 0
-997 -183 -260 0
-997 -183 -261 0
-997 -183 -262 0
-997 -183 -264 0
-997 -183 -265 0
-997 -183 -266 0
-997 -184 307 0
-997 -184 -152 -158 0
-997 -184 -221 0
-997 -184 -222 0
-997 -184 -241 0
-997 -184 -242 0
-997 -184 -245 0
-997 -184 -246 0
-997 -184 -257 0
-997 -184 -258 0
-997 -184 -261 0
-997 -184 -262 0
-997 -184 -265 0
-997 -184 -266 0
-997 -185 308 0
-997 -185 -152 -159 0
-997 -185 -222 0
-997 -185 -242 0
-997 -185 -246 0
-997 -185 -258 0
-997 -185 -262 0
-997 -185 -266 0
-998 295 0
-998 302 0
-998 -179 0
-998 -186 0
-998 -183 306 0
-998 -183 -153 -157 0
-998 -183 -224 0
-998 -183 -225 0
-998 -183 -226 0
-998 -183 -244 0
-998 -183 -245 0
-998 -183 -246 0
-998 -183 -248 0
-998 -183 -249 0
-998 -183 -250 0
-998 -183 -260 0
-998 -183 -261 0
-998 -183 -262 0
-998 -183 -264 0
-998 -183 -265 0
-998 -183 -266 0
-998 -183 -268 0
-998 -183 -269 0
-998 -183 -270 0
-998 -184 307 0
-998 -184 -153 -158 0
-998 -184 -225 0
-998 -184 -226 0
-998 -184 -245 0
-998 -184 -246 0
-998 -184 -249 0
-998 -184 -250 0
-998 -184 -261 0
-998 -184 -262 0
-998 -184 -265 0
-998 -184 -266 0
-998 -184 -269 0
-998 -184 -270 0
-998 -185 308 0
-998 -185 -153 -159 0
-998 -185 -226 0
-998 -185 -246 0
-998 -185 -250 0
-998 -185 -262 0
-998 -185 -266 0
-998 -185 -270 0
-999 295 0
-999 303 0
-999 -179 0
-999 -180 0
-999 -186 0
-999 -183 306 0
-999 -183 -154 -157 0
-999 -183 -228 0
-999 -183 -229 0
-999 -183 -230 0
-999 -183 -248 0
-999 -183 -249 0
-999 -183 -250 0
-999 -183 -252 0
-999 -183 -253 0
-999 -183 -254 0
-999 -183 -264 0
-999 -183 -265 0
-999 -183 -266 0
-999 -183 -268 0
-999 -183 -269 0
-999 -183 -270 0
-999 -184 307 0
-999 -184 -154 -158 0
-999 -184 -229 0
-999 -184 -230 0
-999 -184 -249 0
-999 -184 -250 0
-999 -184 -253 0
-999 -184 -254 0
-999 -184 -265 0
-999 -184 -266 0
-999 -184 -269 0
-999 -184 -270 0
-999 -185 308 0
-999 -185 -154 -159 0
-999 -185 -230 0
-999 -185 -250 0
-999 -185 -254 0
-999 -185 -266 0
-999 -185 -270 0
-1000 295 0
-1000 304 0
-1000 -179 0
-1000 -180 0
-1000 -181 0
-1000 -186 0
-1000 -183 306 0
-1000 -183 -155 -157 0
-1000 -183 -232 0
-1000 -183 -233 0
-1000 -183 -234 0
-1000 -183 -252 0
-1000 -183 -253 0
-1000 -183 -254 0
-1000 -183 -268 0
-1000 -183 -269 0
-1000 -183 -270 0
-1000 -184 307 0
-1000 -184 -155 -158 0
-1000 -184 -233 0
-1000 -184 -234 0
-1000 -184 -253 0
-1000 -184 -254 0
-1000 -184 -269 0
-1000 -184 -270 0
-1000 -185 308 0
-1000 -185 -155 -159 0
-1000 -185 -234 0
-1000 -185 -254 0
-1000 -185 -270 0
-1001 295 0
-1001 299 0
-1001 305 0
-1001 -150 -156 0
-1001 -211 0
-1001 -212 0
-1001 -213 0
-1001 -214 0
-1001 -235 0
-1001 -236 0
-1001 -237 0
-1001 -238 0
-1001 -255 0
-1001 -256 0
-1001 -257 0
-1001 -258 0
-1002 295 0
-1002 300 0
-1002 305 0
-1002 -151 -156 0
-1002 -215 0
-1002 -216 0
-1002 -217 0
-1002 -218 0
-1002 -235 0
-1002 -236 0
-1002 -237 0
-1002 -238 0
-1002 -239 0
-1002 -240 0
-1002 -241 0
-1002 -242 0
-1002 -255 0
-1002 -256 0
-1002 -257 0
-1002 -258 0
-1002 -259 0
-1002 -260 0
-1002 -261 0
-1002 -262 0
-1003 295 0
-1003 301 0
-1003 305 0
-1003 -152 -156 0
-1003 -219 0
-1003 -220 0
-1003 -221 0
-1003 -222 0
-1003 -239 0
-1003 -240 0
-1003 -241 0
-1003 -242 0
-1003 -243 0
-1003 -244 0
-1003 -245 0
-1003 -246 0
-1003 -255 0
-1003 -256 0
-1003 -257 0
-1003 -258 0
-1003 -259 0
-1003 -260 0
-1003 -261 0
-1003 -262 0
-1003 -263 0
-1003 -264 0
-1003 -265 0
-1003 -266 0
-1004 295 0
-1004 302 0
-1004 305 0
-1004 -153 -156 0
-1004 -223 0
-1004 -224 0
-1004 -225 0
-1004 -226 0
-1004 -243 0
-1004 -244 0
-1004 -245 0
-1004 -246 0
-1004 -247 0
-1004 -248 0
-1004 -249 0
-1004 -250 0
-1004 -259 0
-1004 -260 0
-1004 -261 0
-1004 -262 0
-1004 -263 0
-1004 -264 0
-1004 -265 0
-1004 -266 0
-1004 -267 0
-1004 -268 0
-1004 -269 0
-1004 -270 0
-1005 295 0
-1005 303 0
-1005 305 0
-1005 -154 -156 0
-1005 -227 0
-1005 -228 0
-1005 -229 0
-1005 -230 0
-1005 -247 0
-1005 -248 0
-1005 -249 0
-1005 -250 0
-1005 -251 0
-1005 -252 0
-1005 -253 0
-1005 -254 0
-1005 -263 0
-1005 -264 0
-1005 -265 0
-1005 -266 0
-1005 -267 0
-1005 -268 0
-1005 -269 0
-1005 -270 0
-1006 295 0
-1006 304 0
-1006 305 0
-1006 -155 -156 0
-1006 -231 0
-1006 -232 0
-1006 -233 0
-1006 -234 0
-1006 -251 0
-1006 -252 0
-1006 -253 0
-1006 -254 0
-1006 -267 0
-1006 -268 0
-1006 -269 0
-1006 -270 0
-1007 296 0
-1007 309 0
-1007 -151 0
-1007 -152 0
-1007 -153 0
-1007 -154 0
-1007 -155 0
-1007 -159 0
-1007 -156 316 0
-1007 -156 -160 -167 0
-1007 -156 -188 0
-1007 -156 -189 0
-1007 -156 -190 0
-1007 -156 -236 0
-1007 -156 -237 0
-1007 -156 -238 0
-1007 -156 -256 0
-1007 -156 -257 0
-1007 -156 -258 0
-1007 -157 317 0
-1007 -157 -160 -168 0
-1007 -157 -189 0
-1007 -157 -190 0
-1007 -157 -237 0
-1007 -157 -238 0
-1007 -157 -257 0
-1007 -157 -258 0
-1007 -158 318 0
-1007 -158 -160 -169 0
-1007 -158 -190 0
-1007 -158 -238 0
-1007 -158 -258 0
-1008 296 0
-1008 310 0
-1008 -150 0
-1008 -152 0
-1008 -153 0
-1008 -154 0
-1008 -155 0
-1008 -159 0
-1008 -156 316 0
-1008 -156 -161 -167 0
-1008 -156 -192 0
-1008 -156 -193 0
-1008 -156 -194 0
-1008 -156 -236 0
-1008 -156 -237 0
-1008 -156 -238 0
-1008 -156 -240 0
-1008 -156 -241 0
-1008 -156 -242 0
-1008 -156 -256 0
-1008 -156 -257 0
-1008 -156 -258 0
-1008 -156 -260 0
-1008 -156 -261 0
-1008 -156 -262 0
-1008 -157 317 0
-1008 -157 -161 -168 0
-1008 -157 -193 0
-1008 -157 -194 0
-1008 -157 -237 0
-1008 -157 -238 0
-1008 -157 -241 0
-1008 -157 -242 0
-1008 -157 -257 0
-1008 -157 -258 0
-1008 -157 -261 0
-1008 -157 -262 0
-1008 -158 318 0
-1008 -158 -161 -169 0
-1008 -158 -194 0
-1008 -158 -238 0
-1008 -158 -242 0
-1008 -158 -258 0
-1008 -158 -262 0
-1009 296 0
-1009 311 0
-1009 -150 0
-1009 -151 0
-1009 -153 0
-1009 -154 0
-1009 -155 0
-1009 -159 0
-1009 -156 316 0
-1009 -156 -162 -167 0
-1009 -156 -196 0
-1009 -156 -197 0
-1009 -156 -198 0
-1009 -156 -240 0
-1009 -156 -241 0
-1009 -156 -242 0
-1009 -156 -244 0
-1009 -156 -245 0
-1009 -156 -246 0
-1009 -156 -256 0
-1009 -156 -257 0
-1009 -156 -258 0
-1009 -156 -260 0
-1009 -156 -261 0
-1009 -156 -262 0
-1009 -156 -264 0
-1009 -156 -265 0
-1009 -156 -266 0
-1009 -157 317 0
-1009 -157 -162 -168 0
-1009 -157 -197 0
-1009 -157 -198 0
-1009 -157 -241 0
-1009 -157 -242 0
-1009 -157 -245 0
-1009 -157 -246 0
-1009 -157 -257 0
-1009 -157 -258 0
-1009 -157 -261 0
-1009 -157 -262 0
-1009 -157 -265 0
-1009 -157 -266 0
-1009 -158 318 0
-1009 -158 -162 -169 0
-1009 -158 -198 0
-1009 -158 -242 0
-1009 -158 -246 0
-1009 -158 -258 0
-1009 -158 -262 0
-1009 -158 -266 0
-1010 296 0
-1010 312 0
-1010 -150 0
-1010 -151 0
-1010 -152 0
-1010 -154 0
-1010 -155 0
-1010 -159 0
-1010 -156 316 0
-1010 -156 -163 -167 0
-1010 -156 -200 0
-1010 -156 -201 0
-1010 -156 -202 0
-1010 -156 -244 0
-1010 -156 -245 0
-1010 -156 -246 0
-1010 -156 -248 0
-1010 -156 -249 0
-1010 -156 -250 0
-1010 -156 -260 0
-1010 -156 -261 0
-1010 -156 -262 0
-1010 -156 -264 0
-1010 -156 -265 0
-1010 -156 -266 0
-1010 -156 -268 0
-1010 -156 -269 0
-1010 -156 -270 0
-1010 -157 317 0
-1010 -157 -163 -168 0
-1010 -157 -201 0
-1010 -157 -202 0
-1010 -157 -245 0
-1010 -157 -246 0
-1010 -157 -249 0
-1010 -157 -250 0
-1010 -157 -261 0
-1010 -157 -262 0
-1010 -157 -265 0
-1010 -157 -266 0
-1010 -157 -269 0
-1010 -157 -270 0
-1010 -158 318 0
-1010 -158 -163 -169 0
-1010 -158 -202 0
-1010 -158 -246 0
-1010 -158 -250 0
-1010 -158 -262 0
-1010 -158 -266 0
-1010 -158 -270 0
-1011 296 0
-1011 313 0
-1011 -150 0
-1011 -151 0
-1011 -152 0
-1011 -153 0
-1011 -155 0
-1011 -159 0
-1011 -156 316 0
-1011 -156 -164 -167 0
-1011 -156 -204 0
-1011 -156 -205 0
-1011 -156 -206 0
-1011 -156 -248 0
-1011 -156 -249 0
-1011 -156 -250 0
-1011 -156 -252 0
-1011 -156 -253 0
-1011 -156 -254 0
-1011 -156 -264 0
-1011 -156 -265 0
-1011 -156 -266 0
-1011 -156 -268 0
-1011 -156 -269 0
-1011 -156 -270 0
-1011 -157 317 0
-1011 -157 -164 -168 0
-1011 -157 -205 0
-1011 -157 -206 0
-1011 -157 -249 0
-1011 -157 -250 0
-1011 -157 -253 0
-1011 -157 -254 0
-1011 -157 -265 0
-1011 -157 -266 0
-1011 -157 -269 0
-1011 -157 -270 0
-1011 -158 318 0
-1011 -158 -164 -169 0
-1011 -158 -206 0
-1011 -158 -250 0
-1011 -158 -254 0
-1011 -158 -266 0
-1011 -158 -270 0
-1012 296 0
-1012 314 0
-1012 -150 0
-1012 -151 0
-1012 -152 0
-1012 -153 0
-1012 -154 0
-1012 -159 0
-1012 -156 316 0
-1012 -156 -165 -167 0
-1012 -156 -208 0
-1012 -156 -209 0
-1012 -156 -210 0
-1012 -156 -252 0
-1012 -156 -253 0
-1012 -156 -254 0
-1012 -156 -268 0
-1012 -156 -269 0
-1012 -156 -270 0
-1012 -157 317 0
-1012 -157 -165 -168 0
-1012 -157 -209 0
-1012 -157 -210 0
-1012 -157 -253 0
-1012 -157 -254 0
-1012 -157 -269 0
-1012 -157 -270 0
-1012 -158 318 0
-1012 -158 -165 -169 0
-1012 -158 -210 0
-1012 -158 -254 0
-1012 -158 -270 0
-1013 296 0
-1013 309 0
-1013 -171 0
-1013 -172 0
-1013 -173 0
-1013 -174 0
-1013 -178 0
-1013 -175 316 0
-1013 -175 -160 -167 0
-1013 -175 -188 0
-1013 -175 -189 0
-1013 -175 -190 0
-1013 -175 -236 0
-1013 -175 -237 0
-1013 -175 -238 0
-1013 -175 -256 0
-1013 -175 -257 0
-1013 -175 -258 0
-1013 -176 317 0
-1013 -176 -160 -168 0
-1013 -176 -189 0
-1013 -176 -190 0
-1013 -176 -237 0
-1013 -176 -238 0
-1013 -176 -257 0
-1013 -176 -258 0
-1013 -177 318 0
-1013 -177 -160 -169 0
-1013 -177 -190 0
-1013 -177 -238 0
-1013 -177 -258 0
-1014 296 0
-1014 310 0
-1014 -172 0
-1014 -173 0
-1014 -174 0
-1014 -178 0
-1014 -175 316 0
-1014 -175 -161 -167 0
-1014 -175 -192 0
-1014 -175 -193 0
-1014 -175 -194 0
-1014 -175 -236 0
-1014 -175 -237 0
-1014 -175 -238 0
-1014 -175 -240 0
-1014 -175 -241 0
-1014 -175 -242 0
-1014 -175 -256 0
-1014 -175 -257 0
-1014 -175 -258 0
-1014 -175 -260 0
-1014 -175 -261 0
-1014 -175 -262 0
-1014 -176 317 0
-1014 -176 -161 -168 0
-1014 -176 -193 0
-1014 -176 -194 0
-1014 -176 -237 0
-1014 -176 -238 0
-1014 -176 -241 0
-1014 -176 -242 0
-1014 -176 -257 0
-1014 -176 -258 0
-1014 -176 -261 0
-1014 -176 -262 0
-1014 -177 318 0
-1014 -177 -161 -169 0
-1014 -177 -194 0
-1014 -177 -238 0
-1014 -177 -242 0
-1014 -177 -258 0
-1014 -177 -262 0
-1015 296 0
-1015 311 0
-1015 -170 0
-1015 -173 0
-1015 -174 0
-1015 -178 0
-1015 -175 316 0
-1015 -175 -162 -167 0
-1015 -175 -196 0
-1015 -175 -197 0
-1015 -175 -198 0
-1015 -175 -240 0
-1015 -175 -241 0
-1015 -175 -242 0
-1015 -175 -244 0
-1015 -175 -245 0
-1015 -175 -246 0
-1015 -175 -256 0
-1015 -175 -257 0
-1015 -175 -258 0
-1015 -175 -260 0
-1015 -175 -261 0
-1015 -175 -262 0
-1015 -175 -264 0
-1015 -175 -265 0
-1015 -175 -266 0
-1015 -176 317 0
-1015 -176 -162 -168 0
-1015 -176 -197 0
-1015 -176 -198 0
-1015 -176 -241 0
-1015 -176 -242 0
-1015 -176 -245 0
-1015 -176 -246 0
-1015 -176 -257 0
-1015 -176 -258 0
-1015 -176 -261 0
-1015 -176 -262 0
-1015 -176 -265 0
-1015 -176 -266 0
-1015 -177 318 0
-1015 -177 -162 -169 0
-1015 -177 -198 0
-1015 -177 -242 0
-1015 -177 -246 0
-1015 -177 -258 0
-1015 -177 -262 0
-1015 -177 -266 0
-1016 296 0
-1016 312 0
-1016 -170 0
-1016 -171 0
-1016 -174 0
-1016 -178 0
-1016 -175 316 0
-1016 -175 -163 -167 0
-1016 -175 -200 0
-1016 -175 -201 0
-1016 -175 -202 0
-1016 -175 -244 0
-1016 -175 -245 0
-1016 -175 -246 0
-1016 -175 -248 0
-1016 -175 -249 0
-1016 -175 -250 0
-1016 -175 -260 0
-1016 -175 -261 0
-1016 -175 -262 0
-1016 -175 -264 0
-1016 -175 -265 0
-1016 -175 -266 0
-1016 -175 -268 0
-1016 -175 -269 0
-1016 -175 -270 0
-1016 -176 317 0
-1016 -176 -163 -168 0
-1016 -176 -201 0
-1016 -176 -202 0
-1016 -176 -245 0
-1016 -176 -246 0
-1016 -176 -249 0
-1016 -176 -250 0
-1016 -176 -261 0
-1016 -176 -262 0
-1016 -176 -265 0
-1016 -176 -266 0
-1016 -176 -269 0
-1016 -176 -270 0
-1016 -177 318 0
-1016 -177 -163 -169 0
-1016 -177 -202 0
-1016 -177 -246 0
-1016 -177 -250 0
-1016 -177 -262 0
-1016 -177 -266 0
-1016 -177 -270 0
-1017 296 0
-1017 313 0
-1017 -170 0
-1017 -171 0
-1017 -172 0
-1017 -178 0
-1017 -175 316 0
-1017 -175 -164 -167 0
-1017 -175 -204 0
-1017 -175 -205 0
-1017 -175 -206 0
-1017 -175 -248 0
-1017 -175 -249 0
-1017 -175 -250 0
-1017 -175 -252 0
-1017 -175 -253 0
-1017 -175 -254 0
-1017 -175 -264 0
-1017 -175 -265 0
-1017 -175 -266 0
-1017 -175 -268 0
-1017 -175 -269 0
-1017 -175 -270 0
-1017 -176 317 0
-1017 -176 -164 -168 0
-1017 -176 -205 0
-1017 -176 -206 0
-1017 -176 -249 0
-1017 -176 -250 0
-1017 -176 -253 0
-1017 -176 -254 0
-1017 -176 -265 0
-1017 -176 -266 0
-1017 -176 -269 0
-1017 -176 -270 0
-1017 -177 318 0
-1017 -177 -164 -169 0
-1017 -177 -206 0
-1017 -177 -250 0
-1017 -177 -254 0
-1017 -177 -266 0
-1017 -177 -270 0
-1018 296 0
-1018 314 0
-1018 -170 0
-1018 -171 0
-1018 -172 0
-1018 -173 0
-1018 -178 0
-1018 -175 316 0
-1018 -175 -165 -167 0
-1018 -175 -208 0
-1018 -175 -209 0
-1018 -175 -210 0
-1018 -175 -252 0
-1018 -175 -253 0
-1018 -175 -254 0
-1018 -175 -268 0
-1018 -175 -269 0
-1018 -175 -270 0
-1018 -176 317 0
-1018 -176 -165 -168 0
-1018 -176 -209 0
-1018 -176 -210 0
-1018 -176 -253 0
-1018 -176 -254 0
-1018 -176 -269 0
-1018 -176 -270 0
-1018 -177 318 0
-1018 -177 -165 -169 0
-1018 -177 -210 0
-1018 -177 -254 0
-1018 -177 -270 0
-1019 296 0
-1019 309 0
-1019 -180 0
-1019 -181 0
-1019 -182 0
-1019 -186 0
-1019 -183 316 0
-1019 -183 -160 -167 0
-1019 -183 -188 0
-1019 -183 -189 0
-1019 -183 -190 0
-1019 -183 -236 0
-1019 -183 -237 0
-1019 -183 -238 0
-1019 -183 -256 0
-1019 -183 -257 0
-1019 -183 -258 0
-1019 -184 317 0
-1019 -184 -160 -168 0
-1019 -184 -189 0
-1019 -184 -190 0
-1019 -184 -237 0
-1019 -184 -238 0
-1019 -184 -257 0
-1019 -184 -258 0
-1019 -185 318 0
-1019 -185 -160 -169 0
-1019 -185 -190 0
-1019 -185 -238 0
-1019 -185 -258 0
-1020 296 0
-1020 310 0
-1020 -181 0
-1020 -182 0
-1020 -186 0
-1020 -183 316 0
-1020 -183 -161 -167 0
-1020 -183 -192 0
-1020 -183 -193 0
-1020 -183 -194 0
-1020 -183 -236 0
-1020 -183 -237 0
-1020 -183 -238 0
-1020 -183 -240 0
-1020 -183 -241 0
-1020 -183 -242 0
-1020 -183 -256 0
-1020 -183 -257 0
-1020 -183 -258 0
-1020 -183 -260 0
-1020 -183 -261 0
-1020 -183 -262 0
-1020 -184 317 0
-1020 -184 -161 -168 0
-1020 -184 -193 0
-1020 -184 -194 0
-1020 -184 -237 0
-1020 -184 -238 0
-1020 -184 -241 0
-1020 -184 -242 0
-1020 -184 -257 0
-1020 -184 -258 0
-1020 -184 -261 0
-1020 -184 -262 0
-1020 -185 318 0
-1020 -185 -161 -169 0
-1020 -185 -194 0
-1020 -185 -238 0
-1020 -185 -242 0
-1020 -185 -258 0
-1020 -185 -262 0
-1021 296 0
-1021 311 0
-1021 -182 0
-1021 -186 0
-1021 -183 316 0
-1021 -183 -162 -167 0
-1021 -183 -196 0
-1021 -183 -197 0
-1021 -183 -198 0
-1021 -183 -240 0
-1021 -183 -241 0
-1021 -183 -242 0
-1021 -183 -244 0
-1021 -183 -245 0
-1021 -183 -246 0
-1021 -183 -256 0
-1021 -183 -257 0
-1021 -183 -258 0
-1021 -183 -260 0
-1021 -183 -261 0
-1021 -183 -262 0
-1021 -183 -264 0
-1021 -183 -265 0
-1021 -183 -266 0
-1021 -184 317 0
-1021 -184 -162 -168 0
-1021 -184 -197 0
-1021 -184 -198 0
-1021 -184 -241 0
-1021 -184 -242 0
-1021 -184 -245 0
-1021 -184 -246 0
-1021 -184 -257 0
-1021 -184 -258 0
-1021 -184 -261 0
-1021 -184 -262 0
-1021 -184 -265 0
-1021 -184 -266 0
-1021 -185 318 0
-1021 -185 -162 -169 0
-1021 -185 -198 0
-1021 -185 -242 0
-1021 -185 -246 0
-1021 -185 -258 0
-1021 -185 -262 0
-1021 -185 -266 0
-1022 296 0
-1022 312 0
-1022 -179 0
-1022 -186 0
-1022 -183 316 0
-1022 -183 -163 -167 0
-1022 -183 -200 0
-1022 -183 -201 0
-1022 -183 -202 0
-1022 -183 -244 0
-1022 -183 -245 0
-1022 -183 -246 0
-1022 -183 -248 0
-1022 -183 -249 0
-1022 -183 -250 0
-1022 -183 -260 0
-1022 -183 -261 0
-1022 -183 -262 0
-1022 -183 -264 0
-1022 -183 -265 0
-1022 -183 -266 0
-1022 -183 -268 0
-1022 -183 -269 0
-1022 -183 -270 0
-1022 -184 317 0
-1022 -184 -163 -168 0
-1022 -184 -201 0
-1022 -184 -202 0
-1022 -184 -245 0
-1022 -184 -246 0
-1022 -184 -249 0
-1022 -184 -250 0
-1022 -184 -261 0
-1022 -184 -262 0
-1022 -184 -265 0
-1022 -184 -266 0
-1022 -184 -269 0
-1022 -184 -270 0
-1022 -185 318 0
-1022 -185 -163 -169 0
-1022 -185 -202 0
-1022 -185 -246 0
-1022 -185 -250 0
-1022 -185 -262 0
-1022 -185 -266 0
-1022 -185 -270 0
-1023 296 0
-1023 313 0
-1023 -179 0
-1023 -180 0
-1023 -186 0
-1023 -183 316 0
-1023 -183 -164 -167 0
-1023 -183 -204 0
-1023 -183 -205 0
-1023 -183 -206 0
-1023 -183 -248 0
-1023 -183 -249 0
-1023 -183 -250 0
-1023 -183 -252 0
-1023 -183 -253 0
-1023 -183 -254 0
-1023 -183 -264 0
-1023 -183 -265 0
-1023 -183 -266 0
-1023 -183 -268 0
-1023 -183 -269 0
-1023 -183 -270 0
-1023 -184 317 0
-1023 -184 -164 -168 0
-1023 -184 -205 0
-1023 -184 -206 0
-1023 -184 -249 0
-1023 -184 -250 0
-1023 -184 -253 0
-1023 -184 -254 0
-1023 -184 -265 0
-1023 -184 -266 0
-1023 -184 -269 0
-1023 -184 -270 0
-1023 -185 318 0
-1023 -185 -164 -169 0
-1023 -185 -206 0
-1023 -185 -250 0
-1023 -185 -254 0
-1023 -185 -266 0
-1023 -185 -270 0
-1024 296 0
-1024 314 0
-1024 -179 0
-1024 -180 0
-1024 -181 0
-1024 -186 0
-1024 -183 316 0
-1024 -183 -165 -167 0
-1024 -183 -208 0
-1024 -183 -209 0
-1024 -183 -210 0
-1024 -183 -252 0
-1024 -183 -253 0
-1024 -183 -254 0
-1024 -183 -268 0
-1024 -183 -269 0
-1024 -183 -270 0
-1024 -184 317 0
-1024 -184 -165 -168 0
-1024 -184 -209 0
-1024 -184 -210 0
-1024 -184 -253 0
-1024 -184 -254 0
-1024 -184 -269 0
-1024 -184 -270 0
-1024 -185 318 0
-1024 -185 -165 -169 0
-1024 -185 -210 0
-1024 -185 -254 0
-1024 -185 -270 0
-1025 296 0
-1025 309 0
-1025 315 0
-1025 -160 -166 0
-1025 -187 0
-1025 -188 0
-1025 -189 0
-1025 -190 0
-1025 -235 0
-1025 -236 0
-1025 -237 0
-1025 -238 0
-1025 -255 0
-1025 -256 0
-1025 -257 0
-1025 -258 0
-1026 296 0
-1026 310 0
-1026 315 0
-1026 -161 -166 0
-1026 -191 0
-1026 -192 0
-1026 -193 0
-1026 -194 0
-1026 -235 0
-1026 -236 0
-1026 -237 0
-1026 -238 0
-1026 -239 0
-1026 -240 0
-1026 -241 0
-1026 -242 0
-1026 -255 0
-1026 -256 0
-1026 -257 0
-1026 -258 0
-1026 -259 0
-1026 -260 0
-1026 -261 0
-1026 -262 0
-1027 296 0
-1027 311 0
-1027 315 0
-1027 -162 -166 0
-1027 -195 0
-1027 -196 0
-1027 -197 0
-1027 -198 0
-1027 -239 0
-1027 -240 0
-1027 -241 0
-1027 -242 0
-1027 -243 0
-1027 -244 0
-1027 -245 0
-1027 -246 0
-1027 -255 0
-1027 -256 0
-1027 -257 0
-1027 -258 0
-1027 -259 0
-1027 -260 0
-1027 -261 0
-1027 -262 0
-1027 -263 0
-1027 -264 0
-1027 -265 0
-1027 -266 0
-1028 296 0
-1028 312 0
-1028 315 0
-1028 -163 -166 0
-1028 -199 0
-1028 -200 0
-1028 -201 0
-1028 -202 0
-1028 -243 0
-1028 -244 0
-1028 -245 0
-1028 -246 0
-1028 -247 0
-1028 -248 0
-1028 -249 0
-1028 -250 0
-1028 -259 0
-1028 -260 0
-1028 -261 0
-1028 -262 0
-1028 -263 0
-1028 -264 0
-1028 -265 0
-1028 -266 0
-1028 -267 0
-1028 -268 0
-1028 -269 0
-1028 -270 0
-1029 296 0
-1029 313 0
-1029 315 0
-1029 -164 -166 0
-1029 -203 0
-1029 -204 0
-1029 -205 0
-1029 -206 0
-1029 -247 0
-1029 -248 0
-1029 -249 0
-1029 -250 0
-1029 -251 0
-1029 -252 0
-1029 -253 0
-1029 -254 0
-1029 -263 0
-1029 -264 0
-1029 -265 0
-1029 -266 0
-1029 -267 0
-1029 -268 0
-1029 -269 0
-1029 -270 0
-1030 296 0
-1030 314 0
-1030 315 0
-1030 -165 -166 0
-1030 -207 0
-1030 -208 0
-1030 -209 0
-1030 -210 0
-1030 -251 0
-1030 -252 0
-1030 -253 0
-1030 -254 0
-1030 -267 0
-1030 -268 0
-1030 -269 0
-1030 -270 0
-1031 297 0
-1031 319 0
-1031 -152 0
-1031 -153 0
-1031 -154 0
-1031 -155 0
-1031 -159 0
-1031 -156 325 0
-1031 -156 -170 -176 0
-1031 -156 -188 0
-1031 -156 -189 0
-1031 -156 -190 0
-1031 -156 -192 0
-1031 -156 -193 0
-1031 -156 -194 0
-1031 -156 -212 0
-1031 -156 -213 0
-1031 -156 -214 0
-1031 -156 -216 0
-1031 -156 -217 0
-1031 -156 -218 0
-1031 -156 -256 0
-1031 -156 -257 0
-1031 -156 -258 0
-1031 -156 -260 0
-1031 -156 -261 0
-1031 -156 -262 0
-1031 -157 326 0
-1031 -157 -170 -177 0
-1031 -157 -189 0
-1031 -157 -190 0
-1031 -157 -193 0
-1031 -157 -194 0
-1031 -157 -213 0
-1031 -157 -214 0
-1031 -157 -217 0
-1031 -157 -218 0
-1031 -157 -257 0
-1031 -157 -258 0
-1031 -157 -261 0
-1031 -157 -262 0
-1031 -158 327 0
-1031 -158 -170 -178 0
-1031 -158 -190 0
-1031 -158 -194 0
-1031 -158 -214 0
-1031 -158 -218 0
-1031 -158 -258 0
-1031 -158 -262 0
-1032 297 0
-1032 320 0
-1032 -150 0
-1032 -153 0
-1032 -154 0
-1032 -155 0
-1032 -159 0
-1032 -156 325 0
-1032 -156 -171 -176 0
-1032 -156 -192 0
-1032 -156 -193 0
-1032 -156 -194 0
-1032 -156 -196 0
-1032 -156 -197 0
-1032 -156 -198 0
-1032 -156 -216 0
-1032 -156 -217 0
-1032 -156 -218 0
-1032 -156 -220 0
-1032 -156 -221 0
-1032 -156 -222 0
-1032 -156 -256 0
-1032 -156 -257 0
-1032 -156 -258 0
-1032 -156 -260 0
-1032 -156 -261 0
-1032 -156 -262 0
-1032 -156 -264 0
-1032 -156 -265 0
-1032 -156 -266 0
-1032 -157 326 0
-1032 -157 -171 -177 0
-1032 -157 -193 0
-1032 -157 -194 0
-1032 -157 -197 0
-1032 -157 -198 0
-1032 -157 -217 0
-1032 -157 -218 0
-1032 -157 -221 0
-1032 -157 -222 0
-1032 -157 -257 0
-1032 -157 -258 0
-1032 -157 -261 0
-1032 -157 -262 0
-1032 -157 -265 0
-1032 -157 -266 0
-1032 -158 327 0
-1032 -158 -171 -178 0
-1032 -158 -194 0
-1032 -158 -198 0
-1032 -158 -218 0
-1032 -158 -222 0
-1032 -158 -258 0
-1032 -158 -262 0
-1032 -158 -266 0
-1033 297 0
-1033 321 0
-1033 -150 0
-1033 -151 0
-1033 -154 0
-1033 -155 0
-1033 -159 0
-1033 -156 325 0
-1033 -156 -172 -176 0
-1033 -156 -196 0
-1033 -156 -197 0
-1033 -156 -198 0
-1033 -156 -200 0
-1033 -156 -201 0
-1033 -156 -202 0
-1033 -156 -220 0
-1033 -156 -221 0
-1033 -156 -222 0
-1033 -156 -224 0
-1033 -156 -225 0
-1033 -156 -226 0
-1033 -156 -256 0
-1033 -156 -257 0
-1033 -156 -258 0
-1033 -156 -260 0
-1033 -156 -261 0
-1033 -156 -262 0
-1033 -156 -264 0
-1033 -156 -265 0
-1033 -156 -266 0
-1033 -156 -268 0
-1033 -156 -269 0
-1033 -156 -270 0
-1033 -157 326 0
-1033 -157 -172 -177 0
-1033 -157 -197 0
-1033 -157 -198 0
-1033 -157 -201 0
-1033 -157 -202 0
-1033 -157 -221 0
-1033 -157 -222 0
-1033 -157 -225 0
-1033 -157 -226 0
-1033 -157 -257 0
-1033 -157 -258 0
-1033 -157 -261 0
-1033 -157 -262 0
-1033 -157 -265 0
-1033 -157 -266 0
-1033 -157 -269 0
-1033 -157 -270 0
-1033 -158 327 0
-1033 -158 -172 -178 0
-1033 -158 -198 0
-1033 -158 -202 0
-1033 -158 -222 0
-1033 -158 -226 0
-1033 -158 -258 0
-1033 -158 -262 0
-1033 -158 -266 0
-1033 -158 -270 0
-1034 297 0
-1034 322 0
-1034 -150 0
-1034 -151 0
-1034 -152 0
-1034 -155 0
-1034 -159 0
-1034 -156 325 0
-1034 -156 -173 -176 0
-1034 -156 -200 0
-1034 -156 -201 0
-1034 -156 -202 0
-1034 -156 -204 0
-1034 -156 -205 0
-1034 -156 -206 0
-1034 -156 -224 0
-1034 -156 -225 0
-1034 -156 -226 0
-1034 -156 -228 0
-1034 -156 -229 0
-1034 -156 -230 0
-1034 -156 -260 0
-1034 -156 -261 0
-1034 -156 -262 0
-1034 -156 -264 0
-1034 -156 -265 0
-1034 -156 -266 0
-1034 -156 -268 0
-1034 -156 -269 0
-1034 -156 -270 0
-1034 -157 326 0
-1034 -157 -173 -177 0
-1034 -157 -201 0
-1034 -157 -202 0
-1034 -157 -205 0
-1034 -157 -206 0
-1034 -157 -225 0
-1034 -157 -226 0
-1034 -157 -229 0
-1034 -157 -230 0
-1034 -157 -261 0
-1034 -157 -262 0
-1034 -157 -265 0
-1034 -157 -266 0
-1034 -157 -269 0
-1034 -157 -270 0
-1034 -158 327 0
-1034 -158 -173 -178 0
-1034 -158 -202 0
-1034 -158 -206 0
-1034 -158 -226 0
-1034 -158 -230 0
-1034 -158 -262 0
-1034 -158 -266 0
-1034 -158 -270 0
-1035 297 0
-1035 323 0
-1035 -150 0
-1035 -151 0
-1035 -152 0
-1035 -153 0
-1035 -159 0
-1035 -156 325 0
-1035 -156 -174 -176 0
-1035 -156 -204 0
-1035 -156 -205 0
-1035 -156 -206 0
-1035 -156 -208 0
-1035 -156 -209 0
-1035 -156 -210 0
-1035 -156 -228 0
-1035 -156 -229 0
-1035 -156 -230 0
-1035 -156 -232 0
-1035 -156 -233 0
-1035 -156 -234 0
-1035 -156 -264 0
-1035 -156 -265 0
-1035 -156 -266 0
-1035 -156 -268 0
-1035 -156 -269 0
-1035 -156 -270 0
-1035 -157 326 0
-1035 -157 -174 -177 0
-1035 -157 -205 0
-1035 -157 -206 0
-1035 -157 -209 0
-1035 -157 -210 0
-1035 -157 -229 0
-1035 -157 -230 0
-1035 -157 -233 0
-1035 -157 -234 0
-1035 -157 -265 0
-1035 -157 -266 0
-1035 -157 -269 0
-1035 -157 -270 0
-1035 -158 327 0
-1035 -158 -174 -178 0
-1035 -158 -206 0
-1035 -158 -210 0
-1035 -158 -230 0
-1035 -158 -234 0
-1035 -158 -266 0
-1035 -158 -270 0
-1036 297 0
-1036 319 0
-1036 -162 0
-1036 -163 0
-1036 -164 0
-1036 -165 0
-1036 -169 0
-1036 -166 325 0
-1036 -166 -170 -176 0
-1036 -166 -188 0
-1036 -166 -189 0
-1036 -166 -190 0
-1036 -166 -192 0
-1036 -166 -193 0
-1036 -166 -194 0
-1036 -166 -212 0
-1036 -166 -213 0
-1036 -166 -214 0
-1036 -166 -216 0
-1036 -166 -217 0
-1036 -166 -218 0
-1036 -166 -256 0
-1036 -166 -257 0
-1036 -166 -258 0
-1036 -166 -260 0
-1036 -166 -261 0
-1036 -166 -262 0
-1036 -167 326 0
-1036 -167 -170 -177 0
-1036 -167 -189 0
-1036 -167 -190 0
-1036 -167 -193 0
-1036 -167 -194 0
-1036 -167 -213 0
-1036 -167 -214 0
-1036 -167 -217 0
-1036 -167 -218 0
-1036 -167 -257 0
-1036 -167 -258 0
-1036 -167 -261 0
-1036 -167 -262 0
-1036 -168 327 0
-1036 -168 -170 -178 0
-1036 -168 -190 0
-1036 -168 -194 0
-1036 -168 -214 0
-1036 -168 -218 0
-1036 -168 -258 0
-1036 -168 -262 0
-1037 297 0
-1037 320 0
-1037 -160 0
-1037 -163 0
-1037 -164 0
-1037 -165 0
-1037 -169 0
-1037 -166 325 0
-1037 -166 -171 -176 0
-1037 -166 -192 0
-1037 -166 -193 0
-1037 -166 -194 0
-1037 -166 -196 0
-1037 -166 -197 0
-1037 -166 -198 0
-1037 -166 -216 0
-1037 -166 -217 0
-1037 -166 -218 0
-1037 -166 -220 0
-1037 -166 -221 0
-1037 -166 -222 0
-1037 -166 -256 0
-1037 -166 -257 0
-1037 -166 -258 0
-1037 -166 -260 0
-1037 -166 -261 0
-1037 -166 -262 0
-1037 -166 -264 0
-1037 -166 -265 0
-1037 -166 -266 0
-1037 -167 326 0
-1037 -167 -171 -177 0
-1037 -167 -193 0
-1037 -167 -194 0
-1037 -167 -197 0
-1037 -167 -198 0
-1037 -167 -217 0
-1037 -167 -218 0
-1037 -167 -221 0
-1037 -167 -222 0
-1037 -167 -257 0
-1037 -167 -258 0
-1037 -167 -261 0
-1037 -167 -262 0
-1037 -167 -265 0
-1037 -167 -266 0
-1037 -168 327 0
-1037 -168 -171 -178 0
-1037 -168 -194 0
-1037 -168 -198 0
-1037 -168 -218 0
-1037 -168 -222 0
-1037 -168 -258 0
-1037 -168 -262 0
-1037 -168 -266 0
-1038 297 0
-1038 321 0
-1038 -160 0
-1038 -161 0
-1038 -164 0
-1038 -165 0
-1038 -169 0
-1038 -166 325 0
-1038 -166 -172 -176 0
-1038 -166 -196 0
-1038 -166 -197 0
-1038 -166 -198 0
-1038 -166 -200 0
-1038 -166 -201 0
-1038 -166 -202 0
-1038 -166 -220 0
-1038 -166 -221 0
-1038 -166 -222 0
-1038 -166 -224 0
-1038 -166 -225 0
-1038 -166 -226 0
-1038 -166 -256 0
-1038 -166 -257 0
-1038 -166 -258 0
-1038 -166 -260 0
-1038 -166 -261 0
-1038 -166 -262 0
-1038 -166 -264 0
-1038 -166 -265 0
-1038 -166 -266 0
-1038 -166 -268 0
-1038 -166 -269 0
-1038 -166 -270 0
-1038 -167 326 0
-1038 -167 -172 -177 0
-1038 -167 -197 0
-1038 -167 -198 0
-1038 -167 -201 0
-1038 -167 -202 0
-1038 -167 -221 0
-1038 -167 -222 0
-1038 -167 -225 0
-1038 -167 -226 0
-1038 -167 -257 0
-1038 -167 -258 0
-1038 -167 -261 0
-1038 -167 -262 0
-1038 -167 -265 0
-1038 -167 -266 0
-1038 -167 -269 0
-1038 -167 -270 0
-1038 -168 327 0
-1038 -168 -172 -178 0
-1038 -168 -198 0
-1038 -168 -202 0
-1038 -168 -222 0
-1038 -168 -226 0
-1038 -168 -258 0
-1038 -168 -262 0
-1038 -168 -266 0
-1038 -168 -270 0
-1039 297 0
-1039 322 0
-1039 -160 0
-1039 -161 0
-1039 -162 0
-1039 -165 0
-1039 -169 0
-1039 -166 325 0
-1039 -166 -173 -176 0
-1039 -166 -200 0
-1039 -166 -201 0
-1039 -166 -202 0
-1039 -166 -204 0
-1039 -166 -205 0
-1039 -166 -206 0
-1039 -166 -224 0
-1039 -166 -225 0
-1039 -166 -226 0
-1039 -166 -228 0
-1039 -166 -229 0
-1039 -166 -230 0
-1039 -166 -260 0
-1039 -166 -261 0
-1039 -166 -262 0
-1039 -166 -264 0
-1039 -166 -265 0
-1039 -166 -266 0
-1039 -166 -268 0
-1039 -166 -269 0
-1039 -166 -270 0
-1039 -167 326 0
-1039 -167 -173 -177 0
-1039 -167 -201 0
-1039 -167 -202 0
-1039 -167 -205 0
-1039 -167 -206 0
-1039 -167 -225 0
-1039 -167 -226 0
-1039 -167 -229 0
-1039 -167 -230 0
-1039 -167 -261 0
-1039 -167 -262 0
-1039 -167 -265 0
-1039 -167 -266 0
-1039 -167 -269 0
-1039 -167 -270 0
-1039 -168 327 0
-1039 -168 -173 -178 0
-1039 -168 -202 0
-1039 -168 -206 0
-1039 -168 -226 0
-1039 -168 -230 0
-1039 -168 -262 0
-1039 -168 -266 0
-1039 -168 -270 0
-1040 297 0
-1040 323 0
-1040 -160 0
-1040 -161 0
-1040 -162 0
-1040 -163 0
-1040 -169 0
-1040 -166 325 0
-1040 -166 -174 -176 0
-1040 -166 -204 0
-1040 -166 -205 0
-1040 -166 -206 0
-1040 -166 -208 0
-1040 -166 -209 0
-1040 -166 -210 0
-1040 -166 -228 0
-1040 -166 -229 0
-1040 -166 -230 0
-1040 -166 -232 0
-1040 -166 -233 0
-1040 -166 -234 0
-1040 -166 -264 0
-1040 -166 -265 0
-1040 -166 -266 0
-1040 -166 -268 0
-1040 -166 -269 0
-1040 -166 -270 0
-1040 -167 326 0
-1040 -167 -174 -177 0
-1040 -167 -205 0
-1040 -167 -206 0
-1040 -167 -209 0
-1040 -167 -210 0
-1040 -167 -229 0
-1040 -167 -230 0
-1040 -167 -233 0
-1040 -167 -234 0
-1040 -167 -265 0
-1040 -167 -266 0
-1040 -167 -269 0
-1040 -167 -270 0
-1040 -168 327 0
-1040 -168 -174 -178 0
-1040 -168 -206 0
-1040 -168 -210 0
-1040 -168 -230 0
-1040 -168 -234 0
-1040 -168 -266 0
-1040 -168 -270 0
-1041 297 0
-1041 319 0
-1041 -181 0
-1041 -182 0
-1041 -186 0
-1041 -183 325 0
-1041 -183 -170 -176 0
-1041 -183 -188 0
-1041 -183 -189 0
-1041 -183 -190 0
-1041 -183 -192 0
-1041 -183 -193 0
-1041 -183 -194 0
-1041 -183 -212 0
-1041 -183 -213 0
-1041 -183 -214 0
-1041 -183 -216 0
-1041 -183 -217 0
-1041 -183 -218 0
-1041 -183 -256 0
-1041 -183 -257 0
-1041 -183 -258 0
-1041 -183 -260 0
-1041 -183 -261 0
-1041 -183 -262 0
-1041 -184 326 0
-1041 -184 -170 -177 0
-1041 -184 -189 0
-1041 -184 -190 0
-1041 -184 -193 0
-1041 -184 -194 0
-1041 -184 -213 0
-1041 -184 -214 0
-1041 -184 -217 0
-1041 -184 -218 0
-1041 -184 -257 0
-1041 -184 -258 0
-1041 -184 -261 0
-1041 -184 -262 0
-1041 -185 327 0
-1041 -185 -170 -178 0
-1041 -185 -190 0
-1041 -185 -194 0
-1041 -185 -214 0
-1041 -185 -218 0
-1041 -185 -258 0
-1041 -185 -262 0
-1042 297 0
-1042 320 0
-1042 -182 0
-1042 -186 0
-1042 -183 325 0
-1042 -183 -171 -176 0
-1042 -183 -192 0
-1042 -183 -193 0
-1042 -183 -194 0
-1042 -183 -196 0
-1042 -183 -197 0
-1042 -183 -198 0
-1042 -183 -216 0
-1042 -183 -217 0
-1042 -183 -218 0
-1042 -183 -220 0
-1042 -183 -221 0
-1042 -183 -222 0
-1042 -183 -256 0
-1042 -183 -257 0
-1042 -183 -258 0
-1042 -183 -260 0
-1042 -183 -261 0
-1042 -183 -262 0
-1042 -183 -264 0
-1042 -183 -265 0
-1042 -183 -266 0
-1042 -184 326 0
-1042 -184 -171 -177 0
-1042 -184 -193 0
-1042 -184 -194 0
-1042 -184 -197 0
-1042 -184 -198 0
-1042 -184 -217 0
-1042 -184 -218 0
-1042 -184 -221 0
-1042 -184 -222 0
-1042 -184 -257 0
-1042 -184 -258 0
-1042 -184 -261 0
-1042 -184 -262 0
-1042 -184 -265 0
-1042 -184 -266 0
-1042 -185 327 0
-1042 -185 -171 -178 0
-1042 -185 -194 0
-1042 -185 -198 0
-1042 -185 -218 0
-1042 -185 -222 0
-1042 -185 -258 0
-1042 -185 -262 0
-1042 -185 -266 0
-1043 297 0
-1043 321 0
-1043 -186 0
-1043 -183 325 0
-1043 -183 -172 -176 0
-1043 -183 -196 0
-1043 -183 -197 0
-1043 -183 -198 0
-1043 -183 -200 0
-1043 -183 -201 0
-1043 -183 -202 0
-1043 -183 -220 0
-1043 -183 -221 0
-1043 -183 -222 0
-1043 -183 -224 0
-1043 -183 -225 0
-1043 -183 -226 0
-1043 -183 -256 0
-1043 -183 -257 0
-1043 -183 -258 0
-1043 -183 -260 0
-1043 -183 -261 0
-1043 -183 -262 0
-1043 -183 -264 0
-1043 -183 -265 0
-1043 -183 -266 0
-1043 -183 -268 0
-1043 -183 -269 0
-1043 -183 -270 0
-1043 -184 326 0
-1043 -184 -172 -177 0
-1043 -184 -197 0
-1043 -184 -198 0
-1043 -184 -201 0
-1043 -184 -202 0
-1043 -184 -221 0
-1043 -184 -222 0
-1043 -184 -225 0
-1043 -184 -226 0
-1043 -184 -257 0
-1043 -184 -258 0
-1043 -184 -261 0
-1043 -184 -262 0
-1043 -184 -265 0
-1043 -184 -266 0
-1043 -184 -269 0
-1043 -184 -270 0
-1043 -185 327 0
-1043 -185 -172 -178 0
-1043 -185 -198 0
-1043 -185 -202 0
-1043 -185 -222 0
-1043 -185 -226 0
-1043 -185 -258 0
-1043 -185 -262 0
-1043 -185 -266 0
-1043 -185 -270 0
-1044 297 0
-1044 322 0
-1044 -179 0
-1044 -186 0
-1044 -183 325 0
-1044 -183 -173 -176 0
-1044 -183 -200 0
-1044 -183 -201 0
-1044 -183 -202 0
-1044 -183 -204 0
-1044 -183 -205 0
-1044 -183 -206 0
-1044 -183 -224 0
-1044 -183 -225 0
-1044 -183 -226 0
-1044 -183 -228 0
-1044 -183 -229 0
-1044 -183 -230 0
-1044 -183 -260 0
-1044 -183 -261 0
-1044 -183 -262 0
-1044 -183 -264 0
-1044 -183 -265 0
-1044 -183 -266 0
-1044 -183 -268 0
-1044 -183 -269 0
-1044 -183 -270 0
-1044 -184 326 0
-1044 -184 -173 -177 0
-1044 -184 -201 0
-1044 -184 -202 0
-1044 -184 -205 0
-1044 -184 -206 0
-1044 -184 -225 0
-1044 -184 -226 0
-1044 -184 -229 0
-1044 -184 -230 0
-1044 -184 -261 0
-1044 -184 -262 0
-1044 -184 -265 0
-1044 -184 -266 0
-1044 -184 -269 0
-1044 -184 -270 0
-1044 -185 327 0
-1044 -185 -173 -178 0
-1044 -185 -202 0
-1044 -185 -206 0
-1044 -185 -226 0
-1044 -185 -230 0
-1044 -185 -262 0
-1044 -185 -266 0
-1044 -185 -270 0
-1045 297 0
-1045 323 0
-1045 -179 0
-1045 -180 0
-1045 -186 0
-1045 -183 325 0
-1045 -183 -174 -176 0
-1045 -183 -204 0
-1045 -183 -205 0
-1045 -183 -206 0
-1045 -183 -208 0
-1045 -183 -209 0
-1045 -183 -210 0
-1045 -183 -228 0
-1045 -183 -229 0
-1045 -183 -230 0
-1045 -183 -232 0
-1045 -183 -233 0
-1045 -183 -234 0
-1045 -183 -264 0
-1045 -183 -265 0
-1045 -183 -266 0
-1045 -183 -268 0
-1045 -183 -269 0
-1045 -183 -270 0
-1045 -184 326 0
-1045 -184 -174 -177 0
-1045 -184 -205 0
-1045 -184 -206 0
-1045 -184 -209 0
-1045 -184 -210 0
-1045 -184 -229 0
-1045 -184 -230 0
-1045 -184 -233 0
-1045 -184 -234 0
-1045 -184 -265 0
-1045 -184 -266 0
-1045 -184 -269 0
-1045 -184 -270 0
-1045 -185 327 0
-1045 -185 -174 -178 0
-1045 -185 -206 0
-1045 -185 -210 0
-1045 -185 -230 0
-1045 -185 -234 0
-1045 -185 -266 0
-1045 -185 -270 0
-1046 297 0
-1046 319 0
-1046 324 0
-1046 -170 -175 0
-1046 -187 0
-1046 -188 0
-1046 -189 0
-1046 -190 0
-1046 -191 0
-1046 -192 0
-1046 -193 0
-1046 -194 0
-1046 -211 0
-1046 -212 0
-1046 -213 0
-1046 -214 0
-1046 -215 0
-1046 -216 0
-1046 -217 0
-1046 -218 0
-1046 -255 0
-1046 -256 0
-1046 -257 0
-1046 -258 0
-1046 -259 0
-1046 -260 0
-1046 -261 0
-1046 -262 0
-1047 297 0
-1047 320 0
-1047 324 0
-1047 -171 -175 0
-1047 -191 0
-1047 -192 0
-1047 -193 0
-1047 -194 0
-1047 -195 0
-1047 -196 0
-1047 -197 0
-1047 -198 0
-1047 -215 0
-1047 -216 0
-1047 -217 0
-1047 -218 0
-1047 -219 0
-1047 -220 0
-1047 -221 0
-1047 -222 0
-1047 -255 0
-1047 -256 0
-1047 -257 0
-1047 -258 0
-1047 -259 0
-1047 -260 0
-1047 -261 0
-1047 -262 0
-1047 -263 0
-1047 -264 0
-1047 -265 0
-1047 -266 0
-1048 297 0
-1048 321 0
-1048 324 0
-1048 -172 -175 0
-1048 -195 0
-1048 -196 0
-1048 -197 0
-1048 -198 0
-1048 -199 0
-1048 -200 0
-1048 -201 0
-1048 -202 0
-1048 -219 0
-1048 -220 0
-1048 -221 0
-1048 -222 0
-1048 -223 0
-1048 -224 0
-1048 -225 0
-1048 -226 0
-1048 -255 0
-1048 -256 0
-1048 -257 0
-1048 -258 0
-1048 -259 0
-1048 -260 0
-1048 -261 0
-1048 -262 0
-1048 -263 0
-1048 -264 0
-1048 -265 0
-1048 -266 0
-1048 -267 0
-1048 -268 0
-1048 -269 0
-1048 -270 0
-1049 297 0
-1049 322 0
-1049 324 0
-1049 -173 -175 0
-1049 -199 0
-1049 -200 0
-1049 -201 0
-1049 -202 0
-1049 -203 0
-1049 -204 0
-1049 -205 0
-1049 -206 0
-1049 -223 0
-1049 -224 0
-1049 -225 0
-1049 -226 0
-1049 -227 0
-1049 -228 0
-1049 -229 0
-1049 -230 0
-1049 -259 0
-1049 -260 0
-1049 -261 0
-1049 -262 0
-1049 -263 0
-1049 -264 0
-1049 -265 0
-1049 -266 0
-1049 -267 0
-1049 -268 0
-1049 -269 0
-1049 -270 0
-1050 297 0
-1050 323 0
-1050 324 0
-1050 -174 -175 0
-1050 -203 0
-1050 -204 0
-1050 -205 0
-1050 -206 0
-1050 -207 0
-1050 -208 0
-1050 -209 0
-1050 -210 0
-1050 -227 0
-1050 -228 0
-1050 -229 0
-1050 -230 0
-1050 -231 0
-1050 -232 0
-1050 -233 0
-1050 -234 0
-1050 -263 0
-1050 -264 0
-1050 -265 0
-1050 -266 0
-1050 -267 0
-1050 -268 0
-1050 -269 0
-1050 -270 0
-1051 298 0
-1051 328 0
-1051 -153 0
-1051 -154 0
-1051 -155 0
-1051 -159 0
-1051 -156 333 0
-1051 -156 -179 -184 0
-1051 -156 -188 0
-1051 -156 -189 0
-1051 -156 -190 0
-1051 -156 -192 0
-1051 -156 -193 0
-1051 -156 -194 0
-1051 -156 -196 0
-1051 -156 -197 0
-1051 -156 -198 0
-1051 -156 -212 0
-1051 -156 -213 0
-1051 -156 -214 0
-1051 -156 -216 0
-1051 -156 -217 0
-1051 -156 -218 0
-1051 -156 -220 0
-1051 -156 -221 0
-1051 -156 -222 0
-1051 -156 -236 0
-1051 -156 -237 0
-1051 -156 -238 0
-1051 -156 -240 0
-1051 -156 -241 0
-1051 -156 -242 0
-1051 -156 -244 0
-1051 -156 -245 0
-1051 -156 -246 0
-1051 -157 334 0
-1051 -157 -179 -185 0
-1051 -157 -189 0
-1051 -157 -190 0
-1051 -157 -193 0
-1051 -157 -194 0
-1051 -157 -197 0
-1051 -157 -198 0
-1051 -157 -213 0
-1051 -157 -214 0
-1051 -157 -217 0
-1051 -157 -218 0
-1051 -157 -221 0
-1051 -157 -222 0
-1051 -157 -237 0
-1051 -157 -238 0
-1051 -157 -241 0
-1051 -157 -242 0
-1051 -157 -245 0
-1051 -157 -246 0
-1051 -158 335 0
-1051 -158 -179 -186 0
-1051 -158 -190 0
-1051 -158 -194 0
-1051 -158 -198 0
-1051 -158 -214 0
-1051 -158 -218 0
-1051 -158 -222 0
-1051 -158 -238 0
-1051 -158 -242 0
-1051 -158 -246 0
-1052 298 0
-1052 329 0
-1052 -150 0
-1052 -154 0
-1052 -155 0
-1052 -159 0
-1052 -156 333 0
-1052 -156 -180 -184 0
-1052 -156 -192 0
-1052 -156 -193 0
-1052 -156 -194 0
-1052 -156 -196 0
-1052 -156 -197 0
-1052 -156 -198 0
-1052 -156 -200 0
-1052 -156 -201 0
-1052 -156 -202 0
-1052 -156 -216 0
-1052 -156 -217 0
-1052 -156 -218 0
-1052 -156 -220 0
-1052 -156 -221 0
-1052 -156 -222 0
-1052 -156 -224 0
-1052 -156 -225 0
-1052 -156 -226 0
-1052 -156 -236 0
-1052 -156 -237 0
-1052 -156 -238 0
-1052 -156 -240 0
-1052 -156 -241 0
-1052 -156 -242 0
-1052 -156 -244 0
-1052 -156 -245 0
-1052 -156 -246 0
-1052 -156 -248 0
-1052 -156 -249 0
-1052 -156 -250 0
-1052 -157 334 0
-1052 -157 -180 -185 0
-1052 -157 -193 0
-1052 -157 -194 0
-1052 -157 -197 0
-1052 -157 -198 0
-1052 -157 -201 0
-1052 -157 -202 0
-1052 -157 -217 0
-1052 -157 -218 0
-1052 -157 -221 0
-1052 -157 -222 0
-1052 -157 -225 0
-1052 -157 -226 0
-1052 -157 -237 0
-1052 -157 -238 0
-1052 -157 -241 0
-1052 -157 -242 0
-1052 -157 -245 0
-1052 -157 -246 0
-1052 -157 -249 0
-1052 -157 -250 0
-1052 -158 335 0
-1052 -158 -180 -186 0
-1052 -158 -194 0
-1052 -158 -198 0
-1052 -158 -202 0
-1052 -158 -218 0
-1052 -158 -222 0
-1052 -158 -226 0
-1052 -158 -238 0
-1052 -158 -242 0
-1052 -158 -246 0
-1052 -158 -250 0
-1053 298 0
-1053 330 0
-1053 -150 0
-1053 -151 0
-1053 -155 0
-1053 -159 0
-1053 -156 333 0
-1053 -156 -181 -184 0
-1053 -156 -196 0
-1053 -156 -197 0
-1053 -156 -198 0
-1053 -156 -200 0
-1053 -156 -201 0
-1053 -156 -202 0
-1053 -156 -204 0
-1053 -156 -205 0
-1053 -156 -206 0
-1053 -156 -220 0
-1053 -156 -221 0
-1053 -156 -222 0
-1053 -156 -224 0
-1053 -156 -225 0
-1053 -156 -226 0
-1053 -156 -228 0
-1053 -156 -229 0
-1053 -156 -230 0
-1053 -156 -240 0
-1053 -156 -241 0
-1053 -156 -242 0
-1053 -156 -244 0
-1053 -156 -245 0
-1053 -156 -246 0
-1053 -156 -248 0
-1053 -156 -249 0
-1053 -156 -250 0
-1053 -156 -252 0
-1053 -156 -253 0
-1053 -156 -254 0
-1053 -157 334 0
-1053 -157 -181 -185 0
-1053 -157 -197 0
-1053 -157 -198 0
-1053 -157 -201 0
-1053 -157 -202 0
-1053 -157 -205 0
-1053 -157 -206 0
-1053 -157 -221 0
-1053 -157 -222 0
-1053 -157 -225 0
-1053 -157 -226 0
-1053 -157 -229 0
-1053 -157 -230 0
-1053 -157 -241 0
-1053 -157 -242 0
-1053 -157 -245 0
-1053 -157 -246 0
-1053 -157 -249 0
-1053 -157 -250 0
-1053 -157 -253 0
-1053 -157 -254 0
-1053 -158 335 0
-1053 -158 -181 -186 0
-1053 -158 -198 0
-1053 -158 -202 0
-1053 -158 -206 0
-1053 -158 -222 0
-1053 -158 -226 0
-1053 -158 -230 0
-1053 -158 -242 0
-1053 -158 -246 0
-1053 -158 -250 0
-1053 -158 -254 0
-1054 298 0
-1054 331 0
-1054 -150 0
-1054 -151 0
-1054 -152 0
-1054 -159 0
-1054 -156 333 0
-1054 -156 -182 -184 0
-1054 -156 -200 0
-1054 -156 -201 0
-1054 -156 -202 0
-1054 -156 -204 0
-1054 -156 -205 0
-1054 -156 -206 0
-1054 -156 -208 0
-1054 -156 -209 0
-1054 -156 -210 0
-1054 -156 -224 0
-1054 -156 -225 0
-1054 -156 -226 0
-1054 -156 -228 0
-1054 -156 -229 0
-1054 -156 -230 0
-1054 -156 -232 0
-1054 -156 -233 0
-1054 -156 -234 0
-1054 -156 -244 0
-1054 -156 -245 0
-1054 -156 -246 0
-1054 -156 -248 0
-1054 -156 -249 0
-1054 -156 -250 0
-1054 -156 -252 0
-1054 -156 -253 0
-1054 -156 -254 0
-1054 -157 334 0
-1054 -157 -182 -185 0
-1054 -157 -201 0
-1054 -157 -202 0
-1054 -157 -205 0
-1054 -157 -206 0
-1054 -157 -209 0
-1054 -157 -210 0
-1054 -157 -225 0
-1054 -157 -226 0
-1054 -157 -229 0
-1054 -157 -230 0
-1054 -157 -233 0
-1054 -157 -234 0
-1054 -157 -245 0
-1054 -157 -246 0
-1054 -157 -249 0
-1054 -157 -250 0
-1054 -157 -253 0
-1054 -157 -254 0
-1054 -158 335 0
-1054 -158 -182 -186 0
-1054 -158 -202 0
-1054 -158 -206 0
-1054 -158 -210 0
-1054 -158 -226 0
-1054 -158 -230 0
-1054 -158 -234 0
-1054 -158 -246 0
-1054 -158 -250 0
-1054 -158 -254 0
-1055 298 0
-1055 328 0
-1055 -163 0
-1055 -164 0
-1055 -165 0
-1055 -169 0
-1055 -166 333 0
-1055 -166 -179 -184 0
-1055 -166 -188 0
-1055 -166 -189 0
-1055 -166 -190 0
-1055 -166 -192 0
-1055 -166 -193 0
-1055 -166 -194 0
-1055 -166 -196 0
-1055 -166 -197 0
-1055 -166 -198 0
-1055 -166 -212 0
-1055 -166 -213 0
-1055 -166 -214 0
-1055 -166 -216 0
-1055 -166 -217 0
-1055 -166 -218 0
-1055 -166 -220 0
-1055 -166 -221 0
-1055 -166 -222 0
-1055 -166 -236 0
-1055 -166 -237 0
-1055 -166 -238 0
-1055 -166 -240 0
-1055 -166 -241 0
-1055 -166 -242 0
-1055 -166 -244 0
-1055 -166 -245 0
-1055 -166 -246 0
-1055 -167 334 0
-1055 -167 -179 -185 0
-1055 -167 -189 0
-1055 -167 -190 0
-1055 -167 -193 0
-1055 -167 -194 0
-1055 -167 -197 0
-1055 -167 -198 0
-1055 -167 -213 0
-1055 -167 -214 0
-1055 -167 -217 0
-1055 -167 -218 0
-1055 -167 -221 0
-1055 -167 -222 0
-1055 -167 -237 0
-1055 -167 -238 0
-1055 -167 -241 0
-1055 -167 -242 0
-1055 -167 -245 0
-1055 -167 -246 0
-1055 -168 335 0
-1055 -168 -179 -186 0
-1055 -168 -190 0
-1055 -168 -194 0
-1055 -168 -198 0
-1055 -168 -214 0
-1055 -168 -218 0
-1055 -168 -222 0
-1055 -168 -238 0
-1055 -168 -242 0
-1055 -168 -246 0
-1056 298 0
-1056 329 0
-1056 -160 0
-1056 -164 0
-1056 -165 0
-1056 -169 0
-1056 -166 333 0
-1056 -166 -180 -184 0
-1056 -166 -192 0
-1056 -166 -193 0
-1056 -166 -194 0
-1056 -166 -196 0
-1056 -166 -197 0
-1056 -166 -198 0
-1056 -166 -200 0
-1056 -166 -201 0
-1056 -166 -202 0
-1056 -166 -216 0
-1056 -166 -217 0
-1056 -166 -218 0
-1056 -166 -220 0
-1056 -166 -221 0
-1056 -166 -222 0
-1056 -166 -224 0
-1056 -166 -225 0
-1056 -166 -226 0
-1056 -166 -236 0
-1056 -166 -237 0
-1056 -166 -238 0
-1056 -166 -240 0
-1056 -166 -241 0
-1056 -166 -242 0
-1056 -166 -244 0
-1056 -166 -245 0
-1056 -166 -246 0
-1056 -166 -248 0
-1056 -166 -249 0
-1056 -166 -250 0
-1056 -167 334 0
-1056 -167 -180 -185 0
-1056 -167 -193 0
-1056 -167 -194 0
-1056 -167 -197 0
-1056 -167 -198 0
-1056 -167 -201 0
-1056 -167 -202 0
-1056 -167 -217 0
-1056 -167 -218 0
-1056 -167 -221 0
-1056 -167 -222 0
-1056 -167 -225 0
-1056 -167 -226 0
-1056 -167 -237 0
-1056 -167 -238 0
-1056 -167 -241 0
-1056 -167 -242 0
-1056 -167 -245 0
-1056 -167 -246 0
-1056 -167 -249 0
-1056 -167 -250 0
-1056 -168 335 0
-1056 -168 -180 -186 0
-1056 -168 -194 0
-1056 -168 -198 0
-1056 -168 -202 0
-1056 -168 -218 0
-1056 -168 -222 0
-1056 -168 -226 0
-1056 -168 -238 0
-1056 -168 -242 0
-1056 -168 -246 0
-1056 -168 -250 0
-1057 298 0
-1057 330 0
-1057 -160 0
-1057 -161 0
-1057 -165 0
-1057 -169 0
-1057 -166 333 0
-1057 -166 -181 -184 0
-1057 -166 -196 0
-1057 -166 -197 0
-1057 -166 -198 0
-1057 -166 -200 0
-1057 -166 -201 0
-1057 -166 -202 0
-1057 -166 -204 0
-1057 -166 -205 0
-1057 -166 -206 0
-1057 -166 -220 0
-1057 -166 -221 0
-1057 -166 -222 0
-1057 -166 -224 0
-1057 -166 -225 0
-1057 -166 -226 0
-1057 -166 -228 0
-1057 -166 -229 0
-1057 -166 -230 0
-1057 -166 -240 0
-1057 -166 -241 0
-1057 -166 -242 0
-1057 -166 -244 0
-1057 -166 -245 0
-1057 -166 -246 0
-1057 -166 -248 0
-1057 -166 -249 0
-1057 -166 -250 0
-1057 -166 -252 0
-1057 -166 -253 0
-1057 -166 -254 0
-1057 -167 334 0
-1057 -167 -181 -185 0
-1057 -167 -197 0
-1057 -167 -198 0
-1057 -167 -201 0
-1057 -167 -202 0
-1057 -167 -205 0
-1057 -167 -206 0
-1057 -167 -221 0
-1057 -167 -222 0
-1057 -167 -225 0
-1057 -167 -226 0
-1057 -167 -229 0
-1057 -167 -230 0
-1057 -167 -241 0
-1057 -167 -242 0
-1057 -167 -245 0
-1057 -167 -246 0
-1057 -167 -249 0
-1057 -167 -250 0
-1057 -167 -253 0
-1057 -167 -254 0
-1057 -168 335 0
-1057 -168 -181 -186 0
-1057 -168 -198 0
-1057 -168 -202 0
-1057 -168 -206 0
-1057 -168 -222 0
-1057 -168 -226 0
-1057 -168 -230 0
-1057 -168 -242 0
-1057 -168 -246 0
-1057 -168 -250 0
-1057 -168 -254 0
-1058 298 0
-1058 331 0
-1058 -160 0
-1058 -161 0
-1058 -162 0
-1058 -169 0
-1058 -166 333 0
-1058 -166 -182 -184 0
-1058 -166 -200 0
-1058 -166 -201 0
-1058 -166 -202 0
-1058 -166 -204 0
-1058 -166 -205 0
-1058 -166 -206 0
-1058 -166 -208 0
-1058 -166 -209 0
-1058 -166 -210 0
-1058 -166 -224 0
-1058 -166 -225 0
-1058 -166 -226 0
-1058 -166 -228 0
-1058 -166 -229 0
-1058 -166 -230 0
-1058 -166 -232 0
-1058 -166 -233 0
-1058 -166 -234 0
-1058 -166 -244 0
-1058 -166 -245 0
-1058 -166 -246 0
-1058 -166 -248 0
-1058 -166 -249 0
-1058 -166 -250 0
-1058 -166 -252 0
-1058 -166 -253 0
-1058 -166 -254 0
-1058 -167 334 0
-1058 -167 -182 -185 0
-1058 -167 -201 0
-1058 -167 -202 0
-1058 -167 -205 0
-1058 -167 -206 0
-1058 -167 -209 0
-1058 -167 -210 0
-1058 -167 -225 0
-1058 -167 -226 0
-1058 -167 -229 0
-1058 -167 -230 0
-1058 -167 -233 0
-1058 -167 -234 0
-1058 -167 -245 0
-1058 -167 -246 0
-1058 -167 -249 0
-1058 -167 -250 0
-1058 -167 -253 0
-1058 -167 -254 0
-1058 -168 335 0
-1058 -168 -182 -186 0
-1058 -168 -202 0
-1058 -168 -206 0
-1058 -168 -210 0
-1058 -168 -226 0
-1058 -168 -230 0
-1058 -168 -234 0
-1058 -168 -246 0
-1058 -168 -250 0
-1058 -168 -254 0
-1059 298 0
-1059 328 0
-1059 -173 0
-1059 -174 0
-1059 -178 0
-1059 -175 333 0
-1059 -175 -179 -184 0
-1059 -175 -188 0
-1059 -175 -189 0
-1059 -175 -190 0
-1059 -175 -192 0
-1059 -175 -193 0
-1059 -175 -194 0
-1059 -175 -196 0
-1059 -175 -197 0
-1059 -175 -198 0
-1059 -175 -212 0
-1059 -175 -213 0
-1059 -175 -214 0
-1059 -175 -216 0
-1059 -175 -217 0
-1059 -175 -218 0
-1059 -175 -220 0
-1059 -175 -221 0
-1059 -175 -222 0
-1059 -175 -236 0
-1059 -175 -237 0
-1059 -175 -238 0
-1059 -175 -240 0
-1059 -175 -241 0
-1059 -175 -242 0
-1059 -175 -244 0
-1059 -175 -245 0
-1059 -175 -246 0
-1059 -176 334 0
-1059 -176 -179 -185 0
-1059 -176 -189 0
-1059 -176 -190 0
-1059 -176 -193 0
-1059 -176 -194 0
-1059 -176 -197 0
-1059 -176 -198 0
-1059 -176 -213 0
-1059 -176 -214 0
-1059 -176 -217 0
-1059 -176 -218 0
-1059 -176 -221 0
-1059 -176 -222 0
-1059 -176 -237 0
-1059 -176 -238 0
-1059 -176 -241 0
-1059 -176 -242 0
-1059 -176 -245 0
-1059 -176 -246 0
-1059 -177 335 0
-1059 -177 -179 -186 0
-1059 -177 -190 0
-1059 -177 -194 0
-1059 -177 -198 0
-1059 -177 -214 0
-1059 -177 -218 0
-1059 -177 -222 0
-1059 -177 -238 0
-1059 -177 -242 0
-1059 -177 -246 0
-1060 298 0
-1060 329 0
-1060 -174 0
-1060 -178 0
-1060 -175 333 0
-1060 -175 -180 -184 0
-1060 -175 -192 0
-1060 -175 -193 0
-1060 -175 -194 0
-1060 -175 -196 0
-1060 -175 -197 0
-1060 -175 -198 0
-1060 -175 -200 0
-1060 -175 -201 0
-1060 -175 -202 0
-1060 -175 -216 0
-1060 -175 -217 0
-1060 -175 -218 0
-1060 -175 -220 0
-1060 -175 -221 0
-1060 -175 -222 0
-1060 -175 -224 0
-1060 -175 -225 0
-1060 -175 -226 0
-1060 -175 -236 0
-1060 -175 -237 0
-1060 -175 -238 0
-1060 -175 -240 0
-1060 -175 -241 0
-1060 -175 -242 0
-1060 -175 -244 0
-1060 -175 -245 0
-1060 -175 -246 0
-1060 -175 -248 0
-1060 -175 -249 0
-1060 -175 -250 0
-1060 -176 334 0
-1060 -176 -180 -185 0
-1060 -176 -193 0
-1060 -176 -194 0
-1060 -176 -197 0
-1060 -176 -198 0
-1060 -176 -201 0
-1060 -176 -202 0
-1060 -176 -217 0
-1060 -176 -218 0
-1060 -176 -221 0
-1060 -176 -222 0
-1060 -176 -225 0
-1060 -176 -226 0
-1060 -176 -237 0
-1060 -176 -238 0
-1060 -176 -241 0
-1060 -176 -242 0
-1060 -176 -245 0
-1060 -176 -246 0
-1060 -176 -249 0
-1060 -176 -250 0
-1060 -177 335 0
-1060 -177 -180 -186 0
-1060 -177 -194 0
-1060 -177 -198 0
-1060 -177 -202 0
-1060 -177 -218 0
-1060 -177 -222 0
-1060 -177 -226 0
-1060 -177 -238 0
-1060 -177 -242 0
-1060 -177 -246 0
-1060 -177 -250 0
-1061 298 0
-1061 330 0
-1061 -170 0
-1061 -178 0
-1061 -175 333 0
-1061 -175 -181 -184 0
-1061 -175 -196 0
-1061 -175 -197 0
-1061 -175 -198 0
-1061 -175 -200 0
-1061 -175 -201 0
-1061 -175 -202 0
-1061 -175 -204 0
-1061 -175 -205 0
-1061 -175 -206 0
-1061 -175 -220 0
-1061 -175 -221 0
-1061 -175 -222 0
-1061 -175 -224 0
-1061 -175 -225 0
-1061 -175 -226 0
-1061 -175 -228 0
-1061 -175 -229 0
-1061 -175 -230 0
-1061 -175 -240 0
-1061 -175 -241 0
-1061 -175 -242 0
-1061 -175 -244 0
-1061 -175 -245 0
-1061 -175 -246 0
-1061 -175 -248 0
-1061 -175 -249 0
-1061 -175 -250 0
-1061 -175 -252 0
-1061 -175 -253 0
-1061 -175 -254 0
-1061 -176 334 0
-1061 -176 -181 -185 0
-1061 -176 -197 0
-1061 -176 -198 0
-1061 -176 -201 0
-1061 -176 -202 0
-1061 -176 -205 0
-1061 -176 -206 0
-1061 -176 -221 0
-1061 -176 -222 0
-1061 -176 -225 0
-1061 -176 -226 0
-1061 -176 -229 0
-1061 -176 -230 0
-1061 -176 -241 0
-1061 -176 -242 0
-1061 -176 -245 0
-1061 -176 -246 0
-1061 -176 -249 0
-1061 -176 -250 0
-1061 -176 -253 0
-1061 -176 -254 0
-1061 -177 335 0
-1061 -177 -181 -186 0
-1061 -177 -198 0
-1061 -177 -202 0
-1061 -177 -206 0
-1061 -177 -222 0
-1061 -177 -226 0
-1061 -177 -230 0
-1061 -177 -242 0
-1061 -177 -246 0
-1061 -177 -250 0
-1061 -177 -254 0
-1062 298 0
-1062 331 0
-1062 -170 0
-1062 -171 0
-1062 -178 0
-1062 -175 333 0
-1062 -175 -182 -184 0
-1062 -175 -200 0
-1062 -175 -201 0
-1062 -175 -202 0
-1062 -175 -204 0
-1062 -175 -205 0
-1062 -175 -206 0
-1062 -175 -208 0
-1062 -175 -209 0
-1062 -175 -210 0
-1062 -175 -224 0
-1062 -175 -225 0
-1062 -175 -226 0
-1062 -175 -228 0
-1062 -175 -229 0
-1062 -175 -230 0
-1062 -175 -232 0
-1062 -175 -233 0
-1062 -175 -234 0
-1062 -175 -244 0
-1062 -175 -245 0
-1062 -175 -246 0
-1062 -175 -248 0
-1062 -175 -249 0
-1062 -175 -250 0
-1062 -175 -252 0
-1062 -175 -253 0
-1062 -175 -254 0
-1062 -176 334 0
-1062 -176 -182 -185 0
-1062 -176 -201 0
-1062 -176 -202 0
-1062 -176 -205 0
-1062 -176 -206 0
-1062 -176 -209 0
-1062 -176 -210 0
-1062 -176 -225 0
-1062 -176 -226 0
-1062 -176 -229 0
-1062 -176 -230 0
-1062 -176 -233 0
-1062 -176 -234 0
-1062 -176 -245 0
-1062 -176 -246 0
-1062 -176 -249 0
-1062 -176 -250 0
-1062 -176 -253 0
-1062 -176 -254 0
-1062 -177 335 0
-1062 -177 -182 -186 0
-1062 -177 -202 0
-1062 -177 -206 0
-1062 -177 -210 0
-1062 -177 -226 0
-1062 -177 -230 0
-1062 -177 -234 0
-1062 -177 -246 0
-1062 -177 -250 0
-1062 -177 -254 0
-1063 298 0
-1063 328 0
-1063 332 0
-1063 -179 -183 0
-1063 -187 0
-1063 -188 0
-1063 -189 0
-1063 -190 0
-1063 -191 0
-1063 -192 0
-1063 -193 0
-1063 -194 0
-1063 -195 0
-1063 -196 0
-1063 -197 0
-1063 -198 0
-1063 -211 0
-1063 -212 0
-1063 -213 0
-1063 -214 0
-1063 -215 0
-1063 -216 0
-1063 -217 0
-1063 -218 0
-1063 -219 0
-1063 -220 0
-1063 -221 0
-1063 -222 0
-1063 -235 0
-1063 -236 0
-1063 -237 0
-1063 -238 0
-1063 -239 0
-1063 -240 0
-1063 -241 0
-1063 -242 0
-1063 -243 0
-1063 -244 0
-1063 -245 0
-1063 -246 0
-1064 298 0
-1064 329 0
-1064 332 0
-1064 -180 -183 0
-1064 -191 0
-1064 -192 0
-1064 -193 0
-1064 -194 0
-1064 -195 0
-1064 -196 0
-1064 -197 0
-1064 -198 0
-1064 -199 0
-1064 -200 0
-1064 -201 0
-1064 -202 0
-1064 -215 0
-1064 -216 0
-1064 -217 0
-1064 -218 0
-1064 -219 0
-1064 -220 0
-1064 -221 0
-1064 -222 0
-1064 -223 0
-1064 -224 0
-1064 -225 0
-1064 -226 0
-1064 -235 0
-1064 -236 0
-1064 -237 0
-1064 -238 0
-1064 -239 0
-1064 -240 0
-1064 -241 0
-1064 -242 0
-1064 -243 0
-1064 -244 0
-1064 -245 0
-1064 -246 0
-1064 -247 0
-1064 -248 0
-1064 -249 0
-1064 -250 0
-1065 298 0
-1065 330 0
-1065 332 0
-1065 -181 -183 0
-1065 -195 0
-1065 -196 0
-1065 -197 0
-1065 -198 0
-1065 -199 0
-1065 -200 0
-1065 -201 0
-1065 -202 0
-1065 -203 0
-1065 -204 0
-1065 -205 0
-1065 -206 0
-1065 -219 0
-1065 -220 0
-1065 -221 0
-1065 -222 0
-1065 -223 0
-1065 -224 0
-1065 -225 0
-1065 -226 0
-1065 -227 0
-1065 -228 0
-1065 -229 0
-1065 -230 0
-1065 -239 0
-1065 -240 0
-1065 -241 0
-1065 -242 0
-1065 -243 0
-1065 -244 0
-1065 -245 0
-1065 -246 0
-1065 -247 0
-1065 -248 0
-1065 -249 0
-1065 -250 0
-1065 -251 0
-1065 -252 0
-1065 -253 0
-1065 -254 0
-1066 298 0
-1066 331 0
-1066 332 0
-1066 -182 -183 0
-1066 -199 0
-1066 -200 0
-1066 -201 0
-1066 -202 0
-1066 -203 0
-1066 -204 0
-1066 -205 0
-1066 -206 0
-1066 -207 0
-1066 -208 0
-1066 -209 0
-1066 -210 0
-1066 -223 0
-1066 -224 0
-1066 -225 0
-1066 -226 0
-1066 -227 0
-1066 -228 0
-1066 -229 0
-1066 -230 0
-1066 -231 0
-1066 -232 0
-1066 -233 0
-1066 -234 0
-1066 -243 0
-1066 -244 0
-1066 -245 0
-1066 -246 0
-1066 -247 0
-1066 -248 0
-1066 -249 0
-1066 -250 0
-1066 -251 0
-1066 -252 0
-1066 -253 0
-1066 -254 0
1071 1072 1073 1074 1075 1076 1077 1078 1079 1080 1081 1082 1083 1084 1085 1086 1087 1088 1089 1090 1091 1092 1093 1094 1095 1096 1097 1098 1099 1100 1101 1102 1103 1104 1105 1106 1107 1108 1109 1110 1111 1112 1113 1114 1115 1116 1117 1118 1119 1120 1121 1122 1123 1124 1125 1126 1127 1128 1129 1130 1131 1132 1133 1134 1135 1136 1137 1138 1139 1140 1141 1142 1143 1144 1145 1146 1147 1148 1149 1150 1151 1152 1153 1154 0
-1071 -1072 0
-1071 -1073 0
-1071 -1074 0
-1071 -1075 0
-1071 -1076 0
-1071 -1077 0
-1071 -1078 0
-1071 -1079 0
-1071 -1080 0
-1071 -1081 0
-1071 -1082 0
-1071 -1083 0
-1071 -1084 0
-1071 -1085 0
-1071 -1086 0
-1071 -1087 0
-1071 -1088 0
-1071 -1089 0
-1071 -1090 0
-1071 -1091 0
-1071 -1092 0
-1071 -1093 0
-1071 -1094 0
-1071 -1095 0
-1071 -1096 0
-1071 -1097 0
-1071 -1098 0
-1071 -1099 0
-1071 -1100 0
-1071 -1101 0
-1071 -1102 0
-1071 -1103 0
-1071 -1104 0
-1071 -1105 0
-1071 -1106 0
-1071 -1107 0
-1071 -1108 0
-1071 -1109 0
-1071 -1110 0
-1071 -1111 0
-1071 -1112 0
-1071 -1113 0
-1071 -1114 0
-1071 -1115 0
-1071 -1116 0
-1071 -1117 0
-1071 -1118 0
-1071 -1119 0
-1071 -1120 0
-1071 -1121 0
-1071 -1122 0
-1071 -1123 0
-1071 -1124 0
-1071 -1125 0
-1071 -1126 0
-1071 -1127 0
-1071 -1128 0
-1071 -1129 0
-1071 -1130 0
-1071 -1131 0
-1071 -1132 0
-1071 -1133 0
-1071 -1134 0
-1071 -1135 0
-1071 -1136 0
-1071 -1137 0
-1071 -1138 0
-1071 -1139 0
-1071 -1140 0
-1071 -1141 0
-1071 -1142 0
-1071 -1143 0
-1071 -1144 0
-1071 -1145 0
-1071 -1146 0
-1071 -1147 0
-1071 -1148 0
-1071 -1149 0
-1071 -1150 0
-1071 -1151 0
-1071 -1152 0
-1071 -1153 0
-1071 -1154 0
-1072 -1073 0
-1072 -1074 0
-1072 -1075 0
-1072 -1076 0
-1072 -1077 0
-1072 -1078 0
-1072 -1079 0
-1072 -1080 0
-1072 -1081 0
-1072 -1082 0
-1072 -1083 0
-1072 -1084 0
-1072 -1085 0
-1072 -1086 0
-1072 -1087 0
-1072 -1088 0
-1072 -1089 0
-1072 -1090 0
-1072 -1091 0
-1072 -1092 0
-1072 -1093 0
-1072 -1094 0
-1072 -1095 0
-1072 -1096 0
-1072 -1097 0
-1072 -1098 0
-1072 -1099 0
-1072 -1100 0
-1072 -1101 0
-1072 -1102 0
-1072 -1103 0
-1072 -1104 0
-1072 -1105 0
-1072 -1106 0
-1072 -1107 0
-1072 -1108 0
-1072 -1109 0
-1072 -1110 0
-1072 -1111 0
-1072 -1112 0
-1072 -1113 0
-1072 -1114 0
-1072 -1115 0
-1072 -1116 0
-1072 -1117 0
-1072 -1118 0
-1072 -1119 0
-1072 -1120 0
-1072 -1121 0
-1072 -1122 0
-1072 -1123 0
-1072 -1124 0
-1072 -1125 0
-1072 -1126 0
-1072 -1127 0
-1072 -1128 0
-1072 -1129 0
-1072 -1130 0
-1072 -1131 0
-1072 -1132 0
-1072 -1133 0
-1072 -1134 0
-1072 -1135 0
-1072 -1136 0
-1072 -1137 0
-1072 -1138 0
-1072 -1139 0
-1072 -1140 0
-1072 -1141 0
-1072 -1142 0
-1072 -1143 0
-1072 -1144 0
-1072 -1145 0
-1072 -1146 0
-1072 -1147 0
-1072 -1148 0
-1072 -1149 0
-1072 -1150 0
-1072 -1151 0
-1072 -1152 0
-1072 -1153 0
-1072 -1154 0
-1073 -1074 0
-1073 -1075 0
-1073 -1076 0
-1073 -1077 0
-1073 -1078 0
-1073 -1079 0
-1073 -1080 0
-1073 -1081 0
-1073 -1082 0
-1073 -1083 0
-1073 -1084 0
-1073 -1085 0
-1073 -1086 0
-1073 -1087 0
-1073 -1088 0
-1073 -1089 0
-1073 -1090 0
-1073 -1091 0
-1073 -1092 0
-1073 -1093 0
-1073 -1094 0
-1073 -1095 0
-1073 -1096 0
-1073 -1097 0
-1073 -1098 0
-1073 -1099 0
-1073 -1100 0
-1073 -1101 0
-1073 -1102 0
-1073 -1103 0
-1073 -1104 0
-1073 -1105 0
-1073 -1106 0
-1073 -1107 0
-1073 -1108 0
-1073 -1109 0
-1073 -1110 0
-1073 -1111 0
-1073 -1112 0
-1073 -1113 0
-1073 -1114 0
-1073 -1115 0
-1073 -1116 0
-1073 -1117 0
-1073 -1118 0
-1073 -1119 0
-1073 -1120 0
-1073 -1121 0
-1073 -1122 0
-1073 -1123 0
-1073 -1124 0
-1073 -1125 0
-1073 -1126 0
-1073 -1127 0
-1073 -1128 0
-1073 -1129 0
-1073 -1130 0
-1073 -1131 0
-1073 -1132 0
-1073 -1133 0
-1073 -1134 0
-1073 -1135 0
-1073 -1136 0
-1073 -1137 0
-1073 -1138 0
-1073 -1139 0
-1073 -1140 0
-1073 -1141 0
-1073 -1142 0
-1073 -1143 0
-1073 -1144 0
-1073 -1145 0
-1073 -1146 0
-1073 -1147 0
-1073 -1148 0
-1073 -1149 0
-1073 -1150 0
-1073 -1151 0
-1073 -1152 0
-1073 -1153 0
-1073 -1154 0
-1074 -1075 0
-1074 -1076 0
-1074 -1077 0
-1074 -1078 0
-1074 -1079 0
-1074 -1080 0
-1074 -1081 0
-1074 -1082 0
-1074 -1083 0
-1074 -1084 0
-1074 -1085 0
-1074 -1086 0
-1074 -1087 0
-1074 -1088 0
-1074 -1089 0
-1074 -1090 0
-1074 -1091 0
-1074 -1092 0
-1074 -1093 0
-1074 -1094 0
-1074 -1095 0
-1074 -1096 0
-1074 -1097 0
-1074 -1098 0
-1074 -1099 0
-1074 -1100 0
-1074 -1101 0
-1074 -1102 0
-1074 -1103 0
-1074 -1104 0
-1074 -1105 0
-1074 -1106 0
-1074 -1107 0
-1074 -1108 0
-1074 -1109 0
-1074 -1110 0
-1074 -1111 0
-1074 -1112 0
-1074 -1113 0
-1074 -1114 0
-1074 -1115 0
-1074 -1116 0
-1074 -1117 0
-1074 -1118 0
-1074 -1119 0
-1074 -1120 0
-1074 -1121 0
-1074 -1122 0
-1074 -1123 0
-1074 -1124 0
-1074 -1125 0
-1074 -1126 0
-1074 -1127 0
-1074 -1128 0
-1074 -1129 0
-1074 -1130 0
-1074 -1131 0
-1074 -1132 0
-1074 -1133 0
-1074 -1134 0
-1074 -1135 0
-1074 -1136 0
-1074 -1137 0
-1074 -1138 0
-1074 -1139 0
-1074 -1140 0
-1074 -1141 0
-1074 -1142 0
-1074 -1143 0
-1074 -1144 0
-1074 -1145 0
-1074 -1146 0
-1074 -1147 0
-1074 -1148 0
-1074 -1149 0
-1074 -1150 0
-1074 -1151 0
-1074 -1152 0
-1074 -1153 0
-1074 -1154 0
-1075 -1076 0
-1075 -1077 0
-1075 -1078 0
-1075 -1079 0
-1075 -1080 0
-1075 -1081 0
-1075 -1082 0
-1075 -1083 0
-1075 -1084 0
-1075 -1085 0
-1075 -1086 0
-1075 -1087 0
-1075 -1088 0
-1075 -1089 0
-1075 -1090 0
-1075 -1091 0
-1075 -1092 0
-1075 -1093 0
-1075 -1094 0
-1075 -1095 0
-1075 -1096 0
-1075 -1097 0
-1075 -1098 0
-1075 -1099 0
-1075 -1100 0
-1075 -1101 0
-1075 -1102 0
-1075 -1103 0
-1075 -1104 0
-1075 -1105 0
-1075 -1106 0
-1075 -1107 0
-1075 -1108 0
-1075 -1109 0
-1075 -1110 0
-1075 -1111 0
-1075 -1112 0
-1075 -1113 0
-1075 -1114 0
-1075 -1115 0
-1075 -1116 0
-1075 -1117 0
-1075 -1118 0
-1075 -1119 0
-1075 -1120 0
-1075 -1121 0
-1075 -1122 0
-1075 -1123 0
-1075 -1124 0
-1075 -1125 0
-1075 -1126 0
-1075 -1127 0
-1075 -1128 0
-1075 -1129 0
-1075 -1130 0
-1075 -1131 0
-1075 -1132 0
-1075 -1133 0
-1075 -1134 0
-1075 -1135 0
-1075 -1136 0
-1075 -1137 0
-1075 -1138 0
-1075 -1139 0
-1075 -1140 0
-1075 -1141 0
-1075 -1142 0
-1075 -1143 0
-1075 -1144 0
-1075 -1145 0
-1075 -1146 0
-1075 -1147 0
-1075 -1148 0
-1075 -1149 0
-1075 -1150 0
-1075 -1151 0
-1075 -1152 0
-1075 -1153 0
-1075 -1154 0
-1076 -1077 0
-1076 -1078 0
-1076 -1079 0
-1076 -1080 0
-1076 -1081 0
-1076 -1082 0
-1076 -1083 0
-1076 -1084 0
-1076 -1085 0
-1076 -1086 0
-1076 -1087 0
-1076 -1088 0
-1076 -1089 0
-1076 -1090 0
-1076 -1091 0
-1076 -1092 0
-1076 -1093 0
-1076 -1094 0
-1076 -1095 0
-1076 -1096 0
-1076 -1097 0
-1076 -1098 0
-1076 -1099 0
-1076 -1100 0
-1076 -1101 0
-1076 -1102 0
-1076 -1103 0
-1076 -1104 0
-1076 -1105 0
-1076 -1106 0
-1076 -1107 0
-1076 -1108 0
-1076 -1109 0
-1076 -1110 0
-1076 -1111 0
-1076 -1112 0
-1076 -1113 0
-1076 -1114 0
-1076 -1115 0
-1076 -1116 0
-1076 -1117 0
-1076 -1118 0
-1076 -1119 0
-1076 -1120 0
-1076 -1121 0
-1076 -1122 0
-1076 -1123 0
-1076 -1124 0
-1076 -1125 0
-1076 -1126 0
-1076 -1127 0
-1076 -1128 0
-1076 -1129 0
-1076 -1130 0
-1076 -1131 0
-1076 -1132 0
-1076 -1133 0
-1076 -1134 0
-1076 -1135 0
-1076 -1136 0
-1076 -1137 0
-1076 -1138 0
-1076 -1139 0
-1076 -1140 0
-1076 -1141 0
-1076 -1142 0
-1076 -1143 0
-1076 -1144 0
-1076 -1145 0
-1076 -1146 0
-1076 -1147 0
-1076 -1148 0
-1076 -1149 0
-1076 -1150 0
-1076 -1151 0
-1076 -1152 0
-1076 -1153 0
-1076 -1154 0
-1077 -1078 0
-1077 -1079 0
-1077 -1080 0
-1077 -1081 0
-1077 -1082 0
-1077 -1083 0
-1077 -1084 0
-1077 -1085 0
-1077 -1086 0
-1077 -1087 0
-1077 -1088 0
-1077 -1089 0
-1077 -1090 0
-1077 -1091 0
-1077 -1092 0
-1077 -1093 0
-1077 -1094 0
-1077 -1095 0
-1077 -1096 0
-1077 -1097 0
-1077 -1098 0
-1077 -1099 0
-1077 -1100 0
-1077 -1101 0
-1077 -1102 0
-1077 -1103 0
-1077 -1104 0
-1077 -1105 0
-1077 -1106 0
-1077 -1107 0
-1077 -1108 0
-1077 -1109 0
-1077 -1110 0
-1077 -1111 0
-1077 -1112 0
-1077 -1113 0
-1077 -1114 0
-1077 -1115 0
-1077 -1116 0
-1077 -1117 0
-1077 -1118 0
-1077 -1119 0
-1077 -1120 0
-1077 -1121 0
-1077 -1122 0
-1077 -1123 0
-1077 -1124 0
-1077 -1125 0
-1077 -1126 0
-1077 -1127 0
-1077 -1128 0
-1077 -1129 0
-1077 -1130 0
-1077 -1131 0
-1077 -1132 0
-1077 -1133 0
-1077 -1134 0
-1077 -1135 0
-1077 -1136 0
-1077 -1137 0
-1077 -1138 0
-1077 -1139 0
-1077 -1140 0
-1077 -1141 0
-1077 -1142 0
-1077 -1143 0
-1077 -1144 0
-1077 -1145 0
-1077 -1146 0
-1077 -1147 0
-1077 -1148 0
-1077 -1149 0
-1077 -1150 0
-1077 -1151 0
-1077 -1152 0
-1077 -1153 0
-1077 -1154 0
-1078 -1079 0
-1078 -1080 0
-1078 -1081 0
-1078 -1082 0
-1078 -1083 0
-1078 -1084 0
-1078 -1085 0
-1078 -1086 0
-1078 -1087 0
-1078 -1088 0
-1078 -1089 0
-1078 -1090 0
-1078 -1091 0
-1078 -1092 0
-1078 -1093 0
-1078 -1094 0
-1078 -1095 0
-1078 -1096 0
-1078 -1097 0
-1078 -1098 0
-1078 -1099 0
-1078 -1100 0
-1078 -1101 0
-1078 -1102 0
-1078 -1103 0
-1078 -1104 0
-1078 -1105 0
-1078 -1106 0
-1078 -1107 0
-1078 -1108 0
-1078 -1109 0
-1078 -1110 0
-1078 -1111 0
-1078 -1112 0
-1078 -1113 0
-1078 -1114 0
-1078 -1115 0
-1078 -1116 0
-1078 -1117 0
-1078 -1118 0
-1078 -1119 0
-1078 -1120 0
-1078 -1121 0
-1078 -1122 0
-1078 -1123 0
-1078 -1124 0
-1078 -1125 0
-1078 -1126 0
-1078 -1127 0
-1078 -1128 0
-1078 -1129 0
-1078 -1130 0
-1078 -1131 0
-1078 -1132 0
-1078 -1133 0
-1078 -1134 0
-1078 -1135 0
-1078 -1136 0
-1078 -1137 0
-1078 -1138 0
-1078 -1139 0
-1078 -1140 0
-1078 -1141 0
-1078 -1142 0
-1078 -1143 0
-1078 -1144 0
-1078 -1145 0
-1078 -1146 0
-1078 -1147 0
-1078 -1148 0
-1078 -1149 0
-1078 -1150 0
-1078 -1151 0
-1078 -1152 0
-1078 -1153 0
-1078 -1154 0
-1079 -1080 0
-1079 -1081 0
-1079 -1082 0
-1079 -1083 0
-1079 -1084 0
-1079 -1085 0
-1079 -1086 0
-1079 -1087 0
-1079 -1088 0
-1079 -1089 0
-1079 -1090 0
-1079 -1091 0
-1079 -1092 0
-1079 -1093 0
-1079 -1094 0
-1079 -1095 0
-1079 -1096 0
-1079 -1097 0
-1079 -1098 0
-1079 -1099 0
-1079 -1100 0
-1079 -1101 0
-1079 -1102 0
-1079 -1103 0
-1079 -1104 0
-1079 -1105 0
-1079 -1106 0
-1079 -1107 0
-1079 -1108 0
-1079 -1109 0
-1079 -1110 0
-1079 -1111 0
-1079 -1112 0
-1079 -1113 0
-1079 -1114 0
-1079 -1115 0
-1079 -1116 0
-1079 -1117 0
-1079 -1118 0
-1079 -1119 0
-1079 -1120 0
-1079 -1121 0
-1079 -1122 0
-1079 -1123 0
-1079 -1124 0
-1079 -1125 0
-1079 -1126 0
-1079 -1127 0
-1079 -1128 0
-1079 -1129 0
-1079 -1130 0
-1079 -1131 0
-1079 -1132 0
-1079 -1133 0
-1079 -1134 0
-1079 -1135 0
-1079 -1136 0
-1079 -1137 0
-1079 -1138 0
-1079 -1139 0
-1079 -1140 0
-1079 -1141 0
-1079 -1142 0
-1079 -1143 0
-1079 -1144 0
-1079 -1145 0
-1079 -1146 0
-1079 -1147 0
-1079 -1148 0
-1079 -1149 0
-1079 -1150 0
-1079 -1151 0
-1079 -1152 0
-1079 -1153 0
-1079 -1154 0
-1080 -1081 0
-1080 -1082 0
-1080 -1083 0
-1080 -1084 0
-1080 -1085 0
-1080 -1086 0
-1080 -1087 0
-1080 -1088 0
-1080 -1089 0
-1080 -1090 0
-1080 -1091 0
-1080 -1092 0
-1080 -1093 0
-1080 -1094 0
-1080 -1095 0
-1080 -1096 0
-1080 -1097 0
-1080 -1098 0
-1080 -1099 0
-1080 -1100 0
-1080 -1101 0
-1080 -1102 0
-1080 -1103 0
-1080 -1104 0
-1080 -1105 0
-1080 -1106 0
-1080 -1107 0
-1080 -1108 0
-1080 -1109 0
-1080 -1110 0
-1080 -1111 0
-1080 -1112 0
-1080 -1113 0
-1080 -1114 0
-1080 -1115 0
-1080 -1116 0
-1080 -1117 0
-1080 -1118 0
-1080 -1119 0
-1080 -1120 0
-1080 -1121 0
-1080 -1122 0
-1080 -1123 0
-1080 -1124 0
-1080 -1125 0
-1080 -1126 0
-1080 -1127 0
-1080 -1128 0
-1080 -1129 0
-1080 -1130 0
-1080 -1131 0
-1080 -1132 0
-1080 -1133 0
-1080 -1134 0
-1080 -1135 0
-1080 -1136 0
-1080 -1137 0
-1080 -1138 0
-1080 -1139 0
-1080 -1140 0
-1080 -1141 0
-1080 -1142 0
-1080 -1143 0
-1080 -1144 0
-1080 -1145 0
-1080 -1146 0
-1080 -1147 0
-1080 -1148 0
-1080 -1149 0
-1080 -1150 0
-1080 -1151 0
-1080 -1152 0
-1080 -1153 0
-1080 -1154 0
-1081 -1082 0
-1081 -1083 0
-1081 -1084 0
-1081 -1085 0
-1081 -1086 0
-1081 -1087 0
-1081 -1088 0
-1081 -1089 0
-1081 -1090 0
-1081 -1091 0
-1081 -1092 0
-1081 -1093 0
-1081 -1094 0
-1081 -1095 0
-1081 -1096 0
-1081 -1097 0
-1081 -1098 0
-1081 -1099 0
-1081 -1100 0
-1081 -1101 0
-1081 -1102 0
-1081 -1103 0
-1081 -1104 0
-1081 -1105 0
-1081 -1106 0
-1081 -1107 0
-1081 -1108 0
-1081 -1109 0
-1081 -1110 0
-1081 -1111 0
-1081 -1112 0
-1081 -1113 0
-1081 -1114 0
-1081 -1115 0
-1081 -1116 0
-1081 -1117 0
-1081 -1118 0
-1081 -1119 0
-1081 -1120 0
-1081 -1121 0
-1081 -1122 0
-1081 -1123 0
-1081 -1124 0
-1081 -1125 0
-1081 -1126 0
-1081 -1127 0
-1081 -1128 0
-1081 -1129 0
-1081 -1130 0
-1081 -1131 0
-1081 -1132 0
-1081 -1133 0
-1081 -1134 0
-1081 -1135 0
-1081 -1136 0
-1081 -1137 0
-1081 -1138 0
-1081 -1139 0
-1081 -1140 0
-1081 -1141 0
-1081 -1142 0
-1081 -1143 0
-1081 -1144 0
-1081 -1145 0
-1081 -1146 0
-1081 -1147 0
-1081 -1148 0
-1081 -1149 0
-1081 -1150 0
-1081 -1151 0
-1081 -1152 0
-1081 -1153 0
-1081 -1154 0
-1082 -1083 0
-1082 -1084 0
-1082 -1085 0
-1082 -1086 0
-1082 -1087 0
-1082 -1088 0
-1082 -1089 0
-1082 -1090 0
-1082 -1091 0
-1082 -1092 0
-1082 -1093 0
-1082 -1094 0
-1082 -1095 0
-1082 -1096 0
-1082 -1097 0
-1082 -1098 0
-1082 -1099 0
-1082 -1100 0
-1082 -1101 0
-1082 -1102 0
-1082 -1103 0
-1082 -1104 0
-1082 -1105 0
-1082 -1106 0
-1082 -1107 0
-1082 -1108 0
-1082 -1109 0
-1082 -1110 0
-1082 -1111 0
-1082 -1112 0
-1082 -1113 0
-1082 -1114 0
-1082 -1115 0
-1082 -1116 0
-1082 -1117 0
-1082 -1118 0
-1082 -1119 0
-1082 -1120 0
-1082 -1121 0
-1082 -1122 0
-1082 -1123 0
-1082 -1124 0
-1082 -1125 0
-1082 -1126 0
-1082 -1127 0
-1082 -1128 0
-1082 -1129 0
-1082 -1130 0
-1082 -1131 0
-1082 -1132 0
-1082 -1133 0
-1082 -1134 0
-1082 -1135 0
-1082 -1136 0
-1082 -1137 0
-1082 -1138 0
-1082 -1139 0
-1082 -1140 0
-1082 -1141 0
-1082 -1142 0
-1082 -1143 0
-1082 -1144 0
-1082 -1145 0
-1082 -1146 0
-1082 -1147 0
-1082 -1148 0
-1082 -1149 0
-1082 -1150 0
-1082 -1151 0
-1082 -1152 0
-1082 -1153 0
-1082 -1154 0
-1083 -1084 0
-1083 -1085 0
-1083 -1086 0
-1083 -1087 0
-1083 -1088 0
-1083 -1089 0
-1083 -1090 0
-1083 -1091 0
-1083 -1092 0
-1083 -1093 0
-1083 -1094 0
-1083 -1095 0
-1083 -1096 0
-1083 -1097 0
-1083 -1098 0
-1083 -1099 0
-1083 -1100 0
-1083 -1101 0
-1083 -1102 0
-1083 -1103 0
-1083 -1104 0
-1083 -1105 0
-1083 -1106 0
-1083 -1107 0
-1083 -1108 0
-1083 -1109 0
-1083 -1110 0
-1083 -1111 0
-1083 -1112 0
-1083 -1113 0
-1083 -1114 0
-1083 -1115 0
-1083 -1116 0
-1083 -1117 0
-1083 -1118 0
-1083 -1119 0
-1083 -1120 0
-1083 -1121 0
-1083 -1122 0
-1083 -1123 0
-1083 -1124 0
-1083 -1125 0
-1083 -1126 0
-1083 -1127 0
-1083 -1128 0
-1083 -1129 0
-1083 -1130 0
-1083 -1131 0
-1083 -1132 0
-1083 -1133 0
-1083 -1134 0
-1083 -1135 0
-1083 -1136 0
-1083 -1137 0
-1083 -1138 0
-1083 -1139 0
-1083 -1140 0
-1083 -1141 0
-1083 -1142 0
-1083 -1143 0
-1083 -1144 0
-1083 -1145 0
-1083 -1146 0
-1083 -1147 0
-1083 -1148 0
-1083 -1149 0
-1083 -1150 0
-1083 -1151 0
-1083 -1152 0
-1083 -1153 0
-1083 -1154 0
-1084 -1085 0
-1084 -1086 0
-1084 -1087 0
-1084 -1088 0
-1084 -1089 0
-1084 -1090 0
-1084 -1091 0
-1084 -1092 0
-1084 -1093 0
-1084 -1094 0
-1084 -1095 0
-1084 -1096 0
-1084 -1097 0
-1084 -1098 0
-1084 -1099 0
-1084 -1100 0
-1084 -1101 0
-1084 -1102 0
-1084 -1103 0
-1084 -1104 0
-1084 -1105 0
-1084 -1106 0
-1084 -1107 0
-1084 -1108 0
-1084 -1109 0
-1084 -1110 0
-1084 -1111 0
-1084 -1112 0
-1084 -1113 0
-1084 -1114 0
-1084 -1115 0
-1084 -1116 0
-1084 -1117 0
-1084 -1118 0
-1084 -1119 0
-1084 -1120 0
-1084 -1121 0
-1084 -1122 0
-1084 -1123 0
-1084 -1124 0
-1084 -1125 0
-1084 -1126 0
-1084 -1127 0
-1084 -1128 0
-1084 -1129 0
-1084 -1130 0
-1084 -1131 0
-1084 -1132 0
-1084 -1133 0
-1084 -1134 0
-1084 -1135 0
-1084 -1136 0
-1084 -1137 0
-1084 -1138 0
-1084 -1139 0
-1084 -1140 0
-1084 -1141 0
-1084 -1142 0
-1084 -1143 0
-1084 -1144 0
-1084 -1145 0
-1084 -1146 0
-1084 -1147 0
-1084 -1148 0
-1084 -1149 0
-1084 -1150 0
-1084 -1151 0
-1084 -1152 0
-1084 -1153 0
-1084 -1154 0
-1085 -1086 0
-1085 -1087 0
-1085 -1088 0
-1085 -1089 0
-1085 -1090 0
-1085 -1091 0
-1085 -1092 0
-1085 -1093 0
-1085 -1094 0
-1085 -1095 0
-1085 -1096 0
-1085 -1097 0
-1085 -1098 0
-1085 -1099 0
-1085 -1100 0
-1085 -1101 0
-1085 -1102 0
-1085 -1103 0
-1085 -1104 0
-1085 -1105 0
-1085 -1106 0
-1085 -1107 0
-1085 -1108 0
-1085 -1109 0
-1085 -1110 0
-1085 -1111 0
-1085 -1112 0
-1085 -1113 0
-1085 -1114 0
-1085 -1115 0
-1085 -1116 0
-1085 -1117 0
-1085 -1118 0
-1085 -1119 0
-1085 -1120 0
-1085 -1121 0
-1085 -1122 0
-1085 -1123 0
-1085 -1124 0
-1085 -1125 0
-1085 -1126 0
-1085 -1127 0
-1085 -1128 0
-1085 -1129 0
-1085 -1130 0
-1085 -1131 0
-1085 -1132 0
-1085 -1133 0
-1085 -1134 0
-1085 -1135 0
-1085 -1136 0
-1085 -1137 0
-1085 -1138 0
-1085 -1139 0
-1085 -1140 0
-1085 -1141 0
-1085 -1142 0
-1085 -1143 0
-1085 -1144 0
-1085 -1145 0
-1085 -1146 0
-1085 -1147 0
-1085 -1148 0
-1085 -1149 0
-1085 -1150 0
-1085 -1151 0
-1085 -1152 0
-1085 -1153 0
-1085 -1154 0
-1086 -1087 0
-1086 -1088 0
-1086 -1089 0
-1086 -1090 0
-1086 -1091 0
-1086 -1092 0
-1086 -1093 0
-1086 -1094 0
-1086 -1095 0
-1086 -1096 0
-1086 -1097 0
-1086 -1098 0
-1086 -1099 0
-1086 -1100 0
-1086 -1101 0
-1086 -1102 0
-1086 -1103 0
-1086 -1104 0
-1086 -1105 0
-1086 -1106 0
-1086 -1107 0
-1086 -1108 0
-1086 -1109 0
-1086 -1110 0
-1086 -1111 0
-1086 -1112 0
-1086 -1113 0
-1086 -1114 0
-1086 -1115 0
-1086 -1116 0
-1086 -1117 0
-1086 -1118 0
-1086 -1119 0
-1086 -1120 0
-1086 -1121 0
-1086 -1122 0
-1086 -1123 0
-1086 -1124 0
-1086 -1125 0
-1086 -1126 0
-1086 -1127 0
-1086 -1128 0
-1086 -1129 0
-1086 -1130 0
-1086 -1131 0
-1086 -1132 0
-1086 -1133 0
-1086 -1134 0
-1086 -1135 0
-1086 -1136 0
-1086 -1137 0
-1086 -1138 0
-1086 -1139 0
-1086 -1140 0
-1086 -1141 0
-1086 -1142 0
-1086 -1143 0
-1086 -1144 0
-1086 -1145 0
-1086 -1146 0
-1086 -1147 0
-1086 -1148 0
-1086 -1149 0
-1086 -1150 0
-1086 -1151 0
-1086 -1152 0
-1086 -1153 0
-1086 -1154 0
-1087 -1088 0
-1087 -1089 0
-1087 -1090 0
-1087 -1091 0
-1087 -1092 0
-1087 -1093 0
-1087 -1094 0
-1087 -1095 0
-1087 -1096 0
-1087 -1097 0
-1087 -1098 0
-1087 -1099 0
-1087 -1100 0
-1087 -1101 0
-1087 -1102 0
-1087 -1103 0
-1087 -1104 0
-1087 -1105 0
-1087 -1106 0
-1087 -1107 0
-1087 -1108 0
-1087 -1109 0
-1087 -1110 0
-1087 -1111 0
-1087 -1112 0
-1087 -1113 0
-1087 -1114 0
-1087 -1115 0
-1087 -1116 0
-1087 -1117 0
-1087 -1118 0
-1087 -1119 0
-1087 -1120 0
-1087 -1121 0
-1087 -1122 0
-1087 -1123 0
-1087 -1124 0
-1087 -1125 0
-1087 -1126 0
-1087 -1127 0
-1087 -1128 0
-1087 -1129 0
-1087 -1130 0
-1087 -1131 0
-1087 -1132 0
-1087 -1133 0
-1087 -1134 0
-1087 -1135 0
-1087 -1136 0
-1087 -1137 0
-1087 -1138 0
-1087 -1139 0
-1087 -1140 0
-1087 -1141 0
-1087 -1142 0
-1087 -1143 0
-1087 -1144 0
-1087 -1145 0
-1087 -1146 0
-1087 -1147 0
-1087 -1148 0
-1087 -1149 0
-1087 -1150 0
-1087 -1151 0
-1087 -1152 0
-1087 -1153 0
-1087 -1154 0
-1088 -1089 0
-1088 -1090 0
-1088 -1091 0
-1088 -1092 0
-1088 -1093 0
-1088 -1094 0
-1088 -1095 0
-1088 -1096 0
-1088 -1097 0
-1088 -1098 0
-1088 -1099 0
-1088 -1100 0
-1088 -1101 0
-1088 -1102 0
-1088 -1103 0
-1088 -1104 0
-1088 -1105 0
-1088 -1106 0
-1088 -1107 0
-1088 -1108 0
-1088 -1109 0
-1088 -1110 0
-1088 -1111 0
-1088 -1112 0
-1088 -1113 0
-1088 -1114 0
-1088 -1115 0
-1088 -1116 0
-1088 -1117 0
-1088 -1118 0
-1088 -1119 0
-1088 -1120 0
-1088 -1121 0
-1088 -1122 0
-1088 -1123 0
-1088 -1124 0
-1088 -1125 0
-1088 -1126 0
-1088 -1127 0
-1088 -1128 0
-1088 -1129 0
-1088 -1130 0
-1088 -1131 0
-1088 -1132 0
-1088 -1133 0
-1088 -1134 0
-1088 -1135 0
-1088 -1136 0
-1088 -1137 0
-1088 -1138 0
-1088 -1139 0
-1088 -1140 0
-1088 -1141 0
-1088 -1142 0
-1088 -1143 0
-1088 -1144 0
-1088 -1145 0
-1088 -1146 0
-1088 -1147 0
-1088 -1148 0
-1088 -1149 0
-1088 -1150 0
-1088 -1151 0
-1088 -1152 0
-1088 -1153 0
-1088 -1154 0
-1089 -1090 0
-1089 -1091 0
-1089 -1092 0
-1089 -1093 0
-1089 -1094 0
-1089 -1095 0
-1089 -1096 0
-1089 -1097 0
-1089 -1098 0
-1089 -1099 0
-1089 -1100 0
-1089 -1101 0
-1089 -1102 0
-1089 -1103 0
-1089 -1104 0
-1089 -1105 0
-1089 -1106 0
-1089 -1107 0
-1089 -1108 0
-1089 -1109 0
-1089 -1110 0
-1089 -1111 0
-1089 -1112 0
-1089 -1113 0
-1089 -1114 0
-1089 -1115 0
-1089 -1116 0
-1089 -1117 0
-1089 -1118 0
-1089 -1119 0
-1089 -1120 0
-1089 -1121 0
-1089 -1122 0
-1089 -1123 0
-1089 -1124 0
-1089 -1125 0
-1089 -1126 0
-1089 -1127 0
-1089 -1128 0
-1089 -1129 0
-1089 -1130 0
-1089 -1131 0
-1089 -1132 0
-1089 -1133 0
-1089 -1134 0
-1089 -1135 0
-1089 -1136 0
-1089 -1137 0
-1089 -1138 0
-1089 -1139 0
-1089 -1140 0
-1089 -1141 0
-1089 -1142 0
-1089 -1143 0
-1089 -1144 0
-1089 -1145 0
-1089 -1146 0
-1089 -1147 0
-1089 -1148 0
-1089 -1149 0
-1089 -1150 0
-1089 -1151 0
-1089 -1152 0
-1089 -1153 0
-1089 -1154 0
-1090 -1091 0
-1090 -1092 0
-1090 -1093 0
-1090 -1094 0
-1090 -1095 0
-1090 -1096 0
-1090 -1097 0
-1090 -1098 0
-1090 -1099 0
-1090 -1100 0
-1090 -1101 0
-1090 -1102 0
-1090 -1103 0
-1090 -1104 0
-1090 -1105 0
-1090 -1106 0
-1090 -1107 0
-1090 -1108 0
-1090 -1109 0
-1090 -1110 0
-1090 -1111 0
-1090 -1112 0
-1090 -1113 0
-1090 -1114 0
-1090 -1115 0
-1090 -1116 0
-1090 -1117 0
-1090 -1118 0
-1090 -1119 0
-1090 -1120 0
-1090 -1121 0
-1090 -1122 0
-1090 -1123 0
-1090 -1124 0
-1090 -1125 0
-1090 -1126 0
-1090 -1127 0
-1090 -1128 0
-1090 -1129 0
-1090 -1130 0
-1090 -1131 0
-1090 -1132 0
-1090 -1133 0
-1090 -1134 0
-1090 -1135 0
-1090 -1136 0
-1090 -1137 0
-1090 -1138 0
-1090 -1139 0
-1090 -1140 0
-1090 -1141 0
-1090 -1142 0
-1090 -1143 0
-1090 -1144 0
-1090 -1145 0
-1090 -1146 0
-1090 -1147 0
-1090 -1148 0
-1090 -1149 0
-1090 -1150 0
-1090 -1151 0
-1090 -1152 0
-1090 -1153 0
-1090 -1154 0
-1091 -1092 0
-1091 -1093 0
-1091 -1094 0
-1091 -1095 0
-1091 -1096 0
-1091 -1097 0
-1091 -1098 0
-1091 -1099 0
-1091 -1100 0
-1091 -1101 0
-1091 -1102 0
-1091 -1103 0
-1091 -1104 0
-1091 -1105 0
-1091 -1106 0
-1091 -1107 0
-1091 -1108 0
-1091 -1109 0
-1091 -1110 0
-1091 -1111 0
-1091 -1112 0
-1091 -1113 0
-1091 -1114 0
-1091 -1115 0
-1091 -1116 0
-1091 -1117 0
-1091 -1118 0
-1091 -1119 0
-1091 -1120 0
-1091 -1121 0
-1091 -1122 0
-1091 -1123 0
-1091 -1124 0
-1091 -1125 0
-1091 -1126 0
-1091 -1127 0
-1091 -1128 0
-1091 -1129 0
-1091 -1130 0
-1091 -1131 0
-1091 -1132 0
-1091 -1133 0
-1091 -1134 0
-1091 -1135 0
-1091 -1136 0
-1091 -1137 0
-1091 -1138 0
-1091 -1139 0
-1091 -1140 0
-1091 -1141 0
-1091 -1142 0
-1091 -1143 0
-1091 -1144 0
-1091 -1145 0
-1091 -1146 0
-1091 -1147 0
-1091 -1148 0
-1091 -1149 0
-1091 -1150 0
-1091 -1151 0
-1091 -1152 0
-1091 -1153 0
-1091 -1154 0
-1092 -1093 0
-1092 -1094 0
-1092 -1095 0
-1092 -1096 0
-1092 -1097 0
-1092 -1098 0
-1092 -1099 0
-1092 -1100 0
-1092 -1101 0
-1092 -1102 0
-1092 -1103 0
-1092 -1104 0
-1092 -1105 0
-1092 -1106 0
-1092 -1107 0
-1092 -1108 0
-1092 -1109 0
-1092 -1110 0
-1092 -1111 0
-1092 -1112 0
-1092 -1113 0
-1092 -1114 0
-1092 -1115 0
-1092 -1116 0
-1092 -1117 0
-1092 -1118 0
-1092 -1119 0
-1092 -1120 0
-1092 -1121 0
-1092 -1122 0
-1092 -1123 0
-1092 -1124 0
-1092 -1125 0
-1092 -1126 0
-1092 -1127 0
-1092 -1128 0
-1092 -1129 0
-1092 -1130 0
-1092 -1131 0
-1092 -1132 0
-1092 -1133 0
-1092 -1134 0
-1092 -1135 0
-1092 -1136 0
-1092 -1137 0
-1092 -1138 0
-1092 -1139 0
-1092 -1140 0
-1092 -1141 0
-1092 -1142 0
-1092 -1143 0
-1092 -1144 0
-1092 -1145 0
-1092 -1146 0
-1092 -1147 0
-1092 -1148 0
-1092 -1149 0
-1092 -1150 0
-1092 -1151 0
-1092 -1152 0
-1092 -1153 0
-1092 -1154 0
-1093 -1094 0
-1093 -1095 0
-1093 -1096 0
-1093 -1097 0
-1093 -1098 0
-1093 -1099 0
-1093 -1100 0
-1093 -1101 0
-1093 -1102 0
-1093 -1103 0
-1093 -1104 0
-1093 -1105 0
-1093 -1106 0
-1093 -1107 0
-1093 -1108 0
-1093 -1109 0
-1093 -1110 0
-1093 -1111 0
-1093 -1112 0
-1093 -1113 0
-1093 -1114 0
-1093 -1115 0
-1093 -1116 0
-1093 -1117 0
-1093 -1118 0
-1093 -1119 0
-1093 -1120 0
-1093 -1121 0
-1093 -1122 0
-1093 -1123 0
-1093 -1124 0
-1093 -1125 0
-1093 -1126 0
-1093 -1127 0
-1093 -1128 0
-1093 -1129 0
-1093 -1130 0
-1093 -1131 0
-1093 -1132 0
-1093 -1133 0
-1093 -1134 0
-1093 -1135 0
-1093 -1136 0
-1093 -1137 0
-1093 -1138 0
-1093 -1139 0
-1093 -1140 0
-1093 -1141 0
-1093 -1142 0
-1093 -1143 0
-1093 -1144 0
-1093 -1145 0
-1093 -1146 0
-1093 -1147 0
-1093 -1148 0
-1093 -1149 0
-1093 -1150 0
-1093 -1151 0
-1093 -1152 0
-1093 -1153 0
-1093 -1154 0
-1094 -1095 0
-1094 -1096 0
-1094 -1097 0
-1094 -1098 0
-1094 -1099 0
-1094 -1100 0
-1094 -1101 0
-1094 -1102 0
-1094 -1103 0
-1094 -1104 0
-1094 -1105 0
-1094 -1106 0
-1094 -1107 0
-1094 -1108 0
-1094 -1109 0
-1094 -1110 0
-1094 -1111 0
-1094 -1112 0
-1094 -1113 0
-1094 -1114 0
-1094 -1115 0
-1094 -1116 0
-1094 -1117 0
-1094 -1118 0
-1094 -1119 0
-1094 -1120 0
-1094 -1121 0
-1094 -1122 0
-1094 -1123 0
-1094 -1124 0
-1094 -1125 0
-1094 -1126 0
-1094 -1127 0
-1094 -1128 0
-1094 -1129 0
-1094 -1130 0
-1094 -1131 0
-1094 -1132 0
-1094 -1133 0
-1094 -1134 0
-1094 -1135 0
-1094 -1136 0
-1094 -1137 0
-1094 -1138 0
-1094 -1139 0
-1094 -1140 0
-1094 -1141 0
-1094 -1142 0
-1094 -1143 0
-1094 -1144 0
-1094 -1145 0
-1094 -1146 0
-1094 -1147 0
-1094 -1148 0
-1094 -1149 0
-1094 -1150 0
-1094 -1151 0
-1094 -1152 0
-1094 -1153 0
-1094 -1154 0
-1095 -1096 0
-1095 -1097 0
-1095 -1098 0
-1095 -1099 0
-1095 -1100 0
-1095 -1101 0
-1095 -1102 0
-1095 -1103 0
-1095 -1104 0
-1095 -1105 0
-1095 -1106 0
-1095 -1107 0
-1095 -1108 0
-1095 -1109 0
-1095 -1110 0
-1095 -1111 0
-1095 -1112 0
-1095 -1113 0
-1095 -1114 0
-1095 -1115 0
-1095 -1116 0
-1095 -1117 0
-1095 -1118 0
-1095 -1119 0
-1095 -1120 0
-1095 -1121 0
-1095 -1122 0
-1095 -1123 0
-1095 -1124 0
-1095 -1125 0
-1095 -1126 0
-1095 -1127 0
-1095 -1128 0
-1095 -1129 0
-1095 -1130 0
-1095 -1131 0
-1095 -1132 0
-1095 -1133 0
-1095 -1134 0
-1095 -1135 0
-1095 -1136 0
-1095 -1137 0
-1095 -1138 0
-1095 -1139 0
-1095 -1140 0
-1095 -1141 0
-1095 -1142 0
-1095 -1143 0
-1095 -1144 0
-1095 -1145 0
-1095 -1146 0
-1095 -1147 0
-1095 -1148 0
-1095 -1149 0
-1095 -1150 0
-1095 -1151 0
-1095 -1152 0
-1095 -1153 0
-1095 -1154 0
-1096 -1097 0
-1096 -1098 0
-1096 -1099 0
-1096 -1100 0
-1096 -1101 0
-1096 -1102 0
-1096 -1103 0
-1096 -1104 0
-1096 -1105 0
-1096 -1106 0
-1096 -1107 0
-1096 -1108 0
-1096 -1109 0
-1096 -1110 0
-1096 -1111 0
-1096 -1112 0
-1096 -1113 0
-1096 -1114 0
-1096 -1115 0
-1096 -1116 0
-1096 -1117 0
-1096 -1118 0
-1096 -1119 0
-1096 -1120 0
-1096 -1121 0
-1096 -1122 0
-1096 -1123 0
-1096 -1124 0
-1096 -1125 0
-1096 -1126 0
-1096 -1127 0
-1096 -1128 0
-1096 -1129 0
-1096 -1130 0
-1096 -1131 0
-1096 -1132 0
-1096 -1133 0
-1096 -1134 0
-1096 -1135 0
-1096 -1136 0
-1096 -1137 0
-1096 -1138 0
-1096 -1139 0
-1096 -1140 0
-1096 -1141 0
-1096 -1142 0
-1096 -1143 0
-1096 -1144 0
-1096 -1145 0
-1096 -1146 0
-1096 -1147 0
-1096 -1148 0
-1096 -1149 0
-1096 -1150 0
-1096 -1151 0
-1096 -1152 0
-1096 -1153 0
-1096 -1154 0
-1097 -1098 0
-1097 -1099 0
-1097 -1100 0
-1097 -1101 0
-1097 -1102 0
-1097 -1103 0
-1097 -1104 0
-1097 -1105 0
-1097 -1106 0
-1097 -1107 0
-1097 -1108 0
-1097 -1109 0
-1097 -1110 0
-1097 -1111 0
-1097 -1112 0
-1097 -1113 0
-1097 -1114 0
-1097 -1115 0
-1097 -1116 0
-1097 -1117 0
-1097 -1118 0
-1097 -1119 0
-1097 -1120 0
-1097 -1121 0
-1097 -1122 0
-1097 -1123 0
-1097 -1124 0
-1097 -1125 0
-1097 -1126 0
-1097 -1127 0
-1097 -1128 0
-1097 -1129 0
-1097 -1130 0
-1097 -1131 0
-1097 -1132 0
-1097 -1133 0
-1097 -1134 0
-1097 -1135 0
-1097 -1136 0
-1097 -1137 0
-1097 -1138 0
-1097 -1139 0
-1097 -1140 0
-1097 -1141 0
-1097 -1142 0
-1097 -1143 0
-1097 -1144 0
-1097 -1145 0
-1097 -1146 0
-1097 -1147 0
-1097 -1148 0
-1097 -1149 0
-1097 -1150 0
-1097 -1151 0
-1097 -1152 0
-1097 -1153 0
-1097 -1154 0
-1098 -1099 0
-1098 -1100 0
-1098 -1101 0
-1098 -1102 0
-1098 -1103 0
-1098 -1104 0
-1098 -1105 0
-1098 -1106 0
-1098 -1107 0
-1098 -1108 0
-1098 -1109 0
-1098 -1110 0
-1098 -1111 0
-1098 -1112 0
-1098 -1113 0
-1098 -1114 0
-1098 -1115 0
-1098 -1116 0
-1098 -1117 0
-1098 -1118 0
-1098 -1119 0
-1098 -1120 0
-1098 -1121 0
-1098 -1122 0
-1098 -1123 0
-1098 -1124 0
-1098 -1125 0
-1098 -1126 0
-1098 -1127 0
-1098 -1128 0
-1098 -1129 0
-1098 -1130 0
-1098 -1131 0
-1098 -1132 0
-1098 -1133 0
-1098 -1134 0
-1098 -1135 0
-1098 -1136 0
-1098 -1137 0
-1098 -1138 0
-1098 -1139 0
-1098 -1140 0
-1098 -1141 0
-1098 -1142 0
-1098 -1143 0
-1098 -1144 0
-1098 -1145 0
-1098 -1146 0
-1098 -1147 0
-1098 -1148 0
-1098 -1149 0
-1098 -1150 0
-1098 -1151 0
-1098 -1152 0
-1098 -1153 0
-1098 -1154 0
-1099 -1100 0
-1099 -1101 0
-1099 -1102 0
-1099 -1103 0
-1099 -1104 0
-1099 -1105 0
-1099 -1106 0
-1099 -1107 0
-1099 -1108 0
-1099 -1109 0
-1099 -1110 0
-1099 -1111 0
-1099 -1112 0
-1099 -1113 0
-1099 -1114 0
-1099 -1115 0
-1099 -1116 0
-1099 -1117 0
-1099 -1118 0
-1099 -1119 0
-1099 -1120 0
-1099 -1121 0
-1099 -1122 0
-1099 -1123 0
-1099 -1124 0
-1099 -1125 0
-1099 -1126 0
-1099 -1127 0
-1099 -1128 0
-1099 -1129 0
-1099 -1130 0
-1099 -1131 0
-1099 -1132 0
-1099 -1133 0
-1099 -1134 0
-1099 -1135 0
-1099 -1136 0
-1099 -1137 0
-1099 -1138 0
-1099 -1139 0
-1099 -1140 0
-1099 -1141 0
-1099 -1142 0
-1099 -1143 0
-1099 -1144 0
-1099 -1145 0
-1099 -1146 0
-1099 -1147 0
-1099 -1148 0
-1099 -1149 0
-1099 -1150 0
-1099 -1151 0
-1099 -1152 0
-1099 -1153 0
-1099 -1154 0
-1100 -1101 0
-1100 -1102 0
-1100 -1103 0
-1100 -1104 0
-1100 -1105 0
-1100 -1106 0
-1100 -1107 0
-1100 -1108 0
-1100 -1109 0
-1100 -1110 0
-1100 -1111 0
-1100 -1112 0
-1100 -1113 0
-1100 -1114 0
-1100 -1115 0
-1100 -1116 0
-1100 -1117 0
-1100 -1118 0
-1100 -1119 0
-1100 -1120 0
-1100 -1121 0
-1100 -1122 0
-1100 -1123 0
-1100 -1124 0
-1100 -1125 0
-1100 -1126 0
-1100 -1127 0
-1100 -1128 0
-1100 -1129 0
-1100 -1130 0
-1100 -1131 0
-1100 -1132 0
-1100 -1133 0
-1100 -1134 0
-1100 -1135 0
-1100 -1136 0
-1100 -1137 0
-1100 -1138 0
-1100 -1139 0
-1100 -1140 0
-1100 -1141 0
-1100 -1142 0
-1100 -1143 0
-1100 -1144 0
-1100 -1145 0
-1100 -1146 0
-1100 -1147 0
-1100 -1148 0
-1100 -1149 0
-1100 -1150 0
-1100 -1151 0
-1100 -1152 0
-1100 -1153 0
-1100 -1154 0
-1101 -1102 0
-1101 -1103 0
-1101 -1104 0
-1101 -1105 0
-1101 -1106 0
-1101 -1107 0
-1101 -1108 0
-1101 -1109 0
-1101 -1110 0
-1101 -1111 0
-1101 -1112 0
-1101 -1113 0
-1101 -1114 0
-1101 -1115 0
-1101 -1116 0
-1101 -1117 0
-1101 -1118 0
-1101 -1119 0
-1101 -1120 0
-1101 -1121 0
-1101 -1122 0
-1101 -1123 0
-1101 -1124 0
-1101 -1125 0
-1101 -1126 0
-1101 -1127 0
-1101 -1128 0
-1101 -1129 0
-1101 -1130 0
-1101 -1131 0
-1101 -1132 0
-1101 -1133 0
-1101 -1134 0
-1101 -1135 0
-1101 -1136 0
-1101 -1137 0
-1101 -1138 0
-1101 -1139 0
-1101 -1140 0
-1101 -1141 0
-1101 -1142 0
-1101 -1143 0
-1101 -1144 0
-1101 -1145 0
-1101 -1146 0
-1101 -1147 0
-1101 -1148 0
-1101 -1149 0
-1101 -1150 0
-1101 -1151 0
-1101 -1152 0
-1101 -1153 0
-1101 -1154 0
-1102 -1103 0
-1102 -1104 0
-1102 -1105 0
-1102 -1106 0
-1102 -1107 0
-1102 -1108 0
-1102 -1109 0
-1102 -1110 0
-1102 -1111 0
-1102 -1112 0
-1102 -1113 0
-1102 -1114 0
-1102 -1115 0
-1102 -1116 0
-1102 -1117 0
-1102 -1118 0
-1102 -1119 0
-1102 -1120 0
-1102 -1121 0
-1102 -1122 0
-1102 -1123 0
-1102 -1124 0
-1102 -1125 0
-1102 -1126 0
-1102 -1127 0
-1102 -1128 0
-1102 -1129 0
-1102 -1130 0
-1102 -1131 0
-1102 -1132 0
-1102 -1133 0
-1102 -1134 0
-1102 -1135 0
-1102 -1136 0
-1102 -1137 0
-1102 -1138 0
-1102 -1139 0
-1102 -1140 0
-1102 -1141 0
-1102 -1142 0
-1102 -1143 0
-1102 -1144 0
-1102 -1145 0
-1102 -1146 0
-1102 -1147 0
-1102 -1148 0
-1102 -1149 0
-1102 -1150 0
-1102 -1151 0
-1102 -1152 0
-1102 -1153 0
-1102 -1154 0
-1103 -1104 0
-1103 -1105 0
-1103 -1106 0
-1103 -1107 0
-1103 -1108 0
-1103 -1109 0
-1103 -1110 0
-1103 -1111 0
-1103 -1112 0
-1103 -1113 0
-1103 -1114 0
-1103 -1115 0
-1103 -1116 0
-1103 -1117 0
-1103 -1118 0
-1103 -1119 0
-1103 -1120 0
-1103 -1121 0
-1103 -1122 0
-1103 -1123 0
-1103 -1124 0
-1103 -1125 0
-1103 -1126 0
-1103 -1127 0
-1103 -1128 0
-1103 -1129 0
-1103 -1130 0
-1103 -1131 0
-1103 -1132 0
-1103 -1133 0
-1103 -1134 0
-1103 -1135 0
-1103 -1136 0
-1103 -1137 0
-1103 -1138 0
-1103 -1139 0
-1103 -1140 0
-1103 -1141 0
-1103 -1142 0
-1103 -1143 0
-1103 -1144 0
-1103 -1145 0
-1103 -1146 0
-1103 -1147 0
-1103 -1148 0
-1103 -1149 0
-1103 -1150 0
-1103 -1151 0
-1103 -1152 0
-1103 -1153 0
-1103 -1154 0
-1104 -1105 0
-1104 -1106 0
-1104 -1107 0
-1104 -1108 0
-1104 -1109 0
-1104 -1110 0
-1104 -1111 0
-1104 -1112 0
-1104 -1113 0
-1104 -1114 0
-1104 -1115 0
-1104 -1116 0
-1104 -1117 0
-1104 -1118 0
-1104 -1119 0
-1104 -1120 0
-1104 -1121 0
-1104 -1122 0
-1104 -1123 0
-1104 -1124 0
-1104 -1125 0
-1104 -1126 0
-1104 -1127 0
-1104 -1128 0
-1104 -1129 0
-1104 -1130 0
-1104 -1131 0
-1104 -1132 0
-1104 -1133 0
-1104 -1134 0
-1104 -1135 0
-1104 -1136 0
-1104 -1137 0
-1104 -1138 0
-1104 -1139 0
-1104 -1140 0
-1104 -1141 0
-1104 -1142 0
-1104 -1143 0
-1104 -1144 0
-1104 -1145 0
-1104 -1146 0
-1104 -1147 0
-1104 -1148 0
-1104 -1149 0
-1104 -1150 0
-1104 -1151 0
-1104 -1152 0
-1104 -1153 0
-1104 -1154 0
-1105 -1106 0
-1105 -1107 0
-1105 -1108 0
-1105 -1109 0
-1105 -1110 0
-1105 -1111 0
-1105 -1112 0
-1105 -1113 0
-1105 -1114 0
-1105 -1115 0
-1105 -1116 0
-1105 -1117 0
-1105 -1118 0
-1105 -1119 0
-1105 -1120 0
-1105 -1121 0
-1105 -1122 0
-1105 -1123 0
-1105 -1124 0
-1105 -1125 0
-1105 -1126 0
-1105 -1127 0
-1105 -1128 0
-1105 -1129 0
-1105 -1130 0
-1105 -1131 0
-1105 -1132 0
-1105 -1133 0
-1105 -1134 0
-1105 -1135 0
-1105 -1136 0
-1105 -1137 0
-1105 -1138 0
-1105 -1139 0
-1105 -1140 0
-1105 -1141 0
-1105 -1142 0
-1105 -1143 0
-1105 -1144 0
-1105 -1145 0
-1105 -1146 0
-1105 -1147 0
-1105 -1148 0
-1105 -1149 0
-1105 -1150 0
-1105 -1151 0
-1105 -1152 0
-1105 -1153 0
-1105 -1154 0
-1106 -1107 0
-1106 -1108 0
-1106 -1109 0
-1106 -1110 0
-1106 -1111 0
-1106 -1112 0
-1106 -1113 0
-1106 -1114 0
-1106 -1115 0
-1106 -1116 0
-1106 -1117 0
-1106 -1118 0
-1106 -1119 0
-1106 -1120 0
-1106 -1121 0
-1106 -1122 0
-1106 -1123 0
-1106 -1124 0
-1106 -1125 0
-1106 -1126 0
-1106 -1127 0
-1106 -1128 0
-1106 -1129 0
-1106 -1130 0
-1106 -1131 0
-1106 -1132 0
-1106 -1133 0
-1106 -1134 0
-1106 -1135 0
-1106 -1136 0
-1106 -1137 0
-1106 -1138 0
-1106 -1139 0
-1106 -1140 0
-1106 -1141 0
-1106 -1142 0
-1106 -1143 0
-1106 -1144 0
-1106 -1145 0
-1106 -1146 0
-1106 -1147 0
-1106 -1148 0
-1106 -1149 0
-1106 -1150 0
-1106 -1151 0
-1106 -1152 0
-1106 -1153 0
-1106 -1154 0
-1107 -1108 0
-1107 -1109 0
-1107 -1110 0
-1107 -1111 0
-1107 -1112 0
-1107 -1113 0
-1107 -1114 0
-1107 -1115 0
-1107 -1116 0
-1107 -1117 0
-1107 -1118 0
-1107 -1119 0
-1107 -1120 0
-1107 -1121 0
-1107 -1122 0
-1107 -1123 0
-1107 -1124 0
-1107 -1125 0
-1107 -1126 0
-1107 -1127 0
-1107 -1128 0
-1107 -1129 0
-1107 -1130 0
-1107 -1131 0
-1107 -1132 0
-1107 -1133 0
-1107 -1134 0
-1107 -1135 0
-1107 -1136 0
-1107 -1137 0
-1107 -1138 0
-1107 -1139 0
-1107 -1140 0
-1107 -1141 0
-1107 -1142 0
-1107 -1143 0
-1107 -1144 0
-1107 -1145 0
-1107 -1146 0
-1107 -1147 0
-1107 -1148 0
-1107 -1149 0
-1107 -1150 0
-1107 -1151 0
-1107 -1152 0
-1107 -1153 0
-1107 -1154 0
-1108 -1109 0
-1108 -1110 0
-1108 -1111 0
-1108 -1112 0
-1108 -1113 0
-1108 -1114 0
-1108 -1115 0
-1108 -1116 0
-1108 -1117 0
-1108 -1118 0
-1108 -1119 0
-1108 -1120 0
-1108 -1121 0
-1108 -1122 0
-1108 -1123 0
-1108 -1124 0
-1108 -1125 0
-1108 -1126 0
-1108 -1127 0
-1108 -1128 0
-1108 -1129 0
-1108 -1130 0
-1108 -1131 0
-1108 -1132 0
-1108 -1133 0
-1108 -1134 0
-1108 -1135 0
-1108 -1136 0
-1108 -1137 0
-1108 -1138 0
-1108 -1139 0
-1108 -1140 0
-1108 -1141 0
-1108 -1142 0
-1108 -1143 0
-1108 -1144 0
-1108 -1145 0
-1108 -1146 0
-1108 -1147 0
-1108 -1148 0
-1108 -1149 0
-1108 -1150 0
-1108 -1151 0
-1108 -1152 0
-1108 -1153 0
-1108 -1154 0
-1109 -1110 0
-1109 -1111 0
-1109 -1112 0
-1109 -1113 0
-1109 -1114 0
-1109 -1115 0
-1109 -1116 0
-1109 -1117 0
-1109 -1118 0
-1109 -1119 0
-1109 -1120 0
-1109 -1121 0
-1109 -1122 0
-1109 -1123 0
-1109 -1124 0
-1109 -1125 0
-1109 -1126 0
-1109 -1127 0
-1109 -1128 0
-1109 -1129 0
-1109 -1130 0
-1109 -1131 0
-1109 -1132 0
-1109 -1133 0
-1109 -1134 0
-1109 -1135 0
-1109 -1136 0
-1109 -1137 0
-1109 -1138 0
-1109 -1139 0
-1109 -1140 0
-1109 -1141 0
-1109 -1142 0
-1109 -1143 0
-1109 -1144 0
-1109 -1145 0
-1109 -1146 0
-1109 -1147 0
-1109 -1148 0
-1109 -1149 0
-1109 -1150 0
-1109 -1151 0
-1109 -1152 0
-1109 -1153 0
-1109 -1154 0
-1110 -1111 0
-1110 -1112 0
-1110 -1113 0
-1110 -1114 0
-1110 -1115 0
-1110 -1116 0
-1110 -1117 0
-1110 -1118 0
-1110 -1119 0
-1110 -1120 0
-1110 -1121 0
-1110 -1122 0
-1110 -1123 0
-1110 -1124 0
-1110 -1125 0
-1110 -1126 0
-1110 -1127 0
-1110 -1128 0
-1110 -1129 0
-1110 -1130 0
-1110 -1131 0
-1110 -1132 0
-1110 -1133 0
-1110 -1134 0
-1110 -1135 0
-1110 -1136 0
-1110 -1137 0
-1110 -1138 0
-1110 -1139 0
-1110 -1140 0
-1110 -1141 0
-1110 -1142 0
-1110 -1143 0
-1110 -1144 0
-1110 -1145 0
-1110 -1146 0
-1110 -1147 0
-1110 -1148 0
-1110 -1149 0
-1110 -1150 0
-1110 -1151 0
-1110 -1152 0
-1110 -1153 0
-1110 -1154 0
-1111 -1112 0
-1111 -1113 0
-1111 -1114 0
-1111 -1115 0
-1111 -1116 0
-1111 -1117 0
-1111 -1118 0
-1111 -1119 0
-1111 -1120 0
-1111 -1121 0
-1111 -1122 0
-1111 -1123 0
-1111 -1124 0
-1111 -1125 0
-1111 -1126 0
-1111 -1127 0
-1111 -1128 0
-1111 -1129 0
-1111 -1130 0
-1111 -1131 0
-1111 -1132 0
-1111 -1133 0
-1111 -1134 0
-1111 -1135 0
-1111 -1136 0
-1111 -1137 0
-1111 -1138 0
-1111 -1139 0
-1111 -1140 0
-1111 -1141 0
-1111 -1142 0
-1111 -1143 0
-1111 -1144 0
-1111 -1145 0
-1111 -1146 0
-1111 -1147 0
-1111 -1148 0
-1111 -1149 0
-1111 -1150 0
-1111 -1151 0
-1111 -1152 0
-1111 -1153 0
-1111 -1154 0
-1112 -1113 0
-1112 -1114 0
-1112 -1115 0
-1112 -1116 0
-1112 -1117 0
-1112 -1118 0
-1112 -1119 0
-1112 -1120 0
-1112 -1121 0
-1112 -1122 0
-1112 -1123 0
-1112 -1124 0
-1112 -1125 0
-1112 -1126 0
-1112 -1127 0
-1112 -1128 0
-1112 -1129 0
-1112 -1130 0
-1112 -1131 0
-1112 -1132 0
-1112 -1133 0
-1112 -1134 0
-1112 -1135 0
-1112 -1136 0
-1112 -1137 0
-1112 -1138 0
-1112 -1139 0
-1112 -1140 0
-1112 -1141 0
-1112 -1142 0
-1112 -1143 0
-1112 -1144 0
-1112 -1145 0
-1112 -1146 0
-1112 -1147 0
-1112 -1148 0
-1112 -1149 0
-1112 -1150 0
-1112 -1151 0
-1112 -1152 0
-1112 -1153 0
-1112 -1154 0
-1113 -1114 0
-1113 -1115 0
-1113 -1116 0
-1113 -1117 0
-1113 -1118 0
-1113 -1119 0
-1113 -1120 0
-1113 -1121 0
-1113 -1122 0
-1113 -1123 0
-1113 -1124 0
-1113 -1125 0
-1113 -1126 0
-1113 -1127 0
-1113 -1128 0
-1113 -1129 0
-1113 -1130 0
-1113 -1131 0
-1113 -1132 0
-1113 -1133 0
-1113 -1134 0
-1113 -1135 0
-1113 -1136 0
-1113 -1137 0
-1113 -1138 0
-1113 -1139 0
-1113 -1140 0
-1113 -1141 0
-1113 -1142 0
-1113 -1143 0
-1113 -1144 0
-1113 -1145 0
-1113 -1146 0
-1113 -1147 0
-1113 -1148 0
-1113 -1149 0
-1113 -1150 0
-1113 -1151 0
-1113 -1152 0
-1113 -1153 0
-1113 -1154 0
-1114 -1115 0
-1114 -1116 0
-1114 -1117 0
-1114 -1118 0
-1114 -1119 0
-1114 -1120 0
-1114 -1121 0
-1114 -1122 0
-1114 -1123 0
-1114 -1124 0
-1114 -1125 0
-1114 -1126 0
-1114 -1127 0
-1114 -1128 0
-1114 -1129 0
-1114 -1130 0
-1114 -1131 0
-1114 -1132 0
-1114 -1133 0
-1114 -1134 0
-1114 -1135 0
-1114 -1136 0
-1114 -1137 0
-1114 -1138 0
-1114 -1139 0
-1114 -1140 0
-1114 -1141 0
-1114 -1142 0
-1114 -1143 0
-1114 -1144 0
-1114 -1145 0
-1114 -1146 0
-1114 -1147 0
-1114 -1148 0
-1114 -1149 0
-1114 -1150 0
-1114 -1151 0
-1114 -1152 0
-1114 -1153 0
-1114 -1154 0
-1115 -1116 0
-1115 -1117 0
-1115 -1118 0
-1115 -1119 0
-1115 -1120 0
-1115 -1121 0
-1115 -1122 0
-1115 -1123 0
-1115 -1124 0
-1115 -1125 0
-1115 -1126 0
-1115 -1127 0
-1115 -1128 0
-1115 -1129 0
-1115 -1130 0
-1115 -1131 0
-1115 -1132 0
-1115 -1133 0
-1115 -1134 0
-1115 -1135 0
-1115 -1136 0
-1115 -1137 0
-1115 -1138 0
-1115 -1139 0
-1115 -1140 0
-1115 -1141 0
-1115 -1142 0
-1115 -1143 0
-1115 -1144 0
-1115 -1145 0
-1115 -1146 0
-1115 -1147 0
-1115 -1148 0
-1115 -1149 0
-1115 -1150 0
-1115 -1151 0
-1115 -1152 0
-1115 -1153 0
-1115 -1154 0
-1116 -1117 0
-1116 -1118 0
-1116 -1119 0
-1116 -1120 0
-1116 -1121 0
-1116 -1122 0
-1116 -1123 0
-1116 -1124 0
-1116 -1125 0
-1116 -1126 0
-1116 -1127 0
-1116 -1128 0
-1116 -1129 0
-1116 -1130 0
-1116 -1131 0
-1116 -1132 0
-1116 -1133 0
-1116 -1134 0
-1116 -1135 0
-1116 -1136 0
-1116 -1137 0
-1116 -1138 0
-1116 -1139 0
-1116 -1140 0
-1116 -1141 0
-1116 -1142 0
-1116 -1143 0
-1116 -1144 0
-1116 -1145 0
-1116 -1146 0
-1116 -1147 0
-1116 -1148 0
-1116 -1149 0
-1116 -1150 0
-1116 -1151 0
-1116 -1152 0
-1116 -1153 0
-1116 -1154 0
-1117 -1118 0
-1117 -1119 0
-1117 -1120 0
-1117 -1121 0
-1117 -1122 0
-1117 -1123 0
-1117 -1124 0
-1117 -1125 0
-1117 -1126 0
-1117 -1127 0
-1117 -1128 0
-1117 -1129 0
-1117 -1130 0
-1117 -1131 0
-1117 -1132 0
-1117 -1133 0
-1117 -1134 0
-1117 -1135 0
-1117 -1136 0
-1117 -1137 0
-1117 -1138 0
-1117 -1139 0
-1117 -1140 0
-1117 -1141 0
-1117 -1142 0
-1117 -1143 0
-1117 -1144 0
-1117 -1145 0
-1117 -1146 0
-1117 -1147 0
-1117 -1148 0
-1117 -1149 0
-1117 -1150 0
-1117 -1151 0
-1117 -1152 0
-1117 -1153 0
-1117 -1154 0
-1118 -1119 0
-1118 -1120 0
-1118 -1121 0
-1118 -1122 0
-1118 -1123 0
-1118 -1124 0
-1118 -1125 0
-1118 -1126 0
-1118 -1127 0
-1118 -1128 0
-1118 -1129 0
-1118 -1130 0
-1118 -1131 0
-1118 -1132 0
-1118 -1133 0
-1118 -1134 0
-1118 -1135 0
-1118 -1136 0
-1118 -1137 0
-1118 -1138 0
-1118 -1139 0
-1118 -1140 0
-1118 -1141 0
-1118 -1142 0
-1118 -1143 0
-1118 -1144 0
-1118 -1145 0
-1118 -1146 0
-1118 -1147 0
-1118 -1148 0
-1118 -1149 0
-1118 -1150 0
-1118 -1151 0
-1118 -1152 0
-1118 -1153 0
-1118 -1154 0
-1119 -1120 0
-1119 -1121 0
-1119 -1122 0
-1119 -1123 0
-1119 -1124 0
-1119 -1125 0
-1119 -1126 0
-1119 -1127 0
-1119 -1128 0
-1119 -1129 0
-1119 -1130 0
-1119 -1131 0
-1119 -1132 0
-1119 -1133 0
-1119 -1134 0
-1119 -1135 0
-1119 -1136 0
-1119 -1137 0
-1119 -1138 0
-1119 -1139 0
-1119 -1140 0
-1119 -1141 0
-1119 -1142 0
-1119 -1143 0
-1119 -1144 0
-1119 -1145 0
-1119 -1146 0
-1119 -1147 0
-1119 -1148 0
-1119 -1149 0
-1119 -1150 0
-1119 -1151 0
-1119 -1152 0
-1119 -1153 0
-1119 -1154 0
-1120 -1121 0
-1120 -1122 0
-1120 -1123 0
-1120 -1124 0
-1120 -1125 0
-1120 -1126 0
-1120 -1127 0
-1120 -1128 0
-1120 -1129 0
-1120 -1130 0
-1120 -1131 0
-1120 -1132 0
-1120 -1133 0
-1120 -1134 0
-1120 -1135 0
-1120 -1136 0
-1120 -1137 0
-1120 -1138 0
-1120 -1139 0
-1120 -1140 0
-1120 -1141 0
-1120 -1142 0
-1120 -1143 0
-1120 -1144 0
-1120 -1145 0
-1120 -1146 0
-1120 -1147 0
-1120 -1148 0
-1120 -1149 0
-1120 -1150 0
-1120 -1151 0
-1120 -1152 0
-1120 -1153 0
-1120 -1154 0
-1121 -1122 0
-1121 -1123 0
-1121 -1124 0
-1121 -1125 0
-1121 -1126 0
-1121 -1127 0
-1121 -1128 0
-1121 -1129 0
-1121 -1130 0
-1121 -1131 0
-1121 -1132 0
-1121 -1133 0
-1121 -1134 0
-1121 -1135 0
-1121 -1136 0
-1121 -1137 0
-1121 -1138 0
-1121 -1139 0
-1121 -1140 0
-1121 -1141 0
-1121 -1142 0
-1121 -1143 0
-1121 -1144 0
-1121 -1145 0
-1121 -1146 0
-1121 -1147 0
-1121 -1148 0
-1121 -1149 0
-1121 -1150 0
-1121 -1151 0
-1121 -1152 0
-1121 -1153 0
-1121 -1154 0
-1122 -1123 0
-1122 -1124 0
-1122 -1125 0
-1122 -1126 0
-1122 -1127 0
-1122 -1128 0
-1122 -1129 0
-1122 -1130 0
-1122 -1131 0
-1122 -1132 0
-1122 -1133 0
-1122 -1134 0
-1122 -1135 0
-1122 -1136 0
-1122 -1137 0
-1122 -1138 0
-1122 -1139 0
-1122 -1140 0
-1122 -1141 0
-1122 -1142 0
-1122 -1143 0
-1122 -1144 0
-1122 -1145 0
-1122 -1146 0
-1122 -1147 0
-1122 -1148 0
-1122 -1149 0
-1122 -1150 0
-1122 -1151 0
-1122 -1152 0
-1122 -1153 0
-1122 -1154 0
-1123 -1124 0
-1123 -1125 0
-1123 -1126 0
-1123 -1127 0
-1123 -1128 0
-1123 -1129 0
-1123 -1130 0
-1123 -1131 0
-1123 -1132 0
-1123 -1133 0
-1123 -1134 0
-1123 -1135 0
-1123 -1136 0
-1123 -1137 0
-1123 -1138 0
-1123 -1139 0
-1123 -1140 0
-1123 -1141 0
-1123 -1142 0
-1123 -1143 0
-1123 -1144 0
-1123 -1145 0
-1123 -1146 0
-1123 -1147 0
-1123 -1148 0
-1123 -1149 0
-1123 -1150 0
-1123 -1151 0
-1123 -1152 0
-1123 -1153 0
-1123 -1154 0
-1124 -1125 0
-1124 -1126 0
-1124 -1127 0
-1124 -1128 0
-1124 -1129 0
-1124 -1130 0
-1124 -1131 0
-1124 -1132 0
-1124 -1133 0
-1124 -1134 0
-1124 -1135 0
-1124 -1136 0
-1124 -1137 0
-1124 -1138 0
-1124 -1139 0
-1124 -1140 0
-1124 -1141 0
-1124 -1142 0
-1124 -1143 0
-1124 -1144 0
-1124 -1145 0
-1124 -1146 0
-1124 -1147 0
-1124 -1148 0
-1124 -1149 0
-1124 -1150 0
-1124 -1151 0
-1124 -1152 0
-1124 -1153 0
-1124 -1154 0
-1125 -1126 0
-1125 -1127 0
-1125 -1128 0
-1125 -1129 0
-1125 -1130 0
-1125 -1131 0
-1125 -1132 0
-1125 -1133 0
-1125 -1134 0
-1125 -1135 0
-1125 -1136 0
-1125 -1137 0
-1125 -1138 0
-1125 -1139 0
-1125 -1140 0
-1125 -1141 0
-1125 -1142 0
-1125 -1143 0
-1125 -1144 0
-1125 -1145 0
-1125 -1146 0
-1125 -1147 0
-1125 -1148 0
-1125 -1149 0
-1125 -1150 0
-1125 -1151 0
-1125 -1152 0
-1125 -1153 0
-1125 -1154 0
-1126 -1127 0
-1126 -1128 0
-1126 -1129 0
-1126 -1130 0
-1126 -1131 0
-1126 -1132 0
-1126 -1133 0
-1126 -1134 0
-1126 -1135 0
-1126 -1136 0
-1126 -1137 0
-1126 -1138 0
-1126 -1139 0
-1126 -1140 0
-1126 -1141 0
-1126 -1142 0
-1126 -1143 0
-1126 -1144 0
-1126 -1145 0
-1126 -1146 0
-1126 -1147 0
-1126 -1148 0
-1126 -1149 0
-1126 -1150 0
-1126 -1151 0
-1126 -1152 0
-1126 -1153 0
-1126 -1154 0
-1127 -1128 0
-1127 -1129 0
-1127 -1130 0
-1127 -1131 0
-1127 -1132 0
-1127 -1133 0
-1127 -1134 0
-1127 -1135 0
-1127 -1136 0
-1127 -1137 0
-1127 -1138 0
-1127 -1139 0
-1127 -1140 0
-1127 -1141 0
-1127 -1142 0
-1127 -1143 0
-1127 -1144 0
-1127 -1145 0
-1127 -1146 0
-1127 -1147 0
-1127 -1148 0
-1127 -1149 0
-1127 -1150 0
-1127 -1151 0
-1127 -1152 0
-1127 -1153 0
-1127 -1154 0
-1128 -1129 0
-1128 -1130 0
-1128 -1131 0
-1128 -1132 0
-1128 -1133 0
-1128 -1134 0
-1128 -1135 0
-1128 -1136 0
-1128 -1137 0
-1128 -1138 0
-1128 -1139 0
-1128 -1140 0
-1128 -1141 0
-1128 -1142 0
-1128 -1143 0
-1128 -1144 0
-1128 -1145 0
-1128 -1146 0
-1128 -1147 0
-1128 -1148 0
-1128 -1149 0
-1128 -1150 0
-1128 -1151 0
-1128 -1152 0
-1128 -1153 0
-1128 -1154 0
-1129 -1130 0
-1129 -1131 0
-1129 -1132 0
-1129 -1133 0
-1129 -1134 0
-1129 -1135 0
-1129 -1136 0
-1129 -1137 0
-1129 -1138 0
-1129 -1139 0
-1129 -1140 0
-1129 -1141 0
-1129 -1142 0
-1129 -1143 0
-1129 -1144 0
-1129 -1145 0
-1129 -1146 0
-1129 -1147 0
-1129 -1148 0
-1129 -1149 0
-1129 -1150 0
-1129 -1151 0
-1129 -1152 0
-1129 -1153 0
-1129 -1154 0
-1130 -1131 0
-1130 -1132 0
-1130 -1133 0
-1130 -1134 0
-1130 -1135 0
-1130 -1136 0
-1130 -1137 0
-1130 -1138 0
-1130 -1139 0
-1130 -1140 0
-1130 -1141 0
-1130 -1142 0
-1130 -1143 0
-1130 -1144 0
-1130 -1145 0
-1130 -1146 0
-1130 -1147 0
-1130 -1148 0
-1130 -1149 0
-1130 -1150 0
-1130 -1151 0
-1130 -1152 0
-1130 -1153 0
-1130 -1154 0
-1131 -1132 0
-1131 -1133 0
-1131 -1134 0
-1131 -1135 0
-1131 -1136 0
-1131 -1137 0
-1131 -1138 0
-1131 -1139 0
-1131 -1140 0
-1131 -1141 0
-1131 -1142 0
-1131 -1143 0
-1131 -1144 0
-1131 -1145 0
-1131 -1146 0
-1131 -1147 0
-1131 -1148 0
-1131 -1149 0
-1131 -1150 0
-1131 -1151 0
-1131 -1152 0
-1131 -1153 0
-1131 -1154 0
-1132 -1133 0
-1132 -1134 0
-1132 -1135 0
-1132 -1136 0
-1132 -1137 0
-1132 -1138 0
-1132 -1139 0
-1132 -1140 0
-1132 -1141 0
-1132 -1142 0
-1132 -1143 0
-1132 -1144 0
-1132 -1145 0
-1132 -1146 0
-1132 -1147 0
-1132 -1148 0
-1132 -1149 0
-1132 -1150 0
-1132 -1151 0
-1132 -1152 0
-1132 -1153 0
-1132 -1154 0
-1133 -1134 0
-1133 -1135 0
-1133 -1136 0
-1133 -1137 0
-1133 -1138 0
-1133 -1139 0
-1133 -1140 0
-1133 -1141 0
-1133 -1142 0
-1133 -1143 0
-1133 -1144 0
-1133 -1145 0
-1133 -1146 0
-1133 -1147 0
-1133 -1148 0
-1133 -1149 0
-1133 -1150 0
-1133 -1151 0
-1133 -1152 0
-1133 -1153 0
-1133 -1154 0
-1134 -1135 0
-1134 -1136 0
-1134 -1137 0
-1134 -1138 0
-1134 -1139 0
-1134 -1140 0
-1134 -1141 0
-1134 -1142 0
-1134 -1143 0
-1134 -1144 0
-1134 -1145 0
-1134 -1146 0
-1134 -1147 0
-1134 -1148 0
-1134 -1149 0
-1134 -1150 0
-1134 -1151 0
-1134 -1152 0
-1134 -1153 0
-1134 -1154 0
-1135 -1136 0
-1135 -1137 0
-1135 -1138 0
-1135 -1139 0
-1135 -1140 0
-1135 -1141 0
-1135 -1142 0
-1135 -1143 0
-1135 -1144 0
-1135 -1145 0
-1135 -1146 0
-1135 -1147 0
-1135 -1148 0
-1135 -1149 0
-1135 -1150 0
-1135 -1151 0
-1135 -1152 0
-1135 -1153 0
-1135 -1154 0
-1136 -1137 0
-1136 -1138 0
-1136 -1139 0
-1136 -1140 0
-1136 -1141 0
-1136 -1142 0
-1136 -1143 0
-1136 -1144 0
-1136 -1145 0
-1136 -1146 0
-1136 -1147 0
-1136 -1148 0
-1136 -1149 0
-1136 -1150 0
-1136 -1151 0
-1136 -1152 0
-1136 -1153 0
-1136 -1154 0
-1137 -1138 0
-1137 -1139 0
-1137 -1140 0
-1137 -1141 0
-1137 -1142 0
-1137 -1143 0
-1137 -1144 0
-1137 -1145 0
-1137 -1146 0
-1137 -1147 0
-1137 -1148 0
-1137 -1149 0
-1137 -1150 0
-1137 -1151 0
-1137 -1152 0
-1137 -1153 0
-1137 -1154 0
-1138 -1139 0
-1138 -1140 0
-1138 -1141 0
-1138 -1142 0
-1138 -1143 0
-1138 -1144 0
-1138 -1145 0
-1138 -1146 0
-1138 -1147 0
-1138 -1148 0
-1138 -1149 0
-1138 -1150 0
-1138 -1151 0
-1138 -1152 0
-1138 -1153 0
-1138 -1154 0
-1139 -1140 0
-1139 -1141 0
-1139 -1142 0
-1139 -1143 0
-1139 -1144 0
-1139 -1145 0
-1139 -1146 0
-1139 -1147 0
-1139 -1148 0
-1139 -1149 0
-1139 -1150 0
-1139 -1151 0
-1139 -1152 0
-1139 -1153 0
-1139 -1154 0
-1140 -1141 0
-1140 -1142 0
-1140 -1143 0
-1140 -1144 0
-1140 -1145 0
-1140 -1146 0
-1140 -1147 0
-1140 -1148 0
-1140 -1149 0
-1140 -1150 0
-1140 -1151 0
-1140 -1152 0
-1140 -1153 0
-1140 -1154 0
-1141 -1142 0
-1141 -1143 0
-1141 -1144 0
-1141 -1145 0
-1141 -1146 0
-1141 -1147 0
-1141 -1148 0
-1141 -1149 0
-1141 -1150 0
-1141 -1151 0
-1141 -1152 0
-1141 -1153 0
-1141 -1154 0
-1142 -1143 0
-1142 -1144 0
-1142 -1145 0
-1142 -1146 0
-1142 -1147 0
-1142 -1148 0
-1142 -1149 0
-1142 -1150 0
-1142 -1151 0
-1142 -1152 0
-1142 -1153 0
-1142 -1154 0
-1143 -1144 0
-1143 -1145 0
-1143 -1146 0
-1143 -1147 0
-1143 -1148 0
-1143 -1149 0
-1143 -1150 0
-1143 -1151 0
-1143 -1152 0
-1143 -1153 0
-1143 -1154 0
-1144 -1145 0
-1144 -1146 0
-1144 -1147 0
-1144 -1148 0
-1144 -1149 0
-1144 -1150 0
-1144 -1151 0
-1144 -1152 0
-1144 -1153 0
-1144 -1154 0
-1145 -1146 0
-1145 -1147 0
-1145 -1148 0
-1145 -1149 0
-1145 -1150 0
-1145 -1151 0
-1145 -1152 0
-1145 -1153 0
-1145 -1154 0
-1146 -1147 0
-1146 -1148 0
-1146 -1149 0
-1146 -1150 0
-1146 -1151 0
-1146 -1152 0
-1146 -1153 0
-1146 -1154 0
-1147 -1148 0
-1147 -1149 0
-1147 -1150 0
-1147 -1151 0
-1147 -1152 0
-1147 -1153 0
-1147 -1154 0
-1148 -1149 0
-1148 -1150 0
-1148 -1151 0
-1148 -1152 0
-1148 -1153 0
-1148 -1154 0
-1149 -1150 0
-1149 -1151 0
-1149 -1152 0
-1149 -1153 0
-1149 -1154 0
-1150 -1151 0
-1150 -1152 0
-1150 -1153 0
-1150 -1154 0
-1151 -1152 0
-1151 -1153 0
-1151 -1154 0
-1152 -1153 0
-1152 -1154 0
-1153 -1154 0
-1155 1071 1072 1073 1074 1075 1076 1077 1078 1079 1080 1081 1082 1083 1084 1085 1086 1087 1088 1089 1090 1091 1092 1093 1094 0
-1071 1155 0
-1072 1155 0
-1073 1155 0
-1074 1155 0
-1075 1155 0
-1076 1155 0
-1077 1155 0
-1078 1155 0
-1079 1155 0
-1080 1155 0
-1081 1155 0
-1082 1155 0
-1083 1155 0
-1084 1155 0
-1085 1155 0
-1086 1155 0
-1087 1155 0
-1088 1155 0
-1089 1155 0
-1090 1155 0
-1091 1155 0
-1092 1155 0
-1093 1155 0
-1094 1155 0
1155 -299 448 0
1155 299 -448 0
1155 -300 449 0
1155 300 -449 0
1155 -301 450 0
1155 301 -450 0
1155 -302 451 0
1155 302 -451 0
1155 -303 452 0
1155 303 -452 0
1155 -304 453 0
1155 304 -453 0
1155 -305 454 0
1155 305 -454 0
1155 -306 455 0
1155 306 -455 0
1155 -307 456 0
1155 307 -456 0
1155 -308 457 0
1155 308 -457 0
-1156 1095 1096 1097 1098 1099 1100 1101 1102 1103 1104 1105 1106 1107 1108 1109 1110 1111 1112 1113 1114 1115 1116 1117 1118 0
-1095 1156 0
-1096 1156 0
-1097 1156 0
-1098 1156 0
-1099 1156 0
-1100 1156 0
-1101 1156 0
-1102 1156 0
-1103 1156 0
-1104 1156 0
-1105 1156 0
-1106 1156 0
-1107 1156 0
-1108 1156 0
-1109 1156 0
-1110 1156 0
-1111 1156 0
-1112 1156 0
-1113 1156 0
-1114 1156 0
-1115 1156 0
-1116 1156 0
-1117 1156 0
-1118 1156 0
1156 -309 458 0
1156 309 -458 0
1156 -310 459 0
1156 310 -459 0
1156 -311 460 0
1156 311 -460 0
1156 -312 461 0
1156 312 -461 0
1156 -313 462 0
1156 313 -462 0
1156 -314 463 0
1156 314 -463 0
1156 -315 464 0
1156 315 -464 0
1156 -316 465 0
1156 316 -465 0
1156 -317 466 0
1156 317 -466 0
1156 -318 467 0
1156 318 -467 0
-1157 1119 1120 1121 1122 1123 1124 1125 1126 1127 1128 1129 1130 1131 1132 1133 1134 1135 1136 1137 1138 0
-1119 1157 0
-1120 1157 0
-1121 1157 0
-1122 1157 0
-1123 1157 0
-1124 1157 0
-1125 1157 0
-1126 1157 0
-1127 1157 0
-1128 1157 0
-1129 1157 0
-1130 1157 0
-1131 1157 0
-1132 1157 0
-1133 1157 0
-1134 1157 0
-1135 1157 0
-1136 1157 0
-1137 1157 0
-1138 1157 0
1157 -319 468 0
1157 319 -468 0
1157 -320 469 0
1157 320 -469 0
1157 -321 470 0
1157 321 -470 0
1157 -322 471 0
1157 322 -471 0
1157 -323 472 0
1157 323 -472 0
1157 -324 473 0
1157 324 -473 0
1157 -325 474 0
1157 325 -474 0
1157 -326 475 0
1157 326 -475 0
1157 -327 476 0
1157 327 -476 0
-1158 1139 1140 1141 1142 1143 1144 1145 1146 1147 1148 1149 1150 1151 1152 1153 1154 0
-1139 1158 0
-1140 1158 0
-1141 1158 0
-1142 1158 0
-1143 1158 0
-1144 1158 0
-1145 1158 0
-1146 1158 0
-1147 1158 0
-1148 1158 0
-1149 1158 0
-1150 1158 0
-1151 1158 0
-1152 1158 0
-1153 1158 0
-1154 1158 0
1158 -328 477 0
1158 328 -477 0
1158 -329 478 0
1158 329 -478 0
1158 -330 479 0
1158 330 -479 0
1158 -331 480 0
1158 331 -480 0
1158 -332 481 0
1158 332 -481 0
1158 -333 482 0
1158 333 -482 0
1158 -334 483 0
1158 334 -483 0
1158 -335 484 0
1158 335 -484 0
-1071 444 0
-1071 448 0
-1071 -310 0
-1071 -311 0
-1071 -312 0
-1071 -313 0
-1071 -314 0
-1071 -318 0
-1071 -315 455 0
-1071 -315 -299 -306 0
-1071 -315 -361 0
-1071 -315 -362 0
-1071 -315 -363 0
-1071 -315 -385 0
-1071 -315 -386 0
-1071 -315 -387 0
-1071 -315 -405 0
-1071 -315 -406 0
-1071 -315 -407 0
-1071 -316 456 0
-1071 -316 -299 -307 0
-1071 -316 -362 0
-1071 -316 -363 0
-1071 -316 -386 0
-1071 -316 -387 0
-1071 -316 -406 0
-1071 -316 -407 0
-1071 -317 457 0
-1071 -317 -299 -308 0
-1071 -317 -363 0
-1071 -317 -387 0
-1071 -317 -407 0
-1072 444 0
-1072 449 0
-1072 -309 0
-1072 -311 0
-1072 -312 0
-1072 -313 0
-1072 -314 0
-1072 -318 0
-1072 -315 455 0
-1072 -315 -300 -306 0
-1072 -315 -365 0
-1072 -315 -366 0
-1072 -315 -367 0
-1072 -315 -385 0
-1072 -315 -386 0
-1072 -315 -387 0
-1072 -315 -389 0
-1072 -315 -390 0
-1072 -315 -391 0
-1072 -315 -405 0
-1072 -315 -406 0
-1072 -315 -407 0
-1072 -315 -409 0
-1072 -315 -410 0
-1072 -315 -411 0
-1072 -316 456 0
-1072 -316 -300 -307 0
-1072 -316 -366 0
-1072 -316 -367 0
-1072 -316 -386 0
-1072 -316 -387 0
-1072 -316 -390 0
-1072 -316 -391 0
-1072 -316 -406 0
-1072 -316 -407 0
-1072 -316 -410 0
-1072 -316 -411 0
-1072 -317 457 0
-1072 -317 -300 -308 0
-1072 -317 -367 0
-1072 -317 -387 0
-1072 -317 -391 0
-1072 -317 -407 0
-1072 -317 -411 0
-1073 444 0
-1073 450 0
-1073 -309 0
-1073 -310 0
-1073 -312 0
-1073 -313 0
-1073 -314 0
-1073 -318 0
-1073 -315 455 0
-1073 -315 -301 -306 0
-1073 -315 -369 0
-1073 -315 -370 0
-1073 -315 -371 0
-1073 -315 -389 0
-1073 -315 -390 0
-1073 -315 -391 0
-1073 -315 -393 0
-1073 -315 -394 0
-1073 -315 -395 0
-1073 -315 -405 0
-1073 -315 -406 0
-1073 -315 -407 0
-1073 -315 -409 0
-1073 -315 -410 0
-1073 -315 -411 0
-1073 -315 -413 0
-1073 -315 -414 0
-1073 -315 -415 0
-1073 -316 456 0
-1073 -316 -301 -307 0
-1073 -316 -370 0
-1073 -316 -371 0
-1073 -316 -390 0
-1073 -316 -391 0
-1073 -316 -394 0
-1073 -316 -395 0
-1073 -316 -406 0
-1073 -316 -407 0
-1073 -316 -410 0
-1073 -316 -411 0
-1073 -316 -414 0
-1073 -316 -415 0
-1073 -317 457 0
-1073 -317 -301 -308 0
-1073 -317 -371 0
-1073 -317 -391 0
-1073 -317 -395 0
-1073 -317 -407 0
-1073 -317 -411 0
-1073 -317 -415 0
-1074 444 0
-1074 451 0
-1074 -309 0
-1074 -310 0
-1074 -311 0
-1074 -313 0
-1074 -314 0
-1074 -318 0
-1074 -315 455 0
-1074 -315 -302 -306 0
-1074 -315 -373 0
-1074 -315 -374 0
-1074 -315 -375 0
-1074 -315 -393 0
-1074 -315 -394 0
-1074 -315 -395 0
-1074 -315 -397 0
-1074 -315 -398 0
-1074 -315 -399 0
-1074 -315 -409 0
-1074 -315 -410 0
-1074 -315 -411 0
-1074 -315 -413 0
-1074 -315 -414 0
-1074 -315 -415 0
-1074 -315 -417 0
-1074 -315 -418 0
-1074 -315 -419 0
-1074 -316 456 0
-1074 -316 -302 -307 0
-1074 -316 -374 0
-1074 -316 -375 0
-1074 -316 -394 0
-1074 -316 -395 0
-1074 -316 -398 0
-1074 -316 -399 0
-1074 -316 -410 0
-1074 -316 -411 0
-1074 -316 -414 0
-1074 -316 -415 0
-1074 -316 -418 0
-1074 -316 -419 0
-1074 -317 457 0
-1074 -317 -302 -308 0
-1074 -317 -375 0
-1074 -317 -395 0
-1074 -317 -399 0
-1074 -317 -411 0
-1074 -317 -415 0
-1074 -317 -419 0
-1075 444 0
-1075 452 0
-1075 -309 0
-1075 -310 0
-1075 -311 0
-1075 -312 0
-1075 -314 0
-1075 -318 0
-1075 -315 455 0
-1075 -315 -303 -306 0
-1075 -315 -377 0
-1075 -315 -378 0
-1075 -315 -379 0
-1075 -315 -397 0
-1075 -315 -398 0
-1075 -315 -399 0
-1075 -315 -401 0
-1075 -315 -402 0
-1075 -315 -403 0
-1075 -315 -413 0
-1075 -315 -414 0
-1075 -315 -415 0
-1075 -315 -417 0
-1075 -315 -418 0
-1075 -315 -419 0
-1075 -316 456 0
-1075 -316 -303 -307 0
-1075 -316 -378 0
-1075 -316 -379 0
-1075 -316 -398 0
-1075 -316 -399 0
-1075 -316 -402 0
-1075 -316 -403 0
-1075 -316 -414 0
-1075 -316 -415 0
-1075 -316 -418 0
-1075 -316 -419 0
-1075 -317 457 0
-1075 -317 -303 -308 0
-1075 -317 -379 0
-1075 -317 -399 0
-1075 -317 -403 0
-1075 -317 -415 0
-1075 -317 -419 0
-1076 444 0
-1076 453 0
-1076 -309 0
-1076 -310 0
-1076 -311 0
-1076 -312 0
-1076 -313 0
-1076 -318 0
-1076 -315 455 0
-1076 -315 -304 -306 0
-1076 -315 -381 0
-1076 -315 -382 0
-1076 -315 -383 0
-1076 -315 -401 0
-1076 -315 -402 0
-1076 -315 -403 0
-1076 -315 -417 0
-1076 -315 -418 0
-1076 -315 -419 0
-1076 -316 456 0
-1076 -316 -304 -307 0
-1076 -316 -382 0
-1076 -316 -383 0
-1076 -316 -402 0
-1076 -316 -403 0
-1076 -316 -418 0
-1076 -316 -419 0
-1076 -317 457 0
-1076 -317 -304 -308 0
-1076 -317 -383 0
-1076 -317 -403 0
-1076 -317 -419 0
-1077 444 0
-1077 448 0
-1077 -320 0
-1077 -321 0
-1077 -322 0
-1077 -323 0
-1077 -327 0
-1077 -324 455 0
-1077 -324 -299 -306 0
-1077 -324 -361 0
-1077 -324 -362 0
-1077 -324 -363 0
-1077 -324 -385 0
-1077 -324 -386 0
-1077 -324 -387 0
-1077 -324 -405 0
-1077 -324 -406 0
-1077 -324 -407 0
-1077 -325 456 0
-1077 -325 -299 -307 0
-1077 -325 -362 0
-1077 -325 -363 0
-1077 -325 -386 0
-1077 -325 -387 0
-1077 -325 -406 0
-1077 -325 -407 0
-1077 -326 457 0
-1077 -326 -299 -308 0
-1077 -326 -363 0
-1077 -326 -387 0
-1077 -326 -407 0
-1078 444 0
-1078 449 0
-1078 -321 0
-1078 -322 0
-1078 -323 0
-1078 -327 0
-1078 -324 455 0
-1078 -324 -300 -306 0
-1078 -324 -365 0
-1078 -324 -366 0
-1078 -324 -367 0
-1078 -324 -385 0
-1078 -324 -386 0
-1078 -324 -387 0
-1078 -324 -389 0
-1078 -324 -390 0
-1078 -324 -391 0
-1078 -324 -405 0
-1078 -324 -406 0
-1078 -324 -407 0
-1078 -324 -409 0
-1078 -324 -410 0
-1078 -324 -411 0
-1078 -325 456 0
-1078 -325 -300 -307 0
-1078 -325 -366 0
-1078 -325 -367 0
-1078 -325 -386 0
-1078 -325 -387 0
-1078 -325 -390 0
-1078 -325 -391 0
-1078 -325 -406 0
-1078 -325 -407 0
-1078 -325 -410 0
-1078 -325 -411 0
-1078 -326 457 0
-1078 -326 -300 -308 0
-1078 -326 -367 0
-1078 -326 -387 0
-1078 -326 -391 0
-1078 -326 -407 0
-1078 -326 -411 0
-1079 444 0
-1079 450 0
-1079 -319 0
-1079 -322 0
-1079 -323 0
-1079 -327 0
-1079 -324 455 0
-1079 -324 -301 -306 0
-1079 -324 -369 0
-1079 -324 -370 0
-1079 -324 -371 0
-1079 -324 -389 0
-1079 -324 -390 0
-1079 -324 -391 0
-1079 -324 -393 0
-1079 -324 -394 0
-1079 -324 -395 0
-1079 -324 -405 0
-1079 -324 -406 0
-1079 -324 -407 0
-1079 -324 -409 0
-1079 -324 -410 0
-1079 -324 -411 0
-1079 -324 -413 0
-1079 -324 -414 0
-1079 -324 -415 0
-1079 -325 456 0
-1079 -325 -301 -307 0
-1079 -325 -370 0
-1079 -325 -371 0
-1079 -325 -390 0
-1079 -325 -391 0
-1079 -325 -394 0
-1079 -325 -395 0
-1079 -325 -406 0
-1079 -325 -407 0
-1079 -325 -410 0
-1079 -325 -411 0
-1079 -325 -414 0
-1079 -325 -415 0
-1079 -326 457 0
-1079 -326 -301 -308 0
-1079 -326 -371 0
-1079 -326 -391 0
-1079 -326 -395 0
-1079 -326 -407 0
-1079 -326 -411 0
-1079 -326 -415 0
-1080 444 0
-1080 451 0
-1080 -319 0
-1080 -320 0
-1080 -323 0
-1080 -327 0
-1080 -324 455 0
-1080 -324 -302 -306 0
-1080 -324 -373 0
-1080 -324 -374 0
-1080 -324 -375 0
-1080 -324 -393 0
-1080 -324 -394 0
-1080 -324 -395 0
-1080 -324 -397 0
-1080 -324 -398 0
-1080 -324 -399 0
-1080 -324 -409 0
-1080 -324 -410 0
-1080 -324 -411 0
-1080 -324 -413 0
-1080 -324 -414 0
-1080 -324 -415 0
-1080 -324 -417 0
-1080 -324 -418 0
-1080 -324 -419 0
-1080 -325 456 0
-1080 -325 -302 -307 0
-1080 -325 -374 0
-1080 -325 -375 0
-1080 -325 -394 0
-1080 -325 -395 0
-1080 -325 -398 0
-1080 -325 -399 0
-1080 -325 -410 0
-1080 -325 -411 0
-1080 -325 -414 0
-1080 -325 -415 0
-1080 -325 -418 0
-1080 -325 -419 0
-1080 -326 457 0
-1080 -326 -302 -308 0
-1080 -326 -375 0
-1080 -326 -395 0
-1080 -326 -399 0
-1080 -326 -411 0
-1080 -326 -415 0
-1080 -326 -419 0
-1081 444 0
-1081 452 0
-1081 -319 0
-1081 -320 0
-1081 -321 0
-1081 -327 0
-1081 -324 455 0
-1081 -324 -303 -306 0
-1081 -324 -377 0
-1081 -324 -378 0
-1081 -324 -379 0
-1081 -324 -397 0
-1081 -324 -398 0
-1081 -324 -399 0
-1081 -324 -401 0
-1081 -324 -402 0
-1081 -324 -403 0
-1081 -324 -413 0
-1081 -324 -414 0
-1081 -324 -415 0
-1081 -324 -417 0
-1081 -324 -418 0
-1081 -324 -419 0
-1081 -325 456 0
-1081 -325 -303 -307 0
-1081 -325 -378 0
-1081 -325 -379 0
-1081 -325 -398 0
-1081 -325 -399 0
-1081 -325 -402 0
-1081 -325 -403 0
-1081 -325 -414 0
-1081 -325 -415 0
-1081 -325 -418 0
-1081 -325 -419 0
-1081 -326 457 0
-1081 -326 -303 -308 0
-1081 -326 -379 0
-1081 -326 -399 0
-1081 -326 -403 0
-1081 -326 -415 0
-1081 -326 -419 0
-1082 444 0
-1082 453 0
-1082 -319 0
-1082 -320 0
-1082 -321 0
-1082 -322 0
-1082 -327 0
-1082 -324 455 0
-1082 -324 -304 -306 0
-1082 -324 -381 0
-1082 -324 -382 0
-1082 -324 -383 0
-1082 -324 -401 0
-1082 -324 -402 0
-1082 -324 -403 0
-1082 -324 -417 0
-1082 -324 -418 0
-1082 -324 -419 0
-1082 -325 456 0
-1082 -325 -304 -307 0
-1082 -325 -382 0
-1082 -325 -383 0
-1082 -325 -402 0
-1082 -325 -403 0
-1082 -325 -418 0
-1082 -325 -419 0
-1082 -326 457 0
-1082 -326 -304 -308 0
-1082 -326 -383 0
-1082 -326 -403 0
-1082 -326 -419 0
-1083 444 0
-1083 448 0
-1083 -329 0
-1083 -330 0
-1083 -331 0
-1083 -335 0
-1083 -332 455 0
-1083 -332 -299 -306 0
-1083 -332 -361 0
-1083 -332 -362 0
-1083 -332 -363 0
-1083 -332 -385 0
-1083 -332 -386 0
-1083 -332 -387 0
-1083 -332 -405 0
-1083 -332 -406 0
-1083 -332 -407 0
-1083 -333 456 0
-1083 -333 -299 -307 0
-1083 -333 -362 0
-1083 -333 -363 0
-1083 -333 -386 0
-1083 -333 -387 0
-1083 -333 -406 0
-1083 -333 -407 0
-1083 -334 457 0
-1083 -334 -299 -308 0
-1083 -334 -363 0
-1083 -334 -387 0
-1083 -334 -407 0
-1084 444 0
-1084 449 0
-1084 -330 0
-1084 -331 0
-1084 -335 0
-1084 -332 455 0
-1084 -332 -300 -306 0
-1084 -332 -365 0
-1084 -332 -366 0
-1084 -332 -367 0
-1084 -332 -385 0
-1084 -332 -386 0
-1084 -332 -387 0
-1084 -332 -389 0
-1084 -332 -390 0
-1084 -332 -391 0
-1084 -332 -405 0
-1084 -332 -406 0
-1084 -332 -407 0
-1084 -332 -409 0
-1084 -332 -410 0
-1084 -332 -411 0
-1084 -333 456 0
-1084 -333 -300 -307 0
-1084 -333 -366 0
-1084 -333 -367 0
-1084 -333 -386 0
-1084 -333 -387 0
-1084 -333 -390 0
-1084 -333 -391 0
-1084 -333 -406 0
-1084 -333 -407 0
-1084 -333 -410 0
-1084 -333 -411 0
-1084 -334 457 0
-1084 -334 -300 -308 0
-1084 -334 -367 0
-1084 -334 -387 0
-1084 -334 -391 0
-1084 -334 -407 0
-1084 -334 -411 0
-1085 444 0
-1085 450 0
-1085 -331 0
-1085 -335 0
-1085 -332 455 0
-1085 -332 -301 -306 0
-1085 -332 -369 0
-1085 -332 -370 0
-1085 -332 -371 0
-1085 -332 -389 0
-1085 -332 -390 0
-1085 -332 -391 0
-1085 -332 -393 0
-1085 -332 -394 0
-1085 -332 -395 0
-1085 -332 -405 0
-1085 -332 -406 0
-1085 -332 -407 0
-1085 -332 -409 0
-1085 -332 -410 0
-1085 -332 -411 0
-1085 -332 -413 0
-1085 -332 -414 0
-1085 -332 -415 0
-1085 -333 456 0
-1085 -333 -301 -307 0
-1085 -333 -370 0
-1085 -333 -371 0
-1085 -333 -390 0
-1085 -333 -391 0
-1085 -333 -394 0
-1085 -333 -395 0
-1085 -333 -406 0
-1085 -333 -407 0
-1085 -333 -410 0
-1085 -333 -411 0
-1085 -333 -414 0
-1085 -333 -415 0
-1085 -334 457 0
-1085 -334 -301 -308 0
-1085 -334 -371 0
-1085 -334 -391 0
-1085 -334 -395 0
-1085 -334 -407 0
-1085 -334 -411 0
-1085 -334 -415 0
-1086 444 0
-1086 451 0
-1086 -328 0
-1086 -335 0
-1086 -332 455 0
-1086 -332 -302 -306 0
-1086 -332 -373 0
-1086 -332 -374 0
-1086 -332 -375 0
-1086 -332 -393 0
-1086 -332 -394 0
-1086 -332 -395 0
-1086 -332 -397 0
-1086 -332 -398 0
-1086 -332 -399 0
-1086 -332 -409 0
-1086 -332 -410 0
-1086 -332 -411 0
-1086 -332 -413 0
-1086 -332 -414 0
-1086 -332 -415 0
-1086 -332 -417 0
-1086 -332 -418 0
-1086 -332 -419 0
-1086 -333 456 0
-1086 -333 -302 -307 0
-1086 -333 -374 0
-1086 -333 -375 0
-1086 -333 -394 0
-1086 -333 -395 0
-1086 -333 -398 0
-1086 -333 -399 0
-1086 -333 -410 0
-1086 -333 -411 0
-1086 -333 -414 0
-1086 -333 -415 0
-1086 -333 -418 0
-1086 -333 -419 0
-1086 -334 457 0
-1086 -334 -302 -308 0
-1086 -334 -375 0
-1086 -334 -395 0
-1086 -334 -399 0
-1086 -334 -411 0
-1086 -334 -415 0
-1086 -334 -419 0
-1087 444 0
-1087 452 0
-1087 -328 0
-1087 -329 0
-1087 -335 0
-1087 -332 455 0
-1087 -332 -303 -306 0
-1087 -332 -377 0
-1087 -332 -378 0
-1087 -332 -379 0
-1087 -332 -397 0
-1087 -332 -398 0
-1087 -332 -399 0
-1087 -332 -401 0
-1087 -332 -402 0
-1087 -332 -403 0
-1087 -332 -413 0
-1087 -332 -414 0
-1087 -332 -415 0
-1087 -332 -417 0
-1087 -332 -418 0
-1087 -332 -419 0
-1087 -333 456 0
-1087 -333 -303 -307 0
-1087 -333 -378 0
-1087 -333 -379 0
-1087 -333 -398 0
-1087 -333 -399 0
-1087 -333 -402 0
-1087 -333 -403 0
-1087 -333 -414 0
-1087 -333 -415 0
-1087 -333 -418 0
-1087 -333 -419 0
-1087 -334 457 0
-1087 -334 -303 -308 0
-1087 -334 -379 0
-1087 -334 -399 0
-1087 -334 -403 0
-1087 -334 -415 0
-1087 -334 -419 0
-1088 444 0
-1088 453 0
-1088 -328 0
-1088 -329 0
-1088 -330 0
-1088 -335 0
-1088 -332 455 0
-1088 -332 -304 -306 0
-1088 -332 -381 0
-1088 -332 -382 0
-1088 -332 -383 0
-1088 -332 -401 0
-1088 -332 -402 0
-1088 -332 -403 0
-1088 -332 -417 0
-1088 -332 -418 0
-1088 -332 -419 0
-1088 -333 456 0
-1088 -333 -304 -307 0
-1088 -333 -382 0
-1088 -333 -383 0
-1088 -333 -402 0
-1088 -333 -403 0
-1088 -333 -418 0
-1088 -333 -419 0
-1088 -334 457 0
-1088 -334 -304 -308 0
-1088 -334 -383 0
-1088 -334 -403 0
-1088 -334 -419 0
-1089 444 0
-1089 448 0
-1089 454 0
-1089 -299 -305 0
-1089 -360 0
-1089 -361 0
-1089 -362 0
-1089 -363 0
-1089 -384 0
-1089 -385 0
-1089 -386 0
-1089 -387 0
-1089 -404 0
-1089 -405 0
-1089 -406 0
-1089 -407 0
-1090 444 0
-1090 449 0
-1090 454 0
-1090 -300 -305 0
-1090 -364 0
-1090 -365 0
-1090 -366 0
-1090 -367 0
-1090 -384 0
-1090 -385 0
-1090 -386 0
-1090 -387 0
-1090 -388 0
-1090 -389 0
-1090 -390 0
-1090 -391 0
-1090 -404 0
-1090 -405 0
-1090 -406 0
-1090 -407 0
-1090 -408 0
-1090 -409 0
-1090 -410 0
-1090 -411 0
-1091 444 0
-1091 450 0
-1091 454 0
-1091 -301 -305 0
-1091 -368 0
-1091 -369 0
-1091 -370 0
-1091 -371 0
-1091 -388 0
-1091 -389 0
-1091 -390 0
-1091 -391 0
-1091 -392 0
-1091 -393 0
-1091 -394 0
-1091 -395 0
-1091 -404 0
-1091 -405 0
-1091 -406 0
-1091 -407 0
-1091 -408 0
-1091 -409 0
-1091 -410 0
-1091 -411 0
-1091 -412 0
-1091 -413 0
-1091 -414 0
-1091 -415 0
-1092 444 0
-1092 451 0
-1092 454 0
-1092 -302 -305 0
-1092 -372 0
-1092 -373 0
-1092 -374 0
-1092 -375 0
-1092 -392 0
-1092 -393 0
-1092 -394 0
-1092 -395 0
-1092 -396 0
-1092 -397 0
-1092 -398 0
-1092 -399 0
-1092 -408 0
-1092 -409 0
-1092 -410 0
-1092 -411 0
-1092 -412 0
-1092 -413 0
-1092 -414 0
-1092 -415 0
-1092 -416 0
-1092 -417 0
-1092 -418 0
-1092 -419 0
-1093 444 0
-1093 452 0
-1093 454 0
-1093 -303 -305 0
-1093 -376 0
-1093 -377 0
-1093 -378 0
-1093 -379 0
-1093 -396 0
-1093 -397 0
-1093 -398 0
-1093 -399 0
-1093 -400 0
-1093 -401 0
-1093 -402 0
-1093 -403 0
-1093 -412 0
-1093 -413 0
-1093 -414 0
-1093 -415 0
-1093 -416 0
-1093 -417 0
-1093 -418 0
-1093 -419 0
-1094 444 0
-1094 453 0
-1094 454 0
-1094 -304 -305 0
-1094 -380 0
-1094 -381 0
-1094 -382 0
-1094 -383 0
-1094 -400 0
-1094 -401 0
-1094 -402 0
-1094 -403 0
-1094 -416 0
-1094 -417 0
-1094 -418 0
-1094 -419 0
-1095 445 0
-1095 458 0
-1095 -300 0
-1095 -301 0
-1095 -302 0
-1095 -303 0
-1095 -304 0
-1095 -308 0
-1095 -305 465 0
-1095 -305 -309 -316 0
-1095 -305 -337 0
-1095 -305 -338 0
-1095 -305 -339 0
-1095 -305 -385 0
-1095 -305 -386 0
-1095 -305 -387 0
-1095 -305 -405 0
-1095 -305 -406 0
-1095 -305 -407 0
-1095 -306 466 0
-1095 -306 -309 -317 0
-1095 -306 -338 0
-1095 -306 -339 0
-1095 -306 -386 0
-1095 -306 -387 0
-1095 -306 -406 0
-1095 -306 -407 0
-1095 -307 467 0
-1095 -307 -309 -318 0
-1095 -307 -339 0
-1095 -307 -387 0
-1095 -307 -407 0
-1096 445 0
-1096 459 0
-1096 -299 0
-1096 -301 0
-1096 -302 0
-1096 -303 0
-1096 -304 0
-1096 -308 0
-1096 -305 465 0
-1096 -305 -310 -316 0
-1096 -305 -341 0
-1096 -305 -342 0
-1096 -305 -343 0
-1096 -305 -385 0
-1096 -305 -386 0
-1096 -305 -387 0
-1096 -305 -389 0
-1096 -305 -390 0
-1096 -305 -391 0
-1096 -305 -405 0
-1096 -305 -406 0
-1096 -305 -407 0
-1096 -305 -409 0
-1096 -305 -410 0
-1096 -305 -411 0
-1096 -306 466 0
-1096 -306 -310 -317 0
-1096 -306 -342 0
-1096 -306 -343 0
-1096 -306 -386 0
-1096 -306 -387 0
-1096 -306 -390 0
-1096 -306 -391 0
-1096 -306 -406 0
-1096 -306 -407 0
-1096 -306 -410 0
-1096 -306 -411 0
-1096 -307 467 0
-1096 -307 -310 -318 0
-1096 -307 -343 0
-1096 -307 -387 0
-1096 -307 -391 0
-1096 -307 -407 0
-1096 -307 -411 0
-1097 445 0
-1097 460 0
-1097 -299 0
-1097 -300 0
-1097 -302 0
-1097 -303 0
-1097 -304 0
-1097 -308 0
-1097 -305 465 0
-1097 -305 -311 -316 0
-1097 -305 -345 0
-1097 -305 -346 0
-1097 -305 -347 0
-1097 -305 -389 0
-1097 -305 -390 0
-1097 -305 -391 0
-1097 -305 -393 0
-1097 -305 -394 0
-1097 -305 -395 0
-1097 -305 -405 0
-1097 -305 -406 0
-1097 -305 -407 0
-1097 -305 -409 0
-1097 -305 -410 0
-1097 -305 -411 0
-1097 -305 -413 0
-1097 -305 -414 0
-1097 -305 -415 0
-1097 -306 466 0
-1097 -306 -311 -317 0
-1097 -306 -346 0
-1097 -306 -347 0
-1097 -306 -390 0
-1097 -306 -391 0
-1097 -306 -394 0
-1097 -306 -395 0
-1097 -306 -406 0
-1097 -306 -407 0
-1097 -306 -410 0
-1097 -306 -411 0
-1097 -306 -414 0
-1097 -306 -415 0
-1097 -307 467 0
-1097 -307 -311 -318 0
-1097 -307 -347 0
-1097 -307 -391 0
-1097 -307 -395 0
-1097 -307 -407 0
-1097 -307 -411 0
-1097 -307 -415 0
-1098 445 0
-1098 461 0
-1098 -299 0
-1098 -300 0
-1098 -301 0
-1098 -303 0
-1098 -304 0
-1098 -308 0
-1098 -305 465 0
-1098 -305 -312 -316 0
-1098 -305 -349 0
-1098 -305 -350 0
-1098 -305 -351 0
-1098 -305 -393 0
-1098 -305 -394 0
-1098 -305 -395 0
-1098 -305 -397 0
-1098 -305 -398 0
-1098 -305 -399 0
-1098 -305 -409 0
-1098 -305 -410 0
-1098 -305 -411 0
-1098 -305 -413 0
-1098 -305 -414 0
-1098 -305 -415 0
-1098 -305 -417 0
-1098 -305 -418 0
-1098 -305 -419 0
-1098 -306 466 0
-1098 -306 -312 -317 0
-1098 -306 -350 0
-1098 -306 -351 0
-1098 -306 -394 0
-1098 -306 -395 0
-1098 -306 -398 0
-1098 -306 -399 0
-1098 -306 -410 0
-1098 -306 -411 0
-1098 -306 -414 0
-1098 -306 -415 0
-1098 -306 -418 0
-1098 -306 -419 0
-1098 -307 467 0
-1098 -307 -312 -318 0
-1098 -307 -351 0
-1098 -307 -395 0
-1098 -307 -399 0
-1098 -307 -411 0
-1098 -307 -415 0
-1098 -307 -419 0
-1099 445 0
-1099 462 0
-1099 -299 0
-1099 -300 0
-1099 -301 0
-1099 -302 0
-1099 -304 0
-1099 -308 0
-1099 -305 465 0
-1099 -305 -313 -316 0
-1099 -305 -353 0
-1099 -305 -354 0
-1099 -305 -355 0
-1099 -305 -397 0
-1099 -305 -398 0
-1099 -305 -399 0
-1099 -305 -401 0
-1099 -305 -402 0
-1099 -305 -403 0
-1099 -305 -413 0
-1099 -305 -414 0
-1099 -305 -415 0
-1099 -305 -417 0
-1099 -305 -418 0
-1099 -305 -419 0
-1099 -306 466 0
-1099 -306 -313 -317 0
-1099 -306 -354 0
-1099 -306 -355 0
-1099 -306 -398 0
-1099 -306 -399 0
-1099 -306 -402 0
-1099 -306 -403 0
-1099 -306 -414 0
-1099 -306 -415 0
-1099 -306 -418 0
-1099 -306 -419 0
-1099 -307 467 0
-1099 -307 -313 -318 0
-1099 -307 -355 0
-1099 -307 -399 0
-1099 -307 -403 0
-1099 -307 -415 0
-1099 -307 -419 0
-1100 445 0
-1100 463 0
-1100 -299 0
-1100 -300 0
-1100 -301 0
-1100 -302 0
-1100 -303 0
-1100 -308 0
-1100 -305 465 0
-1100 -305 -314 -316 0
-1100 -305 -357 0
-1100 -305 -358 0
-1100 -305 -359 0
-1100 -305 -401 0
-1100 -305 -402 0
-1100 -305 -403 0
-1100 -305 -417 0
-1100 -305 -418 0
-1100 -305 -419 0
-1100 -306 466 0
-1100 -306 -314 -317 0
-1100 -306 -358 0
-1100 -306 -359 0
-1100 -306 -402 0
-1100 -306 -403 0
-1100 -306 -418 0
-1100 -306 -419 0
-1100 -307 467 0
-1100 -307 -314 -318 0
-1100 -307 -359 0
-1100 -307 -403 0
-1100 -307 -419 0
-1101 445 0
-1101 458 0
-1101 -320 0
-1101 -321 0
-1101 -322 0
-1101 -323 0
-1101 -327 0
-1101 -324 465 0
-1101 -324 -309 -316 0
-1101 -324 -337 0
-1101 -324 -338 0
-1101 -324 -339 0
-1101 -324 -385 0
-1101 -324 -386 0
-1101 -324 -387 0
-1101 -324 -405 0
-1101 -324 -406 0
-1101 -324 -407 0
-1101 -325 466 0
-1101 -325 -309 -317 0
-1101 -325 -338 0
-1101 -325 -339 0
-1101 -325 -386 0
-1101 -325 -387 0
-1101 -325 -406 0
-1101 -325 -407 0
-1101 -326 467 0
-1101 -326 -309 -318 0
-1101 -326 -339 0
-1101 -326 -387 0
-1101 -326 -407 0
-1102 445 0
-1102 459 0
-1102 -321 0
-1102 -322 0
-1102 -323 0
-1102 -327 0
-1102 -324 465 0
-1102 -324 -310 -316 0
-1102 -324 -341 0
-1102 -324 -342 0
-1102 -324 -343 0
-1102 -324 -385 0
-1102 -324 -386 0
-1102 -324 -387 0
-1102 -324 -389 0
-1102 -324 -390 0
-1102 -324 -391 0
-1102 -324 -405 0
-1102 -324 -406 0
-1102 -324 -407 0
-1102 -324 -409 0
-1102 -324 -410 0
-1102 -324 -411 0
-1102 -325 466 0
-1102 -325 -310 -317 0
-1102 -325 -342 0
-1102 -325 -343 0
-1102 -325 -386 0
-1102 -325 -387 0
-1102 -325 -390 0
-1102 -325 -391 0
-1102 -325 -406 0
-1102 -325 -407 0
-1102 -325 -410 0
-1102 -325 -411 0
-1102 -326 467 0
-1102 -326 -310 -318 0
-1102 -326 -343 0
-1102 -326 -387 0
-1102 -326 -391 0
-1102 -326 -407 0
-1102 -326 -411 0
-1103 445 0
-1103 460 0
-1103 -319 0
-1103 -322 0
-1103 -323 0
-1103 -327 0
-1103 -324 465 0
-1103 -324 -311 -316 0
-1103 -324 -345 0
-1103 -324 -346 0
-1103 -324 -347 0
-1103 -324 -389 0
-1103 -324 -390 0
-1103 -324 -391 0
-1103 -324 -393 0
-1103 -324 -394 0
-1103 -324 -395 0
-1103 -324 -405 0
-1103 -324 -406 0
-1103 -324 -407 0
-1103 -324 -409 0
-1103 -324 -410 0
-1103 -324 -411 0
-1103 -324 -413 0
-1103 -324 -414 0
-1103 -324 -415 0
-1103 -325 466 0
-1103 -325 -311 -317 0
-1103 -325 -346 0
-1103 -325 -347 0
-1103 -325 -390 0
-1103 -325 -391 0
-1103 -325 -394 0
-1103 -325 -395 0
-1103 -325 -406 0
-1103 -325 -407 0
-1103 -325 -410 0
-1103 -325 -411 0
-1103 -325 -414 0
-1103 -325 -415 0
-1103 -326 467 0
-1103 -326 -311 -318 0
-1103 -326 -347 0
-1103 -326 -391 0
-1103 -326 -395 0
-1103 -326 -407 0
-1103 -326 -411 0
-1103 -326 -415 0
-1104 445 0
-1104 461 0
-1104 -319 0
-1104 -320 0
-1104 -323 0
-1104 -327 0
-1104 -324 465 0
-1104 -324 -312 -316 0
-1104 -324 -349 0
-1104 -324 -350 0
-1104 -324 -351 0
-1104 -324 -393 0
-1104 -324 -394 0
-1104 -324 -395 0
-1104 -324 -397 0
-1104 -324 -398 0
-1104 -324 -399 0
-1104 -324 -409 0
-1104 -324 -410 0
-1104 -324 -411 0
-1104 -324 -413 0
-1104 -324 -414 0
-1104 -324 -415 0
-1104 -324 -417 0
-1104 -324 -418 0
-1104 -324 -419 0
-1104 -325 466 0
-1104 -325 -312 -317 0
-1104 -325 -350 0
-1104 -325 -351 0
-1104 -325 -394 0
-1104 -325 -395 0
-1104 -325 -398 0
-1104 -325 -399 0
-1104 -325 -410 0
-1104 -325 -411 0
-1104 -325 -414 0
-1104 -325 -415 0
-1104 -325 -418 0
-1104 -325 -419 0
-1104 -326 467 0
-1104 -326 -312 -318 0
-1104 -326 -351 0
-1104 -326 -395 0
-1104 -326 -399 0
-1104 -326 -411 0
-1104 -326 -415 0
-1104 -326 -419 0
-1105 445 0
-1105 462 0
-1105 -319 0
-1105 -320 0
-1105 -321 0
-1105 -327 0
-1105 -324 465 0
-1105 -324 -313 -316 0
-1105 -324 -353 0
-1105 -324 -354 0
-1105 -324 -355 0
-1105 -324 -397 0
-1105 -324 -398 0
-1105 -324 -399 0
-1105 -324 -401 0
-1105 -324 -402 0
-1105 -324 -403 0
-1105 -324 -413 0
-1105 -324 -414 0
-1105 -324 -415 0
-1105 -324 -417 0
-1105 -324 -418 0
-1105 -324 -419 0
-1105 -325 466 0
-1105 -325 -313 -317 0
-1105 -325 -354 0
-1105 -325 -355 0
-1105 -325 -398 0
-1105 -325 -399 0
-1105 -325 -402 0
-1105 -325 -403 0
-1105 -325 -414 0
-1105 -325 -415 0
-1105 -325 -418 0
-1105 -325 -419 0
-1105 -326 467 0
-1105 -326 -313 -318 0
-1105 -326 -355 0
-1105 -326 -399 0
-1105 -326 -403 0
-1105 -326 -415 0
-1105 -326 -419 0
-1106 445 0
-1106 463 0
-1106 -319 0
-1106 -320 0
-1106 -321 0
-1106 -322 0
-1106 -327 0
-1106 -324 465 0
-1106 -324 -314 -316 0
-1106 -324 -357 0
-1106 -324 -358 0
-1106 -324 -359 0
-1106 -324 -401 0
-1106 -324 -402 0
-1106 -324 -403 0
-1106 -324 -417 0
-1106 -324 -418 0
-1106 -324 -419 0
-1106 -325 466 0
-1106 -325 -314 -317 0
-1106 -325 -358 0
-1106 -325 -359 0
-1106 -325 -402 0
-1106 -325 -403 0
-1106 -325 -418 0
-1106 -325 -419 0
-1106 -326 467 0
-1106 -326 -314 -318 0
-1106 -326 -359 0
-1106 -326 -403 0
-1106 -326 -419 0
-1107 445 0
-1107 458 0
-1107 -329 0
-1107 -330 0
-1107 -331 0
-1107 -335 0
-1107 -332 465 0
-1107 -332 -309 -316 0
-1107 -332 -337 0
-1107 -332 -338 0
-1107 -332 -339 0
-1107 -332 -385 0
-1107 -332 -386 0
-1107 -332 -387 0
-1107 -332 -405 0
-1107 -332 -406 0
-1107 -332 -407 0
-1107 -333 466 0
-1107 -333 -309 -317 0
-1107 -333 -338 0
-1107 -333 -339 0
-1107 -333 -386 0
-1107 -333 -387 0
-1107 -333 -406 0
-1107 -333 -407 0
-1107 -334 467 0
-1107 -334 -309 -318 0
-1107 -334 -339 0
-1107 -334 -387 0
-1107 -334 -407 0
-1108 445 0
-1108 459 0
-1108 -330 0
-1108 -331 0
-1108 -335 0
-1108 -332 465 0
-1108 -332 -310 -316 0
-1108 -332 -341 0
-1108 -332 -342 0
-1108 -332 -343 0
-1108 -332 -385 0
-1108 -332 -386 0
-1108 -332 -387 0
-1108 -332 -389 0
-1108 -332 -390 0
-1108 -332 -391 0
-1108 -332 -405 0
-1108 -332 -406 0
-1108 -332 -407 0
-1108 -332 -409 0
-1108 -332 -410 0
-1108 -332 -411 0
-1108 -333 466 0
-1108 -333 -310 -317 0
-1108 -333 -342 0
-1108 -333 -343 0
-1108 -333 -386 0
-1108 -333 -387 0
-1108 -333 -390 0
-1108 -333 -391 0
-1108 -333 -406 0
-1108 -333 -407 0
-1108 -333 -410 0
-1108 -333 -411 0
-1108 -334 467 0
-1108 -334 -310 -318 0
-1108 -334 -343 0
-1108 -334 -387 0
-1108 -334 -391 0
-1108 -334 -407 0
-1108 -334 -411 0
-1109 445 0
-1109 460 0
-1109 -331 0
-1109 -335 0
-1109 -332 465 0
-1109 -332 -311 -316 0
-1109 -332 -345 0
-1109 -332 -346 0
-1109 -332 -347 0
-1109 -332 -389 0
-1109 -332 -390 0
-1109 -332 -391 0
-1109 -332 -393 0
-1109 -332 -394 0
-1109 -332 -395 0
-1109 -332 -405 0
-1109 -332 -406 0
-1109 -332 -407 0
-1109 -332 -409 0
-1109 -332 -410 0
-1109 -332 -411 0
-1109 -332 -413 0
-1109 -332 -414 0
-1109 -332 -415 0
-1109 -333 466 0
-1109 -333 -311 -317 0
-1109 -333 -346 0
-1109 -333 -347 0
-1109 -333 -390 0
-1109 -333 -391 0
-1109 -333 -394 0
-1109 -333 -395 0
-1109 -333 -406 0
-1109 -333 -407 0
-1109 -333 -410 0
-1109 -333 -411 0
-1109 -333 -414 0
-1109 -333 -415 0
-1109 -334 467 0
-1109 -334 -311 -318 0
-1109 -334 -347 0
-1109 -334 -391 0
-1109 -334 -395 0
-1109 -334 -407 0
-1109 -334 -411 0
-1109 -334 -415 0
-1110 445 0
-1110 461 0
-1110 -328 0
-1110 -335 0
-1110 -332 465 0
-1110 -332 -312 -316 0
-1110 -332 -349 0
-1110 -332 -350 0
-1110 -332 -351 0
-1110 -332 -393 0
-1110 -332 -394 0
-1110 -332 -395 0
-1110 -332 -397 0
-1110 -332 -398 0
-1110 -332 -399 0
-1110 -332 -409 0
-1110 -332 -410 0
-1110 -332 -411 0
-1110 -332 -413 0
-1110 -332 -414 0
-1110 -332 -415 0
-1110 -332 -417 0
-1110 -332 -418 0
-1110 -332 -419 0
-1110 -333 466 0
-1110 -333 -312 -317 0
-1110 -333 -350 0
-1110 -333 -351 0
-1110 -333 -394 0
-1110 -333 -395 0
-1110 -333 -398 0
-1110 -333 -399 0
-1110 -333 -410 0
-1110 -333 -411 0
-1110 -333 -414 0
-1110 -333 -415 0
-1110 -333 -418 0
-1110 -333 -419 0
-1110 -334 467 0
-1110 -334 -312 -318 0
-1110 -334 -351 0
-1110 -334 -395 0
-1110 -334 -399 0
-1110 -334 -411 0
-1110 -334 -415 0
-1110 -334 -419 0
-1111 445 0
-1111 462 0
-1111 -328 0
-1111 -329 0
-1111 -335 0
-1111 -332 465 0
-1111 -332 -313 -316 0
-1111 -332 -353 0
-1111 -332 -354 0
-1111 -332 -355 0
-1111 -332 -397 0
-1111 -332 -398 0
-1111 -332 -399 0
-1111 -332 -401 0
-1111 -332 -402 0
-1111 -332 -403 0
-1111 -332 -413 0
-1111 -332 -414 0
-1111 -332 -415 0
-1111 -332 -417 0
-1111 -332 -418 0
-1111 -332 -419 0
-1111 -333 466 0
-1111 -333 -313 -317 0
-1111 -333 -354 0
-1111 -333 -355 0
-1111 -333 -398 0
-1111 -333 -399 0
-1111 -333 -402 0
-1111 -333 -403 0
-1111 -333 -414 0
-1111 -333 -415 0
-1111 -333 -418 0
-1111 -333 -419 0
-1111 -334 467 0
-1111 -334 -313 -318 0
-1111 -334 -355 0
-1111 -334 -399 0
-1111 -334 -403 0
-1111 -334 -415 0
-1111 -334 -419 0
-1112 445 0
-1112 463 0
-1112 -328 0
-1112 -329 0
-1112 -330 0
-1112 -335 0
-1112 -332 465 0
-1112 -332 -314 -316 0
-1112 -332 -357 0
-1112 -332 -358 0
-1112 -332 -359 0
-1112 -332 -401 0
-1112 -332 -402 0
-1112 -332 -403 0
-1112 -332 -417 0
-1112 -332 -418 0
-1112 -332 -419 0
-1112 -333 466 0
-1112 -333 -314 -317 0
-1112 -333 -358 0
-1112 -333 -359 0
-1112 -333 -402 0
-1112 -333 -403 0
-1112 -333 -418 0
-1112 -333 -419 0
-1112 -334 467 0
-1112 -334 -314 -318 0
-1112 -334 -359 0
-1112 -334 -403 0
-1112 -334 -419 0
-1113 445 0
-1113 458 0
-1113 464 0
-1113 -309 -315 0
-1113 -336 0
-1113 -337 0
-1113 -338 0
-1113 -339 0
-1113 -384 0
-1113 -385 0
-1113 -386 0
-1113 -387 0
-1113 -404 0
-1113 -405 0
-1113 -406 0
-1113 -407 0
-1114 445 0
-1114 459 0
-1114 464 0
-1114 -310 -315 0
-1114 -340 0
-1114 -341 0
-1114 -342 0
-1114 -343 0
-1114 -384 0
-1114 -385 0
-1114 -386 0
-1114 -387 0
-1114 -388 0
-1114 -389 0
-1114 -390 0
-1114 -391 0
-1114 -404 0
-1114 -405 0
-1114 -406 0
-1114 -407 0
-1114 -408 0
-1114 -409 0
-1114 -410 0
-1114 -411 0
-1115 445 0
-1115 460 0
-1115 464 0
-1115 -311 -315 0
-1115 -344 0
-1115 -345 0
-1115 -346 0
-1115 -347 0
-1115 -388 0
-1115 -389 0
-1115 -390 0
-1115 -391 0
-1115 -392 0
-1115 -393 0
-1115 -394 0
-1115 -395 0
-1115 -404 0
-1115 -405 0
-1115 -406 0
-1115 -407 0
-1115 -408 0
-1115 -409 0
-1115 -410 0
-1115 -411 0
-1115 -412 0
-1115 -413 0
-1115 -414 0
-1115 -415 0
-1116 445 0
-1116 461 0
-1116 464 0
-1116 -312 -315 0
-1116 -348 0
-1116 -349 0
-1116 -350 0
-1116 -351 0
-1116 -392 0
-1116 -393 0
-1116 -394 0
-1116 -395 0
-1116 -396 0
-1116 -397 0
-1116 -398 0
-1116 -399 0
-1116 -408 0
-1116 -409 0
-1116 -410 0
-1116 -411 0
-1116 -412 0
-1116 -413 0
-1116 -414 0
-1116 -415 0
-1116 -416 0
-1116 -417 0
-1116 -418 0
-1116 -419 0
-1117 445 0
-1117 462 0
-1117 464 0
-1117 -313 -315 0
-1117 -352 0
-1117 -353 0
-1117 -354 0
-1117 -355 0
-1117 -396 0
-1117 -397 0
-1117 -398 0
-1117 -399 0
-1117 -400 0
-1117 -401 0
-1117 -402 0
-1117 -403 0
-1117 -412 0
-1117 -413 0
-1117 -414 0
-1117 -415 0
-1117 -416 0
-1117 -417 0
-1117 -418 0
-1117 -419 0
-1118 445 0
-1118 463 0
-1118 464 0
-1118 -314 -315 0
-1118 -356 0
-1118 -357 0
-1118 -358 0
-1118 -359 0
-1118 -400 0
-1118 -401 0
-1118 -402 0
-1118 -403 0
-1118 -416 0
-1118 -417 0
-1118 -418 0
-1118 -419 0
-1119 446 0
-1119 468 0
-1119 -301 0
-1119 -302 0
-1119 -303 0
-1119 -304 0
-1119 -308 0
-1119 -305 474 0
-1119 -305 -319 -325 0
-1119 -305 -337 0
-1119 -305 -338 0
-1119 -305 -339 0
-1119 -305 -341 0
-1119 -305 -342 0
-1119 -305 -343 0
-1119 -305 -361 0
-1119 -305 -362 0
-1119 -305 -363 0
-1119 -305 -365 0
-1119 -305 -366 0
-1119 -305 -367 0
-1119 -305 -405 0
-1119 -305 -406 0
-1119 -305 -407 0
-1119 -305 -409 0
-1119 -305 -410 0
-1119 -305 -411 0
-1119 -306 475 0
-1119 -306 -319 -326 0
-1119 -306 -338 0
-1119 -306 -339 0
-1119 -306 -342 0
-1119 -306 -343 0
-1119 -306 -362 0
-1119 -306 -363 0
-1119 -306 -366 0
-1119 -306 -367 0
-1119 -306 -406 0
-1119 -306 -407 0
-1119 -306 -410 0
-1119 -306 -411 0
-1119 -307 476 0
-1119 -307 -319 -327 0
-1119 -307 -339 0
-1119 -307 -343 0
-1119 -307 -363 0
-1119 -307 -367 0
-1119 -307 -407 0
-1119 -307 -411 0
-1120 446 0
-1120 469 0
-1120 -299 0
-1120 -302 0
-1120 -303 0
-1120 -304 0
-1120 -308 0
-1120 -305 474 0
-1120 -305 -320 -325 0
-1120 -305 -341 0
-1120 -305 -342 0
-1120 -305 -343 0
-1120 -305 -345 0
-1120 -305 -346 0
-1120 -305 -347 0
-1120 -305 -365 0
-1120 -305 -366 0
-1120 -305 -367 0
-1120 -305 -369 0
-1120 -305 -370 0
-1120 -305 -371 0
-1120 -305 -405 0
-1120 -305 -406 0
-1120 -305 -407 0
-1120 -305 -409 0
-1120 -305 -410 0
-1120 -305 -411 0
-1120 -305 -413 0
-1120 -305 -414 0
-1120 -305 -415 0
-1120 -306 475 0
-1120 -306 -320 -326 0
-1120 -306 -342 0
-1120 -306 -343 0
-1120 -306 -346 0
-1120 -306 -347 0
-1120 -306 -366 0
-1120 -306 -367 0
-1120 -306 -370 0
-1120 -306 -371 0
-1120 -306 -406 0
-1120 -306 -407 0
-1120 -306 -410 0
-1120 -306 -411 0
-1120 -306 -414 0
-1120 -306 -415 0
-1120 -307 476 0
-1120 -307 -320 -327 0
-1120 -307 -343 0
-1120 -307 -347 0
-1120 -307 -367 0
-1120 -307 -371 0
-1120 -307 -407 0
-1120 -307 -411 0
-1120 -307 -415 0
-1121 446 0
-1121 470 0
-1121 -299 0
-1121 -300 0
-1121 -303 0
-1121 -304 0
-1121 -308 0
-1121 -305 474 0
-1121 -305 -321 -325 0
-1121 -305 -345 0
-1121 -305 -346 0
-1121 -305 -347 0
-1121 -305 -349 0
-1121 -305 -350 0
-1121 -305 -351 0
-1121 -305 -369 0
-1121 -305 -370 0
-1121 -305 -371 0
-1121 -305 -373 0
-1121 -305 -374 0
-1121 -305 -375 0
-1121 -305 -405 0
-1121 -305 -406 0
-1121 -305 -407 0
-1121 -305 -409 0
-1121 -305 -410 0
-1121 -305 -411 0
-1121 -305 -413 0
-1121 -305 -414 0
-1121 -305 -415 0
-1121 -305 -417 0
-1121 -305 -418 0
-1121 -305 -419 0
-1121 -306 475 0
-1121 -306 -321 -326 0
-1121 -306 -346 0
-1121 -306 -347 0
-1121 -306 -350 0
-1121 -306 -351 0
-1121 -306 -370 0
-1121 -306 -371 0
-1121 -306 -374 0
-1121 -306 -375 0
-1121 -306 -406 0
-1121 -306 -407 0
-1121 -306 -410 0
-1121 -306 -411 0
-1121 -306 -414 0
-1121 -306 -415 0
-1121 -306 -418 0
-1121 -306 -419 0
-1121 -307 476 0
-1121 -307 -321 -327 0
-1121 -307 -347 0
-1121 -307 -351 0
-1121 -307 -371 0
-1121 -307 -375 0
-1121 -307 -407 0
-1121 -307 -411 0
-1121 -307 -415 0
-1121 -307 -419 0
-1122 446 0
-1122 471 0
-1122 -299 0
-1122 -300 0
-1122 -301 0
-1122 -304 0
-1122 -308 0
-1122 -305 474 0
-1122 -305 -322 -325 0
-1122 -305 -349 0
-1122 -305 -350 0
-1122 -305 -351 0
-1122 -305 -353 0
-1122 -305 -354 0
-1122 -305 -355 0
-1122 -305 -373 0
-1122 -305 -374 0
-1122 -305 -375 0
-1122 -305 -377 0
-1122 -305 -378 0
-1122 -305 -379 0
-1122 -305 -409 0
-1122 -305 -410 0
-1122 -305 -411 0
-1122 -305 -413 0
-1122 -305 -414 0
-1122 -305 -415 0
-1122 -305 -417 0
-1122 -305 -418 0
-1122 -305 -419 0
-1122 -306 475 0
-1122 -306 -322 -326 0
-1122 -306 -350 0
-1122 -306 -351 0
-1122 -306 -354 0
-1122 -306 -355 0
-1122 -306 -374 0
-1122 -306 -375 0
-1122 -306 -378 0
-1122 -306 -379 0
-1122 -306 -410 0
-1122 -306 -411 0
-1122 -306 -414 0
-1122 -306 -415 0
-1122 -306 -418 0
-1122 -306 -419 0
-1122 -307 476 0
-1122 -307 -322 -327 0
-1122 -307 -351 0
-1122 -307 -355 0
-1122 -307 -375 0
-1122 -307 -379 0
-1122 -307 -411 0
-1122 -307 -415 0
-1122 -307 -419 0
-1123 446 0
-1123 472 0
-1123 -299 0
-1123 -300 0
-1123 -301 0
-1123 -302 0
-1123 -308 0
-1123 -305 474 0
-1123 -305 -323 -325 0
-1123 -305 -353 0
-1123 -305 -354 0
-1123 -305 -355 0
-1123 -305 -357 0
-1123 -305 -358 0
-1123 -305 -359 0
-1123 -305 -377 0
-1123 -305 -378 0
-1123 -305 -379 0
-1123 -305 -381 0
-1123 -305 -382 0
-1123 -305 -383 0
-1123 -305 -413 0
-1123 -305 -414 0
-1123 -305 -415 0
-1123 -305 -417 0
-1123 -305 -418 0
-1123 -305 -419 0
-1123 -306 475 0
-1123 -306 -323 -326 0
-1123 -306 -354 0
-1123 -306 -355 0
-1123 -306 -358 0
-1123 -306 -359 0
-1123 -306 -378 0
-1123 -306 -379 0
-1123 -306 -382 0
-1123 -306 -383 0
-1123 -306 -414 0
-1123 -306 -415 0
-1123 -306 -418 0
-1123 -306 -419 0
-1123 -307 476 0
-1123 -307 -323 -327 0
-1123 -307 -355 0
-1123 -307 -359 0
-1123 -307 -379 0
-1123 -307 -383 0
-1123 -307 -415 0
-1123 -307 -419 0
-1124 446 0
-1124 468 0
-1124 -311 0
-1124 -312 0
-1124 -313 0
-1124 -314 0
-1124 -318 0
-1124 -315 474 0
-1124 -315 -319 -325 0
-1124 -315 -337 0
-1124 -315 -338 0
-1124 -315 -339 0
-1124 -315 -341 0
-1124 -315 -342 0
-1124 -315 -343 0
-1124 -315 -361 0
-1124 -315 -362 0
-1124 -315 -363 0
-1124 -315 -365 0
-1124 -315 -366 0
-1124 -315 -367 0
-1124 -315 -405 0
-1124 -315 -406 0
-1124 -315 -407 0
-1124 -315 -409 0
-1124 -315 -410 0
-1124 -315 -411 0
-1124 -316 475 0
-1124 -316 -319 -326 0
-1124 -316 -338 0
-1124 -316 -339 0
-1124 -316 -342 0
-1124 -316 -343 0
-1124 -316 -362 0
-1124 -316 -363 0
-1124 -316 -366 0
-1124 -316 -367 0
-1124 -316 -406 0
-1124 -316 -407 0
-1124 -316 -410 0
-1124 -316 -411 0
-1124 -317 476 0
-1124 -317 -319 -327 0
-1124 -317 -339 0
-1124 -317 -343 0
-1124 -317 -363 0
-1124 -317 -367 0
-1124 -317 -407 0
-1124 -317 -411 0
-1125 446 0
-1125 469 0
-1125 -309 0
-1125 -312 0
-1125 -313 0
-1125 -314 0
-1125 -318 0
-1125 -315 474 0
-1125 -315 -320 -325 0
-1125 -315 -341 0
-1125 -315 -342 0
-1125 -315 -343 0
-1125 -315 -345 0
-1125 -315 -346 0
-1125 -315 -347 0
-1125 -315 -365 0
-1125 -315 -366 0
-1125 -315 -367 0
-1125 -315 -369 0
-1125 -315 -370 0
-1125 -315 -371 0
-1125 -315 -405 0
-1125 -315 -406 0
-1125 -315 -407 0
-1125 -315 -409 0
-1125 -315 -410 0
-1125 -315 -411 0
-1125 -315 -413 0
-1125 -315 -414 0
-1125 -315 -415 0
-1125 -316 475 0
-1125 -316 -320 -326 0
-1125 -316 -342 0
-1125 -316 -343 0
-1125 -316 -346 0
-1125 -316 -347 0
-1125 -316 -366 0
-1125 -316 -367 0
-1125 -316 -370 0
-1125 -316 -371 0
-1125 -316 -406 0
-1125 -316 -407 0
-1125 -316 -410 0
-1125 -316 -411 0
-1125 -316 -414 0
-1125 -316 -415 0
-1125 -317 476 0
-1125 -317 -320 -327 0
-1125 -317 -343 0
-1125 -317 -347 0
-1125 -317 -367 0
-1125 -317 -371 0
-1125 -317 -407 0
-1125 -317 -411 0
-1125 -317 -415 0
-1126 446 0
-1126 470 0
-1126 -309 0
-1126 -310 0
-1126 -313 0
-1126 -314 0
-1126 -318 0
-1126 -315 474 0
-1126 -315 -321 -325 0
-1126 -315 -345 0
-1126 -315 -346 0
-1126 -315 -347 0
-1126 -315 -349 0
-1126 -315 -350 0
-1126 -315 -351 0
-1126 -315 -369 0
-1126 -315 -370 0
-1126 -315 -371 0
-1126 -315 -373 0
-1126 -315 -374 0
-1126 -315 -375 0
-1126 -315 -405 0
-1126 -315 -406 0
-1126 -315 -407 0
-1126 -315 -409 0
-1126 -315 -410 0
-1126 -315 -411 0
-1126 -315 -413 0
-1126 -315 -414 0
-1126 -315 -415 0
-1126 -315 -417 0
-1126 -315 -418 0
-1126 -315 -419 0
-1126 -316 475 0
-1126 -316 -321 -326 0
-1126 -316 -346 0
-1126 -316 -347 0
-1126 -316 -350 0
-1126 -316 -351 0
-1126 -316 -370 0
-1126 -316 -371 0
-1126 -316 -374 0
-1126 -316 -375 0
-1126 -316 -406 0
-1126 -316 -407 0
-1126 -316 -410 0
-1126 -316 -411 0
-1126 -316 -414 0
-1126 -316 -415 0
-1126 -316 -418 0
-1126 -316 -419 0
-1126 -317 476 0
-1126 -317 -321 -327 0
-1126 -317 -347 0
-1126 -317 -351 0
-1126 -317 -371 0
-1126 -317 -375 0
-1126 -317 -407 0
-1126 -317 -411 0
-1126 -317 -415 0
-1126 -317 -419 0
-1127 446 0
-1127 471 0
-1127 -309 0
-1127 -310 0
-1127 -311 0
-1127 -314 0
-1127 -318 0
-1127 -315 474 0
-1127 -315 -322 -325 0
-1127 -315 -349 0
-1127 -315 -350 0
-1127 -315 -351 0
-1127 -315 -353 0
-1127 -315 -354 0
-1127 -315 -355 0
-1127 -315 -373 0
-1127 -315 -374 0
-1127 -315 -375 0
-1127 -315 -377 0
-1127 -315 -378 0
-1127 -315 -379 0
-1127 -315 -409 0
-1127 -315 -410 0
-1127 -315 -411 0
-1127 -315 -413 0
-1127 -315 -414 0
-1127 -315 -415 0
-1127 -315 -417 0
-1127 -315 -418 0
-1127 -315 -419 0
-1127 -316 475 0
-1127 -316 -322 -326 0
-1127 -316 -350 0
-1127 -316 -351 0
-1127 -316 -354 0
-1127 -316 -355 0
-1127 -316 -374 0
-1127 -316 -375 0
-1127 -316 -378 0
-1127 -316 -379 0
-1127 -316 -410 0
-1127 -316 -411 0
-1127 -316 -414 0
-1127 -316 -415 0
-1127 -316 -418 0
-1127 -316 -419 0
-1127 -317 476 0
-1127 -317 -322 -327 0
-1127 -317 -351 0
-1127 -317 -355 0
-1127 -317 -375 0
-1127 -317 -379 0
-1127 -317 -411 0
-1127 -317 -415 0
-1127 -317 -419 0
-1128 446 0
-1128 472 0
-1128 -309 0
-1128 -310 0
-1128 -311 0
-1128 -312 0
-1128 -318 0
-1128 -315 474 0
-1128 -315 -323 -325 0
-1128 -315 -353 0
-1128 -315 -354 0
-1128 -315 -355 0
-1128 -315 -357 0
-1128 -315 -358 0
-1128 -315 -359 0
-1128 -315 -377 0
-1128 -315 -378 0
-1128 -315 -379 0
-1128 -315 -381 0
-1128 -315 -382 0
-1128 -315 -383 0
-1128 -315 -413 0
-1128 -315 -414 0
-1128 -315 -415 0
-1128 -315 -417 0
-1128 -315 -418 0
-1128 -315 -419 0
-1128 -316 475 0
-1128 -316 -323 -326 0
-1128 -316 -354 0
-1128 -316 -355 0
-1128 -316 -358 0
-1128 -316 -359 0
-1128 -316 -378 0
-1128 -316 -379 0
-1128 -316 -382 0
-1128 -316 -383 0
-1128 -316 -414 0
-1128 -316 -415 0
-1128 -316 -418 0
-1128 -316 -419 0
-1128 -317 476 0
-1128 -317 -323 -327 0
-1128 -317 -355 0
-1128 -317 -359 0
-1128 -317 -379 0
-1128 -317 -383 0
-1128 -317 -415 0
-1128 -317 -419 0
-1129 446 0
-1129 468 0
-1129 -330 0
-1129 -331 0
-1129 -335 0
-1129 -332 474 0
-1129 -332 -319 -325 0
-1129 -332 -337 0
-1129 -332 -338 0
-1129 -332 -339 0
-1129 -332 -341 0
-1129 -332 -342 0
-1129 -332 -343 0
-1129 -332 -361 0
-1129 -332 -362 0
-1129 -332 -363 0
-1129 -332 -365 0
-1129 -332 -366 0
-1129 -332 -367 0
-1129 -332 -405 0
-1129 -332 -406 0
-1129 -332 -407 0
-1129 -332 -409 0
-1129 -332 -410 0
-1129 -332 -411 0
-1129 -333 475 0
-1129 -333 -319 -326 0
-1129 -333 -338 0
-1129 -333 -339 0
-1129 -333 -342 0
-1129 -333 -343 0
-1129 -333 -362 0
-1129 -333 -363 0
-1129 -333 -366 0
-1129 -333 -367 0
-1129 -333 -406 0
-1129 -333 -407 0
-1129 -333 -410 0
-1129 -333 -411 0
-1129 -334 476 0
-1129 -334 -319 -327 0
-1129 -334 -339 0
-1129 -334 -343 0
-1129 -334 -363 0
-1129 -334 -367 0
-1129 -334 -407 0
-1129 -334 -411 0
-1130 446 0
-1130 469 0
-1130 -331 0
-1130 -335 0
-1130 -332 474 0
-1130 -332 -320 -325 0
-1130 -332 -341 0
-1130 -332 -342 0
-1130 -332 -343 0
-1130 -332 -345 0
-1130 -332 -346 0
-1130 -332 -347 0
-1130 -332 -365 0
-1130 -332 -366 0
-1130 -332 -367 0
-1130 -332 -369 0
-1130 -332 -370 0
-1130 -332 -371 0
-1130 -332 -405 0
-1130 -332 -406 0
-1130 -332 -407 0
-1130 -332 -409 0
-1130 -332 -410 0
-1130 -332 -411 0
-1130 -332 -413 0
-1130 -332 -414 0
-1130 -332 -415 0
-1130 -333 475 0
-1130 -333 -320 -326 0
-1130 -333 -342 0
-1130 -333 -343 0
-1130 -333 -346 0
-1130 -333 -347 0
-1130 -333 -366 0
-1130 -333 -367 0
-1130 -333 -370 0
-1130 -333 -371 0
-1130 -333 -406 0
-1130 -333 -407 0
-1130 -333 -410 0
-1130 -333 -411 0
-1130 -333 -414 0
-1130 -333 -415 0
-1130 -334 476 0
-1130 -334 -320 -327 0
-1130 -334 -343 0
-1130 -334 -347 0
-1130 -334 -367 0
-1130 -334 -371 0
-1130 -334 -407 0
-1130 -334 -411 0
-1130 -334 -415 0
-1131 446 0
-1131 470 0
-1131 -335 0
-1131 -332 474 0
-1131 -332 -321 -325 0
-1131 -332 -345 0
-1131 -332 -346 0
-1131 -332 -347 0
-1131 -332 -349 0
-1131 -332 -350 0
-1131 -332 -351 0
-1131 -332 -369 0
-1131 -332 -370 0
-1131 -332 -371 0
-1131 -332 -373 0
-1131 -332 -374 0
-1131 -332 -375 0
-1131 -332 -405 0
-1131 -332 -406 0
-1131 -332 -407 0
-1131 -332 -409 0
-1131 -332 -410 0
-1131 -332 -411 0
-1131 -332 -413 0
-1131 -332 -414 0
-1131 -332 -415 0
-1131 -332 -417 0
-1131 -332 -418 0
-1131 -332 -419 0
-1131 -333 475 0
-1131 -333 -321 -326 0
-1131 -333 -346 0
-1131 -333 -347 0
-1131 -333 -350 0
-1131 -333 -351 0
-1131 -333 -370 0
-1131 -333 -371 0
-1131 -333 -374 0
-1131 -333 -375 0
-1131 -333 -406 0
-1131 -333 -407 0
-1131 -333 -410 0
-1131 -333 -411 0
-1131 -333 -414 0
-1131 -333 -415 0
-1131 -333 -418 0
-1131 -333 -419 0
-1131 -334 476 0
-1131 -334 -321 -327 0
-1131 -334 -347 0
-1131 -334 -351 0
-1131 -334 -371 0
-1131 -334 -375 0
-1131 -334 -407 0
-1131 -334 -411 0
-1131 -334 -415 0
-1131 -334 -419 0
-1132 446 0
-1132 471 0
-1132 -328 0
-1132 -335 0
-1132 -332 474 0
-1132 -332 -322 -325 0
-1132 -332 -349 0
-1132 -332 -350 0
-1132 -332 -351 0
-1132 -332 -353 0
-1132 -332 -354 0
-1132 -332 -355 0
-1132 -332 -373 0
-1132 -332 -374 0
-1132 -332 -375 0
-1132 -332 -377 0
-1132 -332 -378 0
-1132 -332 -379 0
-1132 -332 -409 0
-1132 -332 -410 0
-1132 -332 -411 0
-1132 -332 -413 0
-1132 -332 -414 0
-1132 -332 -415 0
-1132 -332 -417 0
-1132 -332 -418 0
-1132 -332 -419 0
-1132 -333 475 0
-1132 -333 -322 -326 0
-1132 -333 -350 0
-1132 -333 -351 0
-1132 -333 -354 0
-1132 -333 -355 0
-1132 -333 -374 0
-1132 -333 -375 0
-1132 -333 -378 0
-1132 -333 -379 0
-1132 -333 -410 0
-1132 -333 -411 0
-1132 -333 -414 0
-1132 -333 -415 0
-1132 -333 -418 0
-1132 -333 -419 0
-1132 -334 476 0
-1132 -334 -322 -327 0
-1132 -334 -351 0
-1132 -334 -355 0
-1132 -334 -375 0
-1132 -334 -379 0
-1132 -334 -411 0
-1132 -334 -415 0
-1132 -334 -419 0
-1133 446 0
-1133 472 0
-1133 -328 0
-1133 -329 0
-1133 -335 0
-1133 -332 474 0
-1133 -332 -323 -325 0
-1133 -332 -353 0
-1133 -332 -354 0
-1133 -332 -355 0
-1133 -332 -357 0
-1133 -332 -358 0
-1133 -332 -359 0
-1133 -332 -377 0
-1133 -332 -378 0
-1133 -332 -379 0
-1133 -332 -381 0
-1133 -332 -382 0
-1133 -332 -383 0
-1133 -332 -413 0
-1133 -332 -414 0
-1133 -332 -415 0
-1133 -332 -417 0
-1133 -332 -418 0
-1133 -332 -419 0
-1133 -333 475 0
-1133 -333 -323 -326 0
-1133 -333 -354 0
-1133 -333 -355 0
-1133 -333 -358 0
-1133 -333 -359 0
-1133 -333 -378 0
-1133 -333 -379 0
-1133 -333 -382 0
-1133 -333 -383 0
-1133 -333 -414 0
-1133 -333 -415 0
-1133 -333 -418 0
-1133 -333 -419 0
-1133 -334 476 0
-1133 -334 -323 -327 0
-1133 -334 -355 0
-1133 -334 -359 0
-1133 -334 -379 0
-1133 -334 -383 0
-1133 -334 -415 0
-1133 -334 -419 0
-1134 446 0
-1134 468 0
-1134 473 0
-1134 -319 -324 0
-1134 -336 0
-1134 -337 0
-1134 -338 0
-1134 -339 0
-1134 -340 0
-1134 -341 0
-1134 -342 0
-1134 -343 0
-1134 -360 0
-1134 -361 0
-1134 -362 0
-1134 -363 0
-1134 -364 0
-1134 -365 0
-1134 -366 0
-1134 -367 0
-1134 -404 0
-1134 -405 0
-1134 -406 0
-1134 -407 0
-1134 -408 0
-1134 -409 0
-1134 -410 0
-1134 -411 0
-1135 446 0
-1135 469 0
-1135 473 0
-1135 -320 -324 0
-1135 -340 0
-1135 -341 0
-1135 -342 0
-1135 -343 0
-1135 -344 0
-1135 -345 0
-1135 -346 0
-1135 -347 0
-1135 -364 0
-1135 -365 0
-1135 -366 0
-1135 -367 0
-1135 -368 0
-1135 -369 0
-1135 -370 0
-1135 -371 0
-1135 -404 0
-1135 -405 0
-1135 -406 0
-1135 -407 0
-1135 -408 0
-1135 -409 0
-1135 -410 0
-1135 -411 0
-1135 -412 0
-1135 -413 0
-1135 -414 0
-1135 -415 0
-1136 446 0
-1136 470 0
-1136 473 0
-1136 -321 -324 0
-1136 -344 0
-1136 -345 0
-1136 -346 0
-1136 -347 0
-1136 -348 0
-1136 -349 0
-1136 -350 0
-1136 -351 0
-1136 -368 0
-1136 -369 0
-1136 -370 0
-1136 -371 0
-1136 -372 0
-1136 -373 0
-1136 -374 0
-1136 -375 0
-1136 -404 0
-1136 -405 0
-1136 -406 0
-1136 -407 0
-1136 -408 0
-1136 -409 0
-1136 -410 0
-1136 -411 0
-1136 -412 0
-1136 -413 0
-1136 -414 0
-1136 -415 0
-1136 -416 0
-1136 -417 0
-1136 -418 0
-1136 -419 0
-1137 446 0
-1137 471 0
-1137 473 0
-1137 -322 -324 0
-1137 -348 0
-1137 -349 0
-1137 -350 0
-1137 -351 0
-1137 -352 0
-1137 -353 0
-1137 -354 0
-1137 -355 0
-1137 -372 0
-1137 -373 0
-1137 -374 0
-1137 -375 0
-1137 -376 0
-1137 -377 0
-1137 -378 0
-1137 -379 0
-1137 -408 0
-1137 -409 0
-1137 -410 0
-1137 -411 0
-1137 -412 0
-1137 -413 0
-1137 -414 0
-1137 -415 0
-1137 -416 0
-1137 -417 0
-1137 -418 0
-1137 -419 0
-1138 446 0
-1138 472 0
-1138 473 0
-1138 -323 -324 0
-1138 -352 0
-1138 -353 0
-1138 -354 0
-1138 -355 0
-1138 -356 0
-1138 -357 0
-1138 -358 0
-1138 -359 0
-1138 -376 0
-1138 -377 0
-1138 -378 0
-1138 -379 0
-1138 -380 0
-1138 -381 0
-1138 -382 0
-1138 -383 0
-1138 -412 0
-1138 -413 0
-1138 -414 0
-1138 -415 0
-1138 -416 0
-1138 -417 0
-1138 -418 0
-1138 -419 0
-1139 447 0
-1139 477 0
-1139 -302 0
-1139 -303 0
-1139 -304 0
-1139 -308 0
-1139 -305 482 0
-1139 -305 -328 -333 0
-1139 -305 -337 0
-1139 -305 -338 0
-1139 -305 -339 0
-1139 -305 -341 0
-1139 -305 -342 0
-1139 -305 -343 0
-1139 -305 -345 0
-1139 -305 -346 0
-1139 -305 -347 0
-1139 -305 -361 0
-1139 -305 -362 0
-1139 -305 -363 0
-1139 -305 -365 0
-1139 -305 -366 0
-1139 -305 -367 0
-1139 -305 -369 0
-1139 -305 -370 0
-1139 -305 -371 0
-1139 -305 -385 0
-1139 -305 -386 0
-1139 -305 -387 0
-1139 -305 -389 0
-1139 -305 -390 0
-1139 -305 -391 0
-1139 -305 -393 0
-1139 -305 -394 0
-1139 -305 -395 0
-1139 -306 483 0
-1139 -306 -328 -334 0
-1139 -306 -338 0
-1139 -306 -339 0
-1139 -306 -342 0
-1139 -306 -343 0
-1139 -306 -346 0
-1139 -306 -347 0
-1139 -306 -362 0
-1139 -306 -363 0
-1139 -306 -366 0
-1139 -306 -367 0
-1139 -306 -370 0
-1139 -306 -371 0
-1139 -306 -386 0
-1139 -306 -387 0
-1139 -306 -390 0
-1139 -306 -391 0
-1139 -306 -394 0
-1139 -306 -395 0
-1139 -307 484 0
-1139 -307 -328 -335 0
-1139 -307 -339 0
-1139 -307 -343 0
-1139 -307 -347 0
-1139 -307 -363 0
-1139 -307 -367 0
-1139 -307 -371 0
-1139 -307 -387 0
-1139 -307 -391 0
-1139 -307 -395 0
-1140 447 0
-1140 478 0
-1140 -299 0
-1140 -303 0
-1140 -304 0
-1140 -308 0
-1140 -305 482 0
-1140 -305 -329 -333 0
-1140 -305 -341 0
-1140 -305 -342 0
-1140 -305 -343 0
-1140 -305 -345 0
-1140 -305 -346 0
-1140 -305 -347 0
-1140 -305 -349 0
-1140 -305 -350 0
-1140 -305 -351 0
-1140 -305 -365 0
-1140 -305 -366 0
-1140 -305 -367 0
-1140 -305 -369 0
-1140 -305 -370 0
-1140 -305 -371 0
-1140 -305 -373 0
-1140 -305 -374 0
-1140 -305 -375 0
-1140 -305 -385 0
-1140 -305 -386 0
-1140 -305 -387 0
-1140 -305 -389 0
-1140 -305 -390 0
-1140 -305 -391 0
-1140 -305 -393 0
-1140 -305 -394 0
-1140 -305 -395 0
-1140 -305 -397 0
-1140 -305 -398 0
-1140 -305 -399 0
-1140 -306 483 0
-1140 -306 -329 -334 0
-1140 -306 -342 0
-1140 -306 -343 0
-1140 -306 -346 0
-1140 -306 -347 0
-1140 -306 -350 0
-1140 -306 -351 0
-1140 -306 -366 0
-1140 -306 -367 0
-1140 -306 -370 0
-1140 -306 -371 0
-1140 -306 -374 0
-1140 -306 -375 0
-1140 -306 -386 0
-1140 -306 -387 0
-1140 -306 -390 0
-1140 -306 -391 0
-1140 -306 -394 0
-1140 -306 -395 0
-1140 -306 -398 0
-1140 -306 -399 0
-1140 -307 484 0
-1140 -307 -329 -335 0
-1140 -307 -343 0
-1140 -307 -347 0
-1140 -307 -351 0
-1140 -307 -367 0
-1140 -307 -371 0
-1140 -307 -375 0
-1140 -307 -387 0
-1140 -307 -391 0
-1140 -307 -395 0
-1140 -307 -399 0
-1141 447 0
-1141 479 0
-1141 -299 0
-1141 -300 0
-1141 -304 0
-1141 -308 0
-1141 -305 482 0
-1141 -305 -330 -333 0
-1141 -305 -345 0
-1141 -305 -346 0
-1141 -305 -347 0
-1141 -305 -349 0
-1141 -305 -350 0
-1141 -305 -351 0
-1141 -305 -353 0
-1141 -305 -354 0
-1141 -305 -355 0
-1141 -305 -369 0
-1141 -305 -370 0
-1141 -305 -371 0
-1141 -305 -373 0
-1141 -305 -374 0
-1141 -305 -375 0
-1141 -305 -377 0
-1141 -305 -378 0
-1141 -305 -379 0
-1141 -305 -389 0
-1141 -305 -390 0
-1141 -305 -391 0
-1141 -305 -393 0
-1141 -305 -394 0
-1141 -305 -395 0
-1141 -305 -397 0
-1141 -305 -398 0
-1141 -305 -399 0
-1141 -305 -401 0
-1141 -305 -402 0
-1141 -305 -403 0
-1141 -306 483 0
-1141 -306 -330 -334 0
-1141 -306 -346 0
-1141 -306 -347 0
-1141 -306 -350 0
-1141 -306 -351 0
-1141 -306 -354 0
-1141 -306 -355 0
-1141 -306 -370 0
-1141 -306 -371 0
-1141 -306 -374 0
-1141 -306 -375 0
-1141 -306 -378 0
-1141 -306 -379 0
-1141 -306 -390 0
-1141 -306 -391 0
-1141 -306 -394 0
-1141 -306 -395 0
-1141 -306 -398 0
-1141 -306 -399 0
-1141 -306 -402 0
-1141 -306 -403 0
-1141 -307 484 0
-1141 -307 -330 -335 0
-1141 -307 -347 0
-1141 -307 -351 0
-1141 -307 -355 0
-1141 -307 -371 0
-1141 -307 -375 0
-1141 -307 -379 0
-1141 -307 -391 0
-1141 -307 -395 0
-1141 -307 -399 0
-1141 -307 -403 0
-1142 447 0
-1142 480 0
-1142 -299 0
-1142 -300 0
-1142 -301 0
-1142 -308 0
-1142 -305 482 0
-1142 -305 -331 -333 0
-1142 -305 -349 0
-1142 -305 -350 0
-1142 -305 -351 0
-1142 -305 -353 0
-1142 -305 -354 0
-1142 -305 -355 0
-1142 -305 -357 0
-1142 -305 -358 0
-1142 -305 -359 0
-1142 -305 -373 0
-1142 -305 -374 0
-1142 -305 -375 0
-1142 -305 -377 0
-1142 -305 -378 0
-1142 -305 -379 0
-1142 -305 -381 0
-1142 -305 -382 0
-1142 -305 -383 0
-1142 -305 -393 0
-1142 -305 -394 0
-1142 -305 -395 0
-1142 -305 -397 0
-1142 -305 -398 0
-1142 -305 -399 0
-1142 -305 -401 0
-1142 -305 -402 0
-1142 -305 -403 0
-1142 -306 483 0
-1142 -306 -331 -334 0
-1142 -306 -350 0
-1142 -306 -351 0
-1142 -306 -354 0
-1142 -306 -355 0
-1142 -306 -358 0
-1142 -306 -359 0
-1142 -306 -374 0
-1142 -306 -375 0
-1142 -306 -378 0
-1142 -306 -379 0
-1142 -306 -382 0
-1142 -306 -383 0
-1142 -306 -394 0
-1142 -306 -395 0
-1142 -306 -398 0
-1142 -306 -399 0
-1142 -306 -402 0
-1142 -306 -403 0
-1142 -307 484 0
-1142 -307 -331 -335 0
-1142 -307 -351 0
-1142 -307 -355 0
-1142 -307 -359 0
-1142 -307 -375 0
-1142 -307 -379 0
-1142 -307 -383 0
-1142 -307 -395 0
-1142 -307 -399 0
-1142 -307 -403 0
-1143 447 0
-1143 477 0
-1143 -312 0
-1143 -313 0
-1143 -314 0
-1143 -318 0
-1143 -315 482 0
-1143 -315 -328 -333 0
-1143 -315 -337 0
-1143 -315 -338 0
-1143 -315 -339 0
-1143 -315 -341 0
-1143 -315 -342 0
-1143 -315 -343 0
-1143 -315 -345 0
-1143 -315 -346 0
-1143 -315 -347 0
-1143 -315 -361 0
-1143 -315 -362 0
-1143 -315 -363 0
-1143 -315 -365 0
-1143 -315 -366 0
-1143 -315 -367 0
-1143 -315 -369 0
-1143 -315 -370 0
-1143 -315 -371 0
-1143 -315 -385 0
-1143 -315 -386 0
-1143 -315 -387 0
-1143 -315 -389 0
-1143 -315 -390 0
-1143 -315 -391 0
-1143 -315 -393 0
-1143 -315 -394 0
-1143 -315 -395 0
-1143 -316 483 0
-1143 -316 -328 -334 0
-1143 -316 -338 0
-1143 -316 -339 0
-1143 -316 -342 0
-1143 -316 -343 0
-1143 -316 -346 0
-1143 -316 -347 0
-1143 -316 -362 0
-1143 -316 -363 0
-1143 -316 -366 0
-1143 -316 -367 0
-1143 -316 -370 0
-1143 -316 -371 0
-1143 -316 -386 0
-1143 -316 -387 0
-1143 -316 -390 0
-1143 -316 -391 0
-1143 -316 -394 0
-1143 -316 -395 0
-1143 -317 484 0
-1143 -317 -328 -335 0
-1143 -317 -339 0
-1143 -317 -343 0
-1143 -317 -347 0
-1143 -317 -363 0
-1143 -317 -367 0
-1143 -317 -371 0
-1143 -317 -387 0
-1143 -317 -391 0
-1143 -317 -395 0
-1144 447 0
-1144 478 0
-1144 -309 0
-1144 -313 0
-1144 -314 0
-1144 -318 0
-1144 -315 482 0
-1144 -315 -329 -333 0
-1144 -315 -341 0
-1144 -315 -342 0
-1144 -315 -343 0
-1144 -315 -345 0
-1144 -315 -346 0
-1144 -315 -347 0
-1144 -315 -349 0
-1144 -315 -350 0
-1144 -315 -351 0
-1144 -315 -365 0
-1144 -315 -366 0
-1144 -315 -367 0
-1144 -315 -369 0
-1144 -315 -370 0
-1144 -315 -371 0
-1144 -315 -373 0
-1144 -315 -374 0
-1144 -315 -375 0
-1144 -315 -385 0
-1144 -315 -386 0
-1144 -315 -387 0
-1144 -315 -389 0
-1144 -315 -390 0
-1144 -315 -391 0
-1144 -315 -393 0
-1144 -315 -394 0
-1144 -315 -395 0
-1144 -315 -397 0
-1144 -315 -398 0
-1144 -315 -399 0
-1144 -316 483 0
-1144 -316 -329 -334 0
-1144 -316 -342 0
-1144 -316 -343 0
-1144 -316 -346 0
-1144 -316 -347 0
-1144 -316 -350 0
-1144 -316 -351 0
-1144 -316 -366 0
-1144 -316 -367 0
-1144 -316 -370 0
-1144 -316 -371 0
-1144 -316 -374 0
-1144 -316 -375 0
-1144 -316 -386 0
-1144 -316 -387 0
-1144 -316 -390 0
-1144 -316 -391 0
-1144 -316 -394 0
-1144 -316 -395 0
-1144 -316 -398 0
-1144 -316 -399 0
-1144 -317 484 0
-1144 -317 -329 -335 0
-1144 -317 -343 0
-1144 -317 -347 0
-1144 -317 -351 0
-1144 -317 -367 0
-1144 -317 -371 0
-1144 -317 -375 0
-1144 -317 -387 0
-1144 -317 -391 0
-1144 -317 -395 0
-1144 -317 -399 0
-1145 447 0
-1145 479 0
-1145 -309 0
-1145 -310 0
-1145 -314 0
-1145 -318 0
-1145 -315 482 0
-1145 -315 -330 -333 0
-1145 -315 -345 0
-1145 -315 -346 0
-1145 -315 -347 0
-1145 -315 -349 0
-1145 -315 -350 0
-1145 -315 -351 0
-1145 -315 -353 0
-1145 -315 -354 0
-1145 -315 -355 0
-1145 -315 -369 0
-1145 -315 -370 0
-1145 -315 -371 0
-1145 -315 -373 0
-1145 -315 -374 0
-1145 -315 -375 0
-1145 -315 -377 0
-1145 -315 -378 0
-1145 -315 -379 0
-1145 -315 -389 0
-1145 -315 -390 0
-1145 -315 -391 0
-1145 -315 -393 0
-1145 -315 -394 0
-1145 -315 -395 0
-1145 -315 -397 0
-1145 -315 -398 0
-1145 -315 -399 0
-1145 -315 -401 0
-1145 -315 -402 0
-1145 -315 -403 0
-1145 -316 483 0
-1145 -316 -330 -334 0
-1145 -316 -346 0
-1145 -316 -347 0
-1145 -316 -350 0
-1145 -316 -351 0
-1145 -316 -354 0
-1145 -316 -355 0
-1145 -316 -370 0
-1145 -316 -371 0
-1145 -316 -374 0
-1145 -316 -375 0
-1145 -316 -378 0
-1145 -316 -379 0
-1145 -316 -390 0
-1145 -316 -391 0
-1145 -316 -394 0
-1145 -316 -395 0
-1145 -316 -398 0
-1145 -316 -399 0
-1145 -316 -402 0
-1145 -316 -403 0
-1145 -317 484 0
-1145 -317 -330 -335 0
-1145 -317 -347 0
-1145 -317 -351 0
-1145 -317 -355 0
-1145 -317 -371 0
-1145 -317 -375 0
-1145 -317 -379 0
-1145 -317 -391 0
-1145 -317 -395 0
-1145 -317 -399 0
-1145 -317 -403 0
-1146 447 0
-1146 480 0
-1146 -309 0
-1146 -310 0
-1146 -311 0
-1146 -318 0
-1146 -315 482 0
-1146 -315 -331 -333 0
-1146 -315 -349 0
-1146 -315 -350 0
-1146 -315 -351 0
-1146 -315 -353 0
-1146 -315 -354 0
-1146 -315 -355 0
-1146 -315 -357 0
-1146 -315 -358 0
-1146 -315 -359 0
-1146 -315 -373 0
-1146 -315 -374 0
-1146 -315 -375 0
-1146 -315 -377 0
-1146 -315 -378 0
-1146 -315 -379 0
-1146 -315 -381 0
-1146 -315 -382 0
-1146 -315 -383 0
-1146 -315 -393 0
-1146 -315 -394 0
-1146 -315 -395 0
-1146 -315 -397 0
-1146 -315 -398 0
-1146 -315 -399 0
-1146 -315 -401 0
-1146 -315 -402 0
-1146 -315 -403 0
-1146 -316 483 0
-1146 -316 -331 -334 0
-1146 -316 -350 0
-1146 -316 -351 0
-1146 -316 -354 0
-1146 -316 -355 0
-1146 -316 -358 0
-1146 -316 -359 0
-1146 -316 -374 0
-1146 -316 -375 0
-1146 -316 -378 0
-1146 -316 -379 0
-1146 -316 -382 0
-1146 -316 -383 0
-1146 -316 -394 0
-1146 -316 -395 0
-1146 -316 -398 0
-1146 -316 -399 0
-1146 -316 -402 0
-1146 -316 -403 0
-1146 -317 484 0
-1146 -317 -331 -335 0
-1146 -317 -351 0
-1146 -317 -355 0
-1146 -317 -359 0
-1146 -317 -375 0
-1146 -317 -379 0
-1146 -317 -383 0
-1146 -317 -395 0
-1146 -317 -399 0
-1146 -317 -403 0
-1147 447 0
-1147 477 0
-1147 -322 0
-1147 -323 0
-1147 -327 0
-1147 -324 482 0
-1147 -324 -328 -333 0
-1147 -324 -337 0
-1147 -324 -338 0
-1147 -324 -339 0
-1147 -324 -341 0
-1147 -324 -342 0
-1147 -324 -343 0
-1147 -324 -345 0
-1147 -324 -346 0
-1147 -324 -347 0
-1147 -324 -361 0
-1147 -324 -362 0
-1147 -324 -363 0
-1147 -324 -365 0
-1147 -324 -366 0
-1147 -324 -367 0
-1147 -324 -369 0
-1147 -324 -370 0
-1147 -324 -371 0
-1147 -324 -385 0
-1147 -324 -386 0
-1147 -324 -387 0
-1147 -324 -389 0
-1147 -324 -390 0
-1147 -324 -391 0
-1147 -324 -393 0
-1147 -324 -394 0
-1147 -324 -395 0
-1147 -325 483 0
-1147 -325 -328 -334 0
-1147 -325 -338 0
-1147 -325 -339 0
-1147 -325 -342 0
-1147 -325 -343 0
-1147 -325 -346 0
-1147 -325 -347 0
-1147 -325 -362 0
-1147 -325 -363 0
-1147 -325 -366 0
-1147 -325 -367 0
-1147 -325 -370 0
-1147 -325 -371 0
-1147 -325 -386 0
-1147 -325 -387 0
-1147 -325 -390 0
-1147 -325 -391 0
-1147 -325 -394 0
-1147 -325 -395 0
-1147 -326 484 0
-1147 -326 -328 -335 0
-1147 -326 -339 0
-1147 -326 -343 0
-1147 -326 -347 0
-1147 -326 -363 0
-1147 -326 -367 0
-1147 -326 -371 0
-1147 -326 -387 0
-1147 -326 -391 0
-1147 -326 -395 0
-1148 447 0
-1148 478 0
-1148 -323 0
-1148 -327 0
-1148 -324 482 0
-1148 -324 -329 -333 0
-1148 -324 -341 0
-1148 -324 -342 0
-1148 -324 -343 0
-1148 -324 -345 0
-1148 -324 -346 0
-1148 -324 -347 0
-1148 -324 -349 0
-1148 -324 -350 0
-1148 -324 -351 0
-1148 -324 -365 0
-1148 -324 -366 0
-1148 -324 -367 0
-1148 -324 -369 0
-1148 -324 -370 0
-1148 -324 -371 0
-1148 -324 -373 0
-1148 -324 -374 0
-1148 -324 -375 0
-1148 -324 -385 0
-1148 -324 -386 0
-1148 -324 -387 0
-1148 -324 -389 0
-1148 -324 -390 0
-1148 -324 -391 0
-1148 -324 -393 0
-1148 -324 -394 0
-1148 -324 -395 0
-1148 -324 -397 0
-1148 -324 -398 0
-1148 -324 -399 0
-1148 -325 483 0
-1148 -325 -329 -334 0
-1148 -325 -342 0
-1148 -325 -343 0
-1148 -325 -346 0
-1148 -325 -347 0
-1148 -325 -350 0
-1148 -325 -351 0
-1148 -325 -366 0
-1148 -325 -367 0
-1148 -325 -370 0
-1148 -325 -371 0
-1148 -325 -374 0
-1148 -325 -375 0
-1148 -325 -386 0
-1148 -325 -387 0
-1148 -325 -390 0
-1148 -325 -391 0
-1148 -325 -394 0
-1148 -325 -395 0
-1148 -325 -398 0
-1148 -325 -399 0
-1148 -326 484 0
-1148 -326 -329 -335 0
-1148 -326 -343 0
-1148 -326 -347 0
-1148 -326 -351 0
-1148 -326 -367 0
-1148 -326 -371 0
-1148 -326 -375 0
-1148 -326 -387 0
-1148 -326 -391 0
-1148 -326 -395 0
-1148 -326 -399 0
-1149 447 0
-1149 479 0
-1149 -319 0
-1149 -327 0
-1149 -324 482 0
-1149 -324 -330 -333 0
-1149 -324 -345 0
-1149 -324 -346 0
-1149 -324 -347 0
-1149 -324 -349 0
-1149 -324 -350 0
-1149 -324 -351 0
-1149 -324 -353 0
-1149 -324 -354 0
-1149 -324 -355 0
-1149 -324 -369 0
-1149 -324 -370 0
-1149 -324 -371 0
-1149 -324 -373 0
-1149 -324 -374 0
-1149 -324 -375 0
-1149 -324 -377 0
-1149 -324 -378 0
-1149 -324 -379 0
-1149 -324 -389 0
-1149 -324 -390 0
-1149 -324 -391 0
-1149 -324 -393 0
-1149 -324 -394 0
-1149 -324 -395 0
-1149 -324 -397 0
-1149 -324 -398 0
-1149 -324 -399 0
-1149 -324 -401 0
-1149 -324 -402 0
-1149 -324 -403 0
-1149 -325 483 0
-1149 -325 -330 -334 0
-1149 -325 -346 0
-1149 -325 -347 0
-1149 -325 -350 0
-1149 -325 -351 0
-1149 -325 -354 0
-1149 -325 -355 0
-1149 -325 -370 0
-1149 -325 -371 0
-1149 -325 -374 0
-1149 -325 -375 0
-1149 -325 -378 0
-1149 -325 -379 0
-1149 -325 -390 0
-1149 -325 -391 0
-1149 -325 -394 0
-1149 -325 -395 0
-1149 -325 -398 0
-1149 -325 -399 0
-1149 -325 -402 0
-1149 -325 -403 0
-1149 -326 484 0
-1149 -326 -330 -335 0
-1149 -326 -347 0
-1149 -326 -351 0
-1149 -326 -355 0
-1149 -326 -371 0
-1149 -326 -375 0
-1149 -326 -379 0
-1149 -326 -391 0
-1149 -326 -395 0
-1149 -326 -399 0
-1149 -326 -403 0
-1150 447 0
-1150 480 0
-1150 -319 0
-1150 -320 0
-1150 -327 0
-1150 -324 482 0
-1150 -324 -331 -333 0
-1150 -324 -349 0
-1150 -324 -350 0
-1150 -324 -351 0
-1150 -324 -353 0
-1150 -324 -354 0
-1150 -324 -355 0
-1150 -324 -357 0
-1150 -324 -358 0
-1150 -324 -359 0
-1150 -324 -373 0
-1150 -324 -374 0
-1150 -324 -375 0
-1150 -324 -377 0
-1150 -324 -378 0
-1150 -324 -379 0
-1150 -324 -381 0
-1150 -324 -382 0
-1150 -324 -383 0
-1150 -324 -393 0
-1150 -324 -394 0
-1150 -324 -395 0
-1150 -324 -397 0
-1150 -324 -398 0
-1150 -324 -399 0
-1150 -324 -401 0
-1150 -324 -402 0
-1150 -324 -403 0
-1150 -325 483 0
-1150 -325 -331 -334 0
-1150 -325 -350 0
-1150 -325 -351 0
-1150 -325 -354 0
-1150 -325 -355 0
-1150 -325 -358 0
-1150 -325 -359 0
-1150 -325 -374 0
-1150 -325 -375 0
-1150 -325 -378 0
-1150 -325 -379 0
-1150 -325 -382 0
-1150 -325 -383 0
-1150 -325 -394 0
-1150 -325 -395 0
-1150 -325 -398 0
-1150 -325 -399 0
-1150 -325 -402 0
-1150 -325 -403 0
-1150 -326 484 0
-1150 -326 -331 -335 0
-1150 -326 -351 0
-1150 -326 -355 0
-1150 -326 -359 0
-1150 -326 -375 0
-1150 -326 -379 0
-1150 -326 -383 0
-1150 -326 -395 0
-1150 -326 -399 0
-1150 -326 -403 0
-1151 447 0
-1151 477 0
-1151 481 0
-1151 -328 -332 0
-1151 -336 0
-1151 -337 0
-1151 -338 0
-1151 -339 0
-1151 -340 0
-1151 -341 0
-1151 -342 0
-1151 -343 0
-1151 -344 0
-1151 -345 0
-1151 -346 0
-1151 -347 0
-1151 -360 0
-1151 -361 0
-1151 -362 0
-1151 -363 0
-1151 -364 0
-1151 -365 0
-1151 -366 0
-1151 -367 0
-1151 -368 0
-1151 -369 0
-1151 -370 0
-1151 -371 0
-1151 -384 0
-1151 -385 0
-1151 -386 0
-1151 -387 0
-1151 -388 0
-1151 -389 0
-1151 -390 0
-1151 -391 0
-1151 -392 0
-1151 -393 0
-1151 -394 0
-1151 -395 0
-1152 447 0
-1152 478 0
-1152 481 0
-1152 -329 -332 0
-1152 -340 0
-1152 -341 0
-1152 -342 0
-1152 -343 0
-1152 -344 0
-1152 -345 0
-1152 -346 0
-1152 -347 0
-1152 -348 0
-1152 -349 0
-1152 -350 0
-1152 -351 0
-1152 -364 0
-1152 -365 0
-1152 -366 0
-1152 -367 0
-1152 -368 0
-1152 -369 0
-1152 -370 0
-1152 -371 0
-1152 -372 0
-1152 -373 0
-1152 -374 0
-1152 -375 0
-1152 -384 0
-1152 -385 0
-1152 -386 0
-1152 -387 0
-1152 -388 0
-1152 -389 0
-1152 -390 0
-1152 -391 0
-1152 -392 0
-1152 -393 0
-1152 -394 0
-1152 -395 0
-1152 -396 0
-1152 -397 0
-1152 -398 0
-1152 -399 0
-1153 447 0
-1153 479 0
-1153 481 0
-1153 -330 -332 0
-1153 -344 0
-1153 -345 0
-1153 -346 0
-1153 -347 0
-1153 -348 0
-1153 -349 0
-1153 -350 0
-1153 -351 0
-1153 -352 0
-1153 -353 0
-1153 -354 0
-1153 -355 0
-1153 -368 0
-1153 -369 0
-1153 -370 0
-1153 -371 0
-1153 -372 0
-1153 -373 0
-1153 -374 0
-1153 -375 0
-1153 -376 0
-1153 -377 0
-1153 -378 0
-1153 -379 0
-1153 -388 0
-1153 -389 0
-1153 -390 0
-1153 -391 0
-1153 -392 0
-1153 -393 0
-1153 -394 0
-1153 -395 0
-1153 -396 0
-1153 -397 0
-1153 -398 0
-1153 -399 0
-1153 -400 0
-1153 -401 0
-1153 -402 0
-1153 -403 0
-1154 447 0
-1154 480 0
-1154 481 0
-1154 -331 -332 0
-1154 -348 0
-1154 -349 0
-1154 -350 0
-1154 -351 0
-1154 -352 0
-1154 -353 0
-1154 -354 0
-1154 -355 0
-1154 -356 0
-1154 -357 0
-1154 -358 0
-1154 -359 0
-1154 -372 0
-1154 -373 0
-1154 -374 0
-1154 -375 0
-1154 -376 0
-1154 -377 0
-1154 -378 0
-1154 -379 0
-1154 -380 0
-1154 -381 0
-1154 -382 0
-1154 -383 0
-1154 -392 0
-1154 -393 0
-1154 -394 0
-1154 -395 0
-1154 -396 0
-1154 -397 0
-1154 -398 0
-1154 -399 0
-1154 -400 0
-1154 -401 0
-1154 -402 0
-1154 -403 0
1159 1160 1161 1162 1163 1164 1165 1166 1167 1168 1169 1170 1171 1172 1173 1174 1175 1176 1177 1178 1179 1180 1181 1182 1183 1184 1185 1186 1187 1188 1189 1190 1191 1192 1193 1194 1195 1196 1197 1198 1199 1200 1201 1202 1203 1204 1205 1206 1207 1208 1209 1210 1211 1212 1213 1214 1215 1216 1217 1218 1219 1220 1221 1222 1223 1224 1225 1226 1227 1228 1229 1230 1231 1232 1233 1234 1235 1236 1237 1238 1239 1240 1241 1242 0
-1159 -1160 0
-1159 -1161 0
-1159 -1162 0
-1159 -1163 0
-1159 -1164 0
-1159 -1165 0
-1159 -1166 0
-1159 -1167 0
-1159 -1168 0
-1159 -1169 0
-1159 -1170 0
-1159 -1171 0
-1159 -1172 0
-1159 -1173 0
-1159 -1174 0
-1159 -1175 0
-1159 -1176 0
-1159 -1177 0
-1159 -1178 0
-1159 -1179 0
-1159 -1180 0
-1159 -1181 0
-1159 -1182 0
-1159 -1183 0
-1159 -1184 0
-1159 -1185 0
-1159 -1186 0
-1159 -1187 0
-1159 -1188 0
-1159 -1189 0
-1159 -1190 0
-1159 -1191 0
-1159 -1192 0
-1159 -1193 0
-1159 -1194 0
-1159 -1195 0
-1159 -1196 0
-1159 -1197 0
-1159 -1198 0
-1159 -1199 0
-1159 -1200 0
-1159 -1201 0
-1159 -1202 0
-1159 -1203 0
-1159 -1204 0
-1159 -1205 0
-1159 -1206 0
-1159 -1207 0
-1159 -1208 0
-1159 -1209 0
-1159 -1210 0
-1159 -1211 0
-1159 -1212 0
-1159 -1213 0
-1159 -1214 0
-1159 -1215 0
-1159 -1216 0
-1159 -1217 0
-1159 -1218 0
-1159 -1219 0
-1159 -1220 0
-1159 -1221 0
-1159 -1222 0
-1159 -1223 0
-1159 -1224 0
-1159 -1225 0
-1159 -1226 0
-1159 -1227 0
-1159 -1228 0
-1159 -1229 0
-1159 -1230 0
-1159 -1231 0
-1159 -1232 0
-1159 -1233 0
-1159 -1234 0
-1159 -1235 0
-1159 -1236 0
-1159 -1237 0
-1159 -1238 0
-1159 -1239 0
-1159 -1240 0
-1159 -1241 0
-1159 -1242 0
-1160 -1161 0
-1160 -1162 0
-1160 -1163 0
-1160 -1164 0
-1160 -1165 0
-1160 -1166 0
-1160 -1167 0
-1160 -1168 0
-1160 -1169 0
-1160 -1170 0
-1160 -1171 0
-1160 -1172 0
-1160 -1173 0
-1160 -1174 0
-1160 -1175 0
-1160 -1176 0
-1160 -1177 0
-1160 -1178 0
-1160 -1179 0
-1160 -1180 0
-1160 -1181 0
-1160 -1182 0
-1160 -1183 0
-1160 -1184 0
-1160 -1185 0
-1160 -1186 0
-1160 -1187 0
-1160 -1188 0
-1160 -1189 0
-1160 -1190 0
-1160 -1191 0
-1160 -1192 0
-1160 -1193 0
-1160 -1194 0
-1160 -1195 0
-1160 -1196 0
-1160 -1197 0
-1160 -1198 0
-1160 -1199 0
-1160 -1200 0
-1160 -1201 0
-1160 -1202 0
-1160 -1203 0
-1160 -1204 0
-1160 -1205 0
-1160 -1206 0
-1160 -1207 0
-1160 -1208 0
-1160 -1209 0
-1160 -1210 0
-1160 -1211 0
-1160 -1212 0
-1160 -1213 0
-1160 -1214 0
-1160 -1215 0
-1160 -1216 0
-1160 -1217 0
-1160 -1218 0
-1160 -1219 0
-1160 -1220 0
-1160 -1221 0
-1160 -1222 0
-1160 -1223 0
-1160 -1224 0
-1160 -1225 0
-1160 -1226 0
-1160 -1227 0
-1160 -1228 0
-1160 -1229 0
-1160 -1230 0
-1160 -1231 0
-1160 -1232 0
-1160 -1233 0
-1160 -1234 0
-1160 -1235 0
-1160 -1236 0
-1160 -1237 0
-1160 -1238 0
-1160 -1239 0
-1160 -1240 0
-1160 -1241 0
-1160 -1242 0
-1161 -1162 0
-1161 -1163 0
-1161 -1164 0
-1161 -1165 0
-1161 -1166 0
-1161 -1167 0
-1161 -1168 0
-1161 -1169 0
-1161 -1170 0
-1161 -1171 0
-1161 -1172 0
-1161 -1173 0
-1161 -1174 0
-1161 -1175 0
-1161 -1176 0
-1161 -1177 0
-1161 -1178 0
-1161 -1179 0
-1161 -1180 0
-1161 -1181 0
-1161 -1182 0
-1161 -1183 0
-1161 -1184 0
-1161 -1185 0
-1161 -1186 0
-1161 -1187 0
-1161 -1188 0
-1161 -1189 0
-1161 -1190 0
-1161 -1191 0
-1161 -1192 0
-1161 -1193 0
-1161 -1194 0
-1161 -1195 0
-1161 -1196 0
-1161 -1197 0
-1161 -1198 0
-1161 -1199 0
-1161 -1200 0
-1161 -1201 0
-1161 -1202 0
-1161 -1203 0
-1161 -1204 0
-1161 -1205 0
-1161 -1206 0
-1161 -1207 0
-1161 -1208 0
-1161 -1209 0
-1161 -1210 0
-1161 -1211 0
-1161 -1212 0
-1161 -1213 0
-1161 -1214 0
-1161 -1215 0
-1161 -1216 0
-1161 -1217 0
-1161 -1218 0
-1161 -1219 0
-1161 -1220 0
-1161 -1221 0
-1161 -1222 0
-1161 -1223 0
-1161 -1224 0
-1161 -1225 0
-1161 -1226 0
-1161 -1227 0
-1161 -1228 0
-1161 -1229 0
-1161 -1230 0
-1161 -1231 0
-1161 -1232 0
-1161 -1233 0
-1161 -1234 0
-1161 -1235 0
-1161 -1236 0
-1161 -1237 0
-1161 -1238 0
-1161 -1239 0
-1161 -1240 0
-1161 -1241 0
-1161 -1242 0
-1162 -1163 0
-1162 -1164 0
-1162 -1165 0
-1162 -1166 0
-1162 -1167 0
-1162 -1168 0
-1162 -1169 0
-1162 -1170 0
-1162 -1171 0
-1162 -1172 0
-1162 -1173 0
-1162 -1174 0
-1162 -1175 0
-1162 -1176 0
-1162 -1177 0
-1162 -1178 0
-1162 -1179 0
-1162 -1180 0
-1162 -1181 0
-1162 -1182 0
-1162 -1183 0
-1162 -1184 0
-1162 -1185 0
-1162 -1186 0
-1162 -1187 0
-1162 -1188 0
-1162 -1189 0
-1162 -1190 0
-1162 -1191 0
-1162 -1192 0
-1162 -1193 0
-1162 -1194 0
-1162 -1195 0
-1162 -1196 0
-1162 -1197 0
-1162 -1198 0
-1162 -1199 0
-1162 -1200 0
-1162 -1201 0
-1162 -1202 0
-1162 -1203 0
-1162 -1204 0
-1162 -1205 0
-1162 -1206 0
-1162 -1207 0
-1162 -1208 0
-1162 -1209 0
-1162 -1210 0
-1162 -1211 0
-1162 -1212 0
-1162 -1213 0
-1162 -1214 0
-1162 -1215 0
-1162 -1216 0
-1162 -1217 0
-1162 -1218 0
-1162 -1219 0
-1162 -1220 0
-1162 -1221 0
-1162 -1222 0
-1162 -1223 0
-1162 -1224 0
-1162 -1225 0
-1162 -1226 0
-1162 -1227 0
-1162 -1228 0
-1162 -1229 0
-1162 -1230 0
-1162 -1231 0
-1162 -1232 0
-1162 -1233 0
-1162 -1234 0
-1162 -1235 0
-1162 -1236 0
-1162 -1237 0
-1162 -1238 0
-1162 -1239 0
-1162 -1240 0
-1162 -1241 0
-1162 -1242 0
-1163 -1164 0
-1163 -1165 0
-1163 -1166 0
-1163 -1167 0
-1163 -1168 0
-1163 -1169 0
-1163 -1170 0
-1163 -1171 0
-1163 -1172 0
-1163 -1173 0
-1163 -1174 0
-1163 -1175 0
-1163 -1176 0
-1163 -1177 0
-1163 -1178 0
-1163 -1179 0
-1163 -1180 0
-1163 -1181 0
-1163 -1182 0
-1163 -1183 0
-1163 -1184 0
-1163 -1185 0
-1163 -1186 0
-1163 -1187 0
-1163 -1188 0
-1163 -1189 0
-1163 -1190 0
-1163 -1191 0
-1163 -1192 0
-1163 -1193 0
-1163 -1194 0
-1163 -1195 0
-1163 -1196 0
-1163 -1197 0
-1163 -1198 0
-1163 -1199 0
-1163 -1200 0
-1163 -1201 0
-1163 -1202 0
-1163 -1203 0
-1163 -1204 0
-1163 -1205 0
-1163 -1206 0
-1163 -1207 0
-1163 -1208 0
-1163 -1209 0
-1163 -1210 0
-1163 -1211 0
-1163 -1212 0
-1163 -1213 0
-1163 -1214 0
-1163 -1215 0
-1163 -1216 0
-1163 -1217 0
-1163 -1218 0
-1163 -1219 0
-1163 -1220 0
-1163 -1221 0
-1163 -1222 0
-1163 -1223 0
-1163 -1224 0
-1163 -1225 0
-1163 -1226 0
-1163 -1227 0
-1163 -1228 0
-1163 -1229 0
-1163 -1230 0
-1163 -1231 0
-1163 -1232 0
-1163 -1233 0
-1163 -1234 0
-1163 -1235 0
-1163 -1236 0
-1163 -1237 0
-1163 -1238 0
-1163 -1239 0
-1163 -1240 0
-1163 -1241 0
-1163 -1242 0
-1164 -1165 0
-1164 -1166 0
-1164 -1167 0
-1164 -1168 0
-1164 -1169 0
-1164 -1170 0
-1164 -1171 0
-1164 -1172 0
-1164 -1173 0
-1164 -1174 0
-1164 -1175 0
-1164 -1176 0
-1164 -1177 0
-1164 -1178 0
-1164 -1179 0
-1164 -1180 0
-1164 -1181 0
-1164 -1182 0
-1164 -1183 0
-1164 -1184 0
-1164 -1185 0
-1164 -1186 0
-1164 -1187 0
-1164 -1188 0
-1164 -1189 0
-1164 -1190 0
-1164 -1191 0
-1164 -1192 0
-1164 -1193 0
-1164 -1194 0
-1164 -1195 0
-1164 -1196 0
-1164 -1197 0
-1164 -1198 0
-1164 -1199 0
-1164 -1200 0
-1164 -1201 0
-1164 -1202 0
-1164 -1203 0
-1164 -1204 0
-1164 -1205 0
-1164 -1206 0
-1164 -1207 0
-1164 -1208 0
-1164 -1209 0
-1164 -1210 0
-1164 -1211 0
-1164 -1212 0
-1164 -1213 0
-1164 -1214 0
-1164 -1215 0
-1164 -1216 0
-1164 -1217 0
-1164 -1218 0
-1164 -1219 0
-1164 -1220 0
-1164 -1221 0
-1164 -1222 0
-1164 -1223 0
-1164 -1224 0
-1164 -1225 0
-1164 -1226 0
-1164 -1227 0
-1164 -1228 0
-1164 -1229 0
-1164 -1230 0
-1164 -1231 0
-1164 -1232 0
-1164 -1233 0
-1164 -1234 0
-1164 -1235 0
-1164 -1236 0
-1164 -1237 0
-1164 -1238 0
-1164 -1239 0
-1164 -1240 0
-1164 -1241 0
-1164 -1242 0
-1165 -1166 0
-1165 -1167 0
-1165 -1168 0
-1165 -1169 0
-1165 -1170 0
-1165 -1171 0
-1165 -1172 0
-1165 -1173 0
-1165 -1174 0
-1165 -1175 0
-1165 -1176 0
-1165 -1177 0
-1165 -1178 0
-1165 -1179 0
-1165 -1180 0
-1165 -1181 0
-1165 -1182 0
-1165 -1183 0
-1165 -1184 0
-1165 -1185 0
-1165 -1186 0
-1165 -1187 0
-1165 -1188 0
-1165 -1189 0
-1165 -1190 0
-1165 -1191 0
-1165 -1192 0
-1165 -1193 0
-1165 -1194 0
-1165 -1195 0
-1165 -1196 0
-1165 -1197 0
-1165 -1198 0
-1165 -1199 0
-1165 -1200 0
-1165 -1201 0
-1165 -1202 0
-1165 -1203 0
-1165 -1204 0
-1165 -1205 0
-1165 -1206 0
-1165 -1207 0
-1165 -1208 0
-1165 -1209 0
-1165 -1210 0
-1165 -1211 0
-1165 -1212 0
-1165 -1213 0
-1165 -1214 0
-1165 -1215 0
-1165 -1216 0
-1165 -1217 0
-1165 -1218 0
-1165 -1219 0
-1165 -1220 0
-1165 -1221 0
-1165 -1222 0
-1165 -1223 0
-1165 -1224 0
-1165 -1225 0
-1165 -1226 0
-1165 -1227 0
-1165 -1228 0
-1165 -1229 0
-1165 -1230 0
-1165 -1231 0
-1165 -1232 0
-1165 -1233 0
-1165 -1234 0
-1165 -1235 0
-1165 -1236 0
-1165 -1237 0
-1165 -1238 0
-1165 -1239 0
-1165 -1240 0
-1165 -1241 0
-1165 -1242 0
-1166 -1167 0
-1166 -1168 0
-1166 -1169 0
-1166 -1170 0
-1166 -1171 0
-1166 -1172 0
-1166 -1173 0
-1166 -1174 0
-1166 -1175 0
-1166 -1176 0
-1166 -1177 0
-1166 -1178 0
-1166 -1179 0
-1166 -1180 0
-1166 -1181 0
-1166 -1182 0
-1166 -1183 0
-1166 -1184 0
-1166 -1185 0
-1166 -1186 0
-1166 -1187 0
-1166 -1188 0
-1166 -1189 0
-1166 -1190 0
-1166 -1191 0
-1166 -1192 0
-1166 -1193 0
-1166 -1194 0
-1166 -1195 0
-1166 -1196 0
-1166 -1197 0
-1166 -1198 0
-1166 -1199 0
-1166 -1200 0
-1166 -1201 0
-1166 -1202 0
-1166 -1203 0
-1166 -1204 0
-1166 -1205 0
-1166 -1206 0
-1166 -1207 0
-1166 -1208 0
-1166 -1209 0
-1166 -1210 0
-1166 -1211 0
-1166 -1212 0
-1166 -1213 0
-1166 -1214 0
-1166 -1215 0
-1166 -1216 0
-1166 -1217 0
-1166 -1218 0
-1166 -1219 0
-1166 -1220 0
-1166 -1221 0
-1166 -1222 0
-1166 -1223 0
-1166 -1224 0
-1166 -1225 0
-1166 -1226 0
-1166 -1227 0
-1166 -1228 0
-1166 -1229 0
-1166 -1230 0
-1166 -1231 0
-1166 -1232 0
-1166 -1233 0
-1166 -1234 0
-1166 -1235 0
-1166 -1236 0
-1166 -1237 0
-1166 -1238 0
-1166 -1239 0
-1166 -1240 0
-1166 -1241 0
-1166 -1242 0
-1167 -1168 0
-1167 -1169 0
-1167 -1170 0
-1167 -1171 0
-1167 -1172 0
-1167 -1173 0
-1167 -1174 0
-1167 -1175 0
-1167 -1176 0
-1167 -1177 0
-1167 -1178 0
-1167 -1179 0
-1167 -1180 0
-1167 -1181 0
-1167 -1182 0
-1167 -1183 0
-1167 -1184 0
-1167 -1185 0
-1167 -1186 0
-1167 -1187 0
-1167 -1188 0
-1167 -1189 0
-1167 -1190 0
-1167 -1191 0
-1167 -1192 0
-1167 -1193 0
-1167 -1194 0
-1167 -1195 0
-1167 -1196 0
-1167 -1197 0
-1167 -1198 0
-1167 -1199 0
-1167 -1200 0
-1167 -1201 0
-1167 -1202 0
-1167 -1203 0
-1167 -1204 0
-1167 -1205 0
-1167 -1206 0
-1167 -1207 0
-1167 -1208 0
-1167 -1209 0
-1167 -1210 0
-1167 -1211 0
-1167 -1212 0
-1167 -1213 0
-1167 -1214 0
-1167 -1215 0
-1167 -1216 0
-1167 -1217 0
-1167 -1218 0
-1167 -1219 0
-1167 -1220 0
-1167 -1221 0
-1167 -1222 0
-1167 -1223 0
-1167 -1224 0
-1167 -1225 0
-1167 -1226 0
-1167 -1227 0
-1167 -1228 0
-1167 -1229 0
-1167 -1230 0
-1167 -1231 0
-1167 -1232 0
-1167 -1233 0
-1167 -1234 0
-1167 -1235 0
-1167 -1236 0
-1167 -1237 0
-1167 -1238 0
-1167 -1239 0
-1167 -1240 0
-1167 -1241 0
-1167 -1242 0
-1168 -1169 0
-1168 -1170 0
-1168 -1171 0
-1168 -1172 0
-1168 -1173 0
-1168 -1174 0
-1168 -1175 0
-1168 -1176 0
-1168 -1177 0
-1168 -1178 0
-1168 -1179 0
-1168 -1180 0
-1168 -1181 0
-1168 -1182 0
-1168 -1183 0
-1168 -1184 0
-1168 -1185 0
-1168 -1186 0
-1168 -1187 0
-1168 -1188 0
-1168 -1189 0
-1168 -1190 0
-1168 -1191 0
-1168 -1192 0
-1168 -1193 0
-1168 -1194 0
-1168 -1195 0
-1168 -1196 0
-1168 -1197 0
-1168 -1198 0
-1168 -1199 0
-1168 -1200 0
-1168 -1201 0
-1168 -1202 0
-1168 -1203 0
-1168 -1204 0
-1168 -1205 0
-1168 -1206 0
-1168 -1207 0
-1168 -1208 0
-1168 -1209 0
-1168 -1210 0
-1168 -1211 0
-1168 -1212 0
-1168 -1213 0
-1168 -1214 0
-1168 -1215 0
-1168 -1216 0
-1168 -1217 0
-1168 -1218 0
-1168 -1219 0
-1168 -1220 0
-1168 -1221 0
-1168 -1222 0
-1168 -1223 0
-1168 -1224 0
-1168 -1225 0
-1168 -1226 0
-1168 -1227 0
-1168 -1228 0
-1168 -1229 0
-1168 -1230 0
-1168 -1231 0
-1168 -1232 0
-1168 -1233 0
-1168 -1234 0
-1168 -1235 0
-1168 -1236 0
-1168 -1237 0
-1168 -1238 0
-1168 -1239 0
-1168 -1240 0
-1168 -1241 0
-1168 -1242 0
-1169 -1170 0
-1169 -1171 0
-1169 -1172 0
-1169 -1173 0
-1169 -1174 0
-1169 -1175 0
-1169 -1176 0
-1169 -1177 0
-1169 -1178 0
-1169 -1179 0
-1169 -1180 0
-1169 -1181 0
-1169 -1182 0
-1169 -1183 0
-1169 -1184 0
-1169 -1185 0
-1169 -1186 0
-1169 -1187 0
-1169 -1188 0
-1169 -1189 0
-1169 -1190 0
-1169 -1191 0
-1169 -1192 0
-1169 -1193 0
-1169 -1194 0
-1169 -1195 0
-1169 -1196 0
-1169 -1197 0
-1169 -1198 0
-1169 -1199 0
-1169 -1200 0
-1169 -1201 0
-1169 -1202 0
-1169 -1203 0
-1169 -1204 0
-1169 -1205 0
-1169 -1206 0
-1169 -1207 0
-1169 -1208 0
-1169 -1209 0
-1169 -1210 0
-1169 -1211 0
-1169 -1212 0
-1169 -1213 0
-1169 -1214 0
-1169 -1215 0
-1169 -1216 0
-1169 -1217 0
-1169 -1218 0
-1169 -1219 0
-1169 -1220 0
-1169 -1221 0
-1169 -1222 0
-1169 -1223 0
-1169 -1224 0
-1169 -1225 0
-1169 -1226 0
-1169 -1227 0
-1169 -1228 0
-1169 -1229 0
-1169 -1230 0
-1169 -1231 0
-1169 -1232 0
-1169 -1233 0
-1169 -1234 0
-1169 -1235 0
-1169 -1236 0
-1169 -1237 0
-1169 -1238 0
-1169 -1239 0
-1169 -1240 0
-1169 -1241 0
-1169 -1242 0
-1170 -1171 0
-1170 -1172 0
-1170 -1173 0
-1170 -1174 0
-1170 -1175 0
-1170 -1176 0
-1170 -1177 0
-1170 -1178 0
-1170 -1179 0
-1170 -1180 0
-1170 -1181 0
-1170 -1182 0
-1170 -1183 0
-1170 -1184 0
-1170 -1185 0
-1170 -1186 0
-1170 -1187 0
-1170 -1188 0
-1170 -1189 0
-1170 -1190 0
-1170 -1191 0
-1170 -1192 0
-1170 -1193 0
-1170 -1194 0
-1170 -1195 0
-1170 -1196 0
-1170 -1197 0
-1170 -1198 0
-1170 -1199 0
-1170 -1200 0
-1170 -1201 0
-1170 -1202 0
-1170 -1203 0
-1170 -1204 0
-1170 -1205 0
-1170 -1206 0
-1170 -1207 0
-1170 -1208 0
-1170 -1209 0
-1170 -1210 0
-1170 -1211 0
-1170 -1212 0
-1170 -1213 0
-1170 -1214 0
-1170 -1215 0
-1170 -1216 0
-1170 -1217 0
-1170 -1218 0
-1170 -1219 0
-1170 -1220 0
-1170 -1221 0
-1170 -1222 0
-1170 -1223 0
-1170 -1224 0
-1170 -1225 0
-1170 -1226 0
-1170 -1227 0
-1170 -1228 0
-1170 -1229 0
-1170 -1230 0
-1170 -1231 0
-1170 -1232 0
-1170 -1233 0
-1170 -1234 0
-1170 -1235 0
-1170 -1236 0
-1170 -1237 0
-1170 -1238 0
-1170 -1239 0
-1170 -1240 0
-1170 -1241 0
-1170 -1242 0
-1171 -1172 0
-1171 -1173 0
-1171 -1174 0
-1171 -1175 0
-1171 -1176 0
-1171 -1177 0
-1171 -1178 0
-1171 -1179 0
-1171 -1180 0
-1171 -1181 0
-1171 -1182 0
-1171 -1183 0
-1171 -1184 0
-1171 -1185 0
-1171 -1186 0
-1171 -1187 0
-1171 -1188 0
-1171 -1189 0
-1171 -1190 0
-1171 -1191 0
-1171 -1192 0
-1171 -1193 0
-1171 -1194 0
-1171 -1195 0
-1171 -1196 0
-1171 -1197 0
-1171 -1198 0
-1171 -1199 0
-1171 -1200 0
-1171 -1201 0
-1171 -1202 0
-1171 -1203 0
-1171 -1204 0
-1171 -1205 0
-1171 -1206 0
-1171 -1207 0
-1171 -1208 0
-1171 -1209 0
-1171 -1210 0
-1171 -1211 0
-1171 -1212 0
-1171 -1213 0
-1171 -1214 0
-1171 -1215 0
-1171 -1216 0
-1171 -1217 0
-1171 -1218 0
-1171 -1219 0
-1171 -1220 0
-1171 -1221 0
-1171 -1222 0
-1171 -1223 0
-1171 -1224 0
-1171 -1225 0
-1171 -1226 0
-1171 -1227 0
-1171 -1228 0
-1171 -1229 0
-1171 -1230 0
-1171 -1231 0
-1171 -1232 0
-1171 -1233 0
-1171 -1234 0
-1171 -1235 0
-1171 -1236 0
-1171 -1237 0
-1171 -1238 0
-1171 -1239 0
-1171 -1240 0
-1171 -1241 0
-1171 -1242 0
-1172 -1173 0
-1172 -1174 0
-1172 -1175 0
-1172 -1176 0
-1172 -1177 0
-1172 -1178 0
-1172 -1179 0
-1172 -1180 0
-1172 -1181 0
-1172 -1182 0
-1172 -1183 0
-1172 -1184 0
-1172 -1185 0
-1172 -1186 0
-1172 -1187 0
-1172 -1188 0
-1172 -1189 0
-1172 -1190 0
-1172 -1191 0
-1172 -1192 0
-1172 -1193 0
-1172 -1194 0
-1172 -1195 0
-1172 -1196 0
-1172 -1197 0
-1172 -1198 0
-1172 -1199 0
-1172 -1200 0
-1172 -1201 0
-1172 -1202 0
-1172 -1203 0
-1172 -1204 0
-1172 -1205 0
-1172 -1206 0
-1172 -1207 0
-1172 -1208 0
-1172 -1209 0
-1172 -1210 0
-1172 -1211 0
-1172 -1212 0
-1172 -1213 0
-1172 -1214 0
-1172 -1215 0
-1172 -1216 0
-1172 -1217 0
-1172 -1218 0
-1172 -1219 0
-1172 -1220 0
-1172 -1221 0
-1172 -1222 0
-1172 -1223 0
-1172 -1224 0
-1172 -1225 0
-1172 -1226 0
-1172 -1227 0
-1172 -1228 0
-1172 -1229 0
-1172 -1230 0
-1172 -1231 0
-1172 -1232 0
-1172 -1233 0
-1172 -1234 0
-1172 -1235 0
-1172 -1236 0
-1172 -1237 0
-1172 -1238 0
-1172 -1239 0
-1172 -1240 0
-1172 -1241 0
-1172 -1242 0
-1173 -1174 0
-1173 -1175 0
-1173 -1176 0
-1173 -1177 0
-1173 -1178 0
-1173 -1179 0
-1173 -1180 0
-1173 -1181 0
-1173 -1182 0
-1173 -1183 0
-1173 -1184 0
-1173 -1185 0
-1173 -1186 0
-1173 -1187 0
-1173 -1188 0
-1173 -1189 0
-1173 -1190 0
-1173 -1191 0
-1173 -1192 0
-1173 -1193 0
-1173 -1194 0
-1173 -1195 0
-1173 -1196 0
-1173 -1197 0
-1173 -1198 0
-1173 -1199 0
-1173 -1200 0
-1173 -1201 0
-1173 -1202 0
-1173 -1203 0
-1173 -1204 0
-1173 -1205 0
-1173 -1206 0
-1173 -1207 0
-1173 -1208 0
-1173 -1209 0
-1173 -1210 0
-1173 -1211 0
-1173 -1212 0
-1173 -1213 0
-1173 -1214 0
-1173 -1215 0
-1173 -1216 0
-1173 -1217 0
-1173 -1218 0
-1173 -1219 0
-1173 -1220 0
-1173 -1221 0
-1173 -1222 0
-1173 -1223 0
-1173 -1224 0
-1173 -1225 0
-1173 -1226 0
-1173 -1227 0
-1173 -1228 0
-1173 -1229 0
-1173 -1230 0
-1173 -1231 0
-1173 -1232 0
-1173 -1233 0
-1173 -1234 0
-1173 -1235 0
-1173 -1236 0
-1173 -1237 0
-1173 -1238 0
-1173 -1239 0
-1173 -1240 0
-1173 -1241 0
-1173 -1242 0
-1174 -1175 0
-1174 -1176 0
-1174 -1177 0
-1174 -1178 0
-1174 -1179 0
-1174 -1180 0
-1174 -1181 0
-1174 -1182 0
-1174 -1183 0
-1174 -1184 0
-1174 -1185 0
-1174 -1186 0
-1174 -1187 0
-1174 -1188 0
-1174 -1189 0
-1174 -1190 0
-1174 -1191 0
-1174 -1192 0
-1174 -1193 0
-1174 -1194 0
-1174 -1195 0
-1174 -1196 0
-1174 -1197 0
-1174 -1198 0
-1174 -1199 0
-1174 -1200 0
-1174 -1201 0
-1174 -1202 0
-1174 -1203 0
-1174 -1204 0
-1174 -1205 0
-1174 -1206 0
-1174 -1207 0
-1174 -1208 0
-1174 -1209 0
-1174 -1210 0
-1174 -1211 0
-1174 -1212 0
-1174 -1213 0
-1174 -1214 0
-1174 -1215 0
-1174 -1216 0
-1174 -1217 0
-1174 -1218 0
-1174 -1219 0
-1174 -1220 0
-1174 -1221 0
-1174 -1222 0
-1174 -1223 0
-1174 -1224 0
-1174 -1225 0
-1174 -1226 0
-1174 -1227 0
-1174 -1228 0
-1174 -1229 0
-1174 -1230 0
-1174 -1231 0
-1174 -1232 0
-1174 -1233 0
-1174 -1234 0
-1174 -1235 0
-1174 -1236 0
-1174 -1237 0
-1174 -1238 0
-1174 -1239 0
-1174 -1240 0
-1174 -1241 0
-1174 -1242 0
-1175 -1176 0
-1175 -1177 0
-1175 -1178 0
-1175 -1179 0
-1175 -1180 0
-1175 -1181 0
-1175 -1182 0
-1175 -1183 0
-1175 -1184 0
-1175 -1185 0
-1175 -1186 0
-1175 -1187 0
-1175 -1188 0
-1175 -1189 0
-1175 -1190 0
-1175 -1191 0
-1175 -1192 0
-1175 -1193 0
-1175 -1194 0
-1175 -1195 0
-1175 -1196 0
-1175 -1197 0
-1175 -1198 0
-1175 -1199 0
-1175 -1200 0
-1175 -1201 0
-1175 -1202 0
-1175 -1203 0
-1175 -1204 0
-1175 -1205 0
-1175 -1206 0
-1175 -1207 0
-1175 -1208 0
-1175 -1209 0
-1175 -1210 0
-1175 -1211 0
-1175 -1212 0
-1175 -1213 0
-1175 -1214 0
-1175 -1215 0
-1175 -1216 0
-1175 -1217 0
-1175 -1218 0
-1175 -1219 0
-1175 -1220 0
-1175 -1221 0
-1175 -1222 0
-1175 -1223 0
-1175 -1224 0
-1175 -1225 0
-1175 -1226 0
-1175 -1227 0
-1175 -1228 0
-1175 -1229 0
-1175 -1230 0
-1175 -1231 0
-1175 -1232 0
-1175 -1233 0
-1175 -1234 0
-1175 -1235 0
-1175 -1236 0
-1175 -1237 0
-1175 -1238 0
-1175 -1239 0
-1175 -1240 0
-1175 -1241 0
-1175 -1242 0
-1176 -1177 0
-1176 -1178 0
-1176 -1179 0
-1176 -1180 0
-1176 -1181 0
-1176 -1182 0
-1176 -1183 0
-1176 -1184 0
-1176 -1185 0
-1176 -1186 0
-1176 -1187 0
-1176 -1188 0
-1176 -1189 0
-1176 -1190 0
-1176 -1191 0
-1176 -1192 0
-1176 -1193 0
-1176 -1194 0
-1176 -1195 0
-1176 -1196 0
-1176 -1197 0
-1176 -1198 0
-1176 -1199 0
-1176 -1200 0
-1176 -1201 0
-1176 -1202 0
-1176 -1203 0
-1176 -1204 0
-1176 -1205 0
-1176 -1206 0
-1176 -1207 0
-1176 -1208 0
-1176 -1209 0
-1176 -1210 0
-1176 -1211 0
-1176 -1212 0
-1176 -1213 0
-1176 -1214 0
-1176 -1215 0
-1176 -1216 0
-1176 -1217 0
-1176 -1218 0
-1176 -1219 0
-1176 -1220 0
-1176 -1221 0
-1176 -1222 0
-1176 -1223 0
-1176 -1224 0
-1176 -1225 0
-1176 -1226 0
-1176 -1227 0
-1176 -1228 0
-1176 -1229 0
-1176 -1230 0
-1176 -1231 0
-1176 -1232 0
-1176 -1233 0
-1176 -1234 0
-1176 -1235 0
-1176 -1236 0
-1176 -1237 0
-1176 -1238 0
-1176 -1239 0
-1176 -1240 0
-1176 -1241 0
-1176 -1242 0
-1177 -1178 0
-1177 -1179 0
-1177 -1180 0
-1177 -1181 0
-1177 -1182 0
-1177 -1183 0
-1177 -1184 0
-1177 -1185 0
-1177 -1186 0
-1177 -1187 0
-1177 -1188 0
-1177 -1189 0
-1177 -1190 0
-1177 -1191 0
-1177 -1192 0
-1177 -1193 0
-1177 -1194 0
-1177 -1195 0
-1177 -1196 0
-1177 -1197 0
-1177 -1198 0
-1177 -1199 0
-1177 -1200 0
-1177 -1201 0
-1177 -1202 0
-1177 -1203 0
-1177 -1204 0
-1177 -1205 0
-1177 -1206 0
-1177 -1207 0
-1177 -1208 0
-1177 -1209 0
-1177 -1210 0
-1177 -1211 0
-1177 -1212 0
-1177 -1213 0
-1177 -1214 0
-1177 -1215 0
-1177 -1216 0
-1177 -1217 0
-1177 -1218 0
-1177 -1219 0
-1177 -1220 0
-1177 -1221 0
-1177 -1222 0
-1177 -1223 0
-1177 -1224 0
-1177 -1225 0
-1177 -1226 0
-1177 -1227 0
-1177 -1228 0
-1177 -1229 0
-1177 -1230 0
-1177 -1231 0
-1177 -1232 0
-1177 -1233 0
-1177 -1234 0
-1177 -1235 0
-1177 -1236 0
-1177 -1237 0
-1177 -1238 0
-1177 -1239 0
-1177 -1240 0
-1177 -1241 0
-1177 -1242 0
-1178 -1179 0
-1178 -1180 0
-1178 -1181 0
-1178 -1182 0
-1178 -1183 0
-1178 -1184 0
-1178 -1185 0
-1178 -1186 0
-1178 -1187 0
-1178 -1188 0
-1178 -1189 0
-1178 -1190 0
-1178 -1191 0
-1178 -1192 0
-1178 -1193 0
-1178 -1194 0
-1178 -1195 0
-1178 -1196 0
-1178 -1197 0
-1178 -1198 0
-1178 -1199 0
-1178 -1200 0
-1178 -1201 0
-1178 -1202 0
-1178 -1203 0
-1178 -1204 0
-1178 -1205 0
-1178 -1206 0
-1178 -1207 0
-1178 -1208 0
-1178 -1209 0
-1178 -1210 0
-1178 -1211 0
-1178 -1212 0
-1178 -1213 0
-1178 -1214 0
-1178 -1215 0
-1178 -1216 0
-1178 -1217 0
-1178 -1218 0
-1178 -1219 0
-1178 -1220 0
-1178 -1221 0
-1178 -1222 0
-1178 -1223 0
-1178 -1224 0
-1178 -1225 0
-1178 -1226 0
-1178 -1227 0
-1178 -1228 0
-1178 -1229 0
-1178 -1230 0
-1178 -1231 0
-1178 -1232 0
-1178 -1233 0
-1178 -1234 0
-1178 -1235 0
-1178 -1236 0
-1178 -1237 0
-1178 -1238 0
-1178 -1239 0
-1178 -1240 0
-1178 -1241 0
-1178 -1242 0
-1179 -1180 0
-1179 -1181 0
-1179 -1182 0
-1179 -1183 0
-1179 -1184 0
-1179 -1185 0
-1179 -1186 0
-1179 -1187 0
-1179 -1188 0
-1179 -1189 0
-1179 -1190 0
-1179 -1191 0
-1179 -1192 0
-1179 -1193 0
-1179 -1194 0
-1179 -1195 0
-1179 -1196 0
-1179 -1197 0
-1179 -1198 0
-1179 -1199 0
-1179 -1200 0
-1179 -1201 0
-1179 -1202 0
-1179 -1203 0
-1179 -1204 0
-1179 -1205 0
-1179 -1206 0
-1179 -1207 0
-1179 -1208 0
-1179 -1209 0
-1179 -1210 0
-1179 -1211 0
-1179 -1212 0
-1179 -1213 0
-1179 -1214 0
-1179 -1215 0
-1179 -1216 0
-1179 -1217 0
-1179 -1218 0
-1179 -1219 0
-1179 -1220 0
-1179 -1221 0
-1179 -1222 0
-1179 -1223 0
-1179 -1224 0
-1179 -1225 0
-1179 -1226 0
-1179 -1227 0
-1179 -1228 0
-1179 -1229 0
-1179 -1230 0
-1179 -1231 0
-1179 -1232 0
-1179 -1233 0
-1179 -1234 0
-1179 -1235 0
-1179 -1236 0
-1179 -1237 0
-1179 -1238 0
-1179 -1239 0
-1179 -1240 0
-1179 -1241 0
-1179 -1242 0
-1180 -1181 0
-1180 -1182 0
-1180 -1183 0
-1180 -1184 0
-1180 -1185 0
-1180 -1186 0
-1180 -1187 0
-1180 -1188 0
-1180 -1189 0
-1180 -1190 0
-1180 -1191 0
-1180 -1192 0
-1180 -1193 0
-1180 -1194 0
-1180 -1195 0
-1180 -1196 0
-1180 -1197 0
-1180 -1198 0
-1180 -1199 0
-1180 -1200 0
-1180 -1201 0
-1180 -1202 0
-1180 -1203 0
-1180 -1204 0
-1180 -1205 0
-1180 -1206 0
-1180 -1207 0
-1180 -1208 0
-1180 -1209 0
-1180 -1210 0
-1180 -1211 0
-1180 -1212 0
-1180 -1213 0
-1180 -1214 0
-1180 -1215 0
-1180 -1216 0
-1180 -1217 0
-1180 -1218 0
-1180 -1219 0
-1180 -1220 0
-1180 -1221 0
-1180 -1222 0
-1180 -1223 0
-1180 -1224 0
-1180 -1225 0
-1180 -1226 0
-1180 -1227 0
-1180 -1228 0
-1180 -1229 0
-1180 -1230 0
-1180 -1231 0
-1180 -1232 0
-1180 -1233 0
-1180 -1234 0
-1180 -1235 0
-1180 -1236 0
-1180 -1237 0
-1180 -1238 0
-1180 -1239 0
-1180 -1240 0
-1180 -1241 0
-1180 -1242 0
-1181 -1182 0
-1181 -1183 0
-1181 -1184 0
-1181 -1185 0
-1181 -1186 0
-1181 -1187 0
-1181 -1188 0
-1181 -1189 0
-1181 -1190 0
-1181 -1191 0
-1181 -1192 0
-1181 -1193 0
-1181 -1194 0
-1181 -1195 0
-1181 -1196 0
-1181 -1197 0
-1181 -1198 0
-1181 -1199 0
-1181 -1200 0
-1181 -1201 0
-1181 -1202 0
-1181 -1203 0
-1181 -1204 0
-1181 -1205 0
-1181 -1206 0
-1181 -1207 0
-1181 -1208 0
-1181 -1209 0
-1181 -1210 0
-1181 -1211 0
-1181 -1212 0
-1181 -1213 0
-1181 -1214 0
-1181 -1215 0
-1181 -1216 0
-1181 -1217 0
-1181 -1218 0
-1181 -1219 0
-1181 -1220 0
-1181 -1221 0
-1181 -1222 0
-1181 -1223 0
-1181 -1224 0
-1181 -1225 0
-1181 -1226 0
-1181 -1227 0
-1181 -1228 0
-1181 -1229 0
-1181 -1230 0
-1181 -1231 0
-1181 -1232 0
-1181 -1233 0
-1181 -1234 0
-1181 -1235 0
-1181 -1236 0
-1181 -1237 0
-1181 -1238 0
-1181 -1239 0
-1181 -1240 0
-1181 -1241 0
-1181 -1242 0
-1182 -1183 0
-1182 -1184 0
-1182 -1185 0
-1182 -1186 0
-1182 -1187 0
-1182 -1188 0
-1182 -1189 0
-1182 -1190 0
-1182 -1191 0
-1182 -1192 0
-1182 -1193 0
-1182 -1194 0
-1182 -1195 0
-1182 -1196 0
-1182 -1197 0
-1182 -1198 0
-1182 -1199 0
-1182 -1200 0
-1182 -1201 0
-1182 -1202 0
-1182 -1203 0
-1182 -1204 0
-1182 -1205 0
-1182 -1206 0
-1182 -1207 0
-1182 -1208 0
-1182 -1209 0
-1182 -1210 0
-1182 -1211 0
-1182 -1212 0
-1182 -1213 0
-1182 -1214 0
-1182 -1215 0
-1182 -1216 0
-1182 -1217 0
-1182 -1218 0
-1182 -1219 0
-1182 -1220 0
-1182 -1221 0
-1182 -1222 0
-1182 -1223 0
-1182 -1224 0
-1182 -1225 0
-1182 -1226 0
-1182 -1227 0
-1182 -1228 0
-1182 -1229 0
-1182 -1230 0
-1182 -1231 0
-1182 -1232 0
-1182 -1233 0
-1182 -1234 0
-1182 -1235 0
-1182 -1236 0
-1182 -1237 0
-1182 -1238 0
-1182 -1239 0
-1182 -1240 0
-1182 -1241 0
-1182 -1242 0
-1183 -1184 0
-1183 -1185 0
-1183 -1186 0
-1183 -1187 0
-1183 -1188 0
-1183 -1189 0
-1183 -1190 0
-1183 -1191 0
-1183 -1192 0
-1183 -1193 0
-1183 -1194 0
-1183 -1195 0
-1183 -1196 0
-1183 -1197 0
-1183 -1198 0
-1183 -1199 0
-1183 -1200 0
-1183 -1201 0
-1183 -1202 0
-1183 -1203 0
-1183 -1204 0
-1183 -1205 0
-1183 -1206 0
-1183 -1207 0
-1183 -1208 0
-1183 -1209 0
-1183 -1210 0
-1183 -1211 0
-1183 -1212 0
-1183 -1213 0
-1183 -1214 0
-1183 -1215 0
-1183 -1216 0
-1183 -1217 0
-1183 -1218 0
-1183 -1219 0
-1183 -1220 0
-1183 -1221 0
-1183 -1222 0
-1183 -1223 0
-1183 -1224 0
-1183 -1225 0
-1183 -1226 0
-1183 -1227 0
-1183 -1228 0
-1183 -1229 0
-1183 -1230 0
-1183 -1231 0
-1183 -1232 0
-1183 -1233 0
-1183 -1234 0
-1183 -1235 0
-1183 -1236 0
-1183 -1237 0
-1183 -1238 0
-1183 -1239 0
-1183 -1240 0
-1183 -1241 0
-1183 -1242 0
-1184 -1185 0
-1184 -1186 0
-1184 -1187 0
-1184 -1188 0
-1184 -1189 0
-1184 -1190 0
-1184 -1191 0
-1184 -1192 0
-1184 -1193 0
-1184 -1194 0
-1184 -1195 0
-1184 -1196 0
-1184 -1197 0
-1184 -1198 0
-1184 -1199 0
-1184 -1200 0
-1184 -1201 0
-1184 -1202 0
-1184 -1203 0
-1184 -1204 0
-1184 -1205 0
-1184 -1206 0
-1184 -1207 0
-1184 -1208 0
-1184 -1209 0
-1184 -1210 0
-1184 -1211 0
-1184 -1212 0
-1184 -1213 0
-1184 -1214 0
-1184 -1215 0
-1184 -1216 0
-1184 -1217 0
-1184 -1218 0
-1184 -1219 0
-1184 -1220 0
-1184 -1221 0
-1184 -1222 0
-1184 -1223 0
-1184 -1224 0
-1184 -1225 0
-1184 -1226 0
-1184 -1227 0
-1184 -1228 0
-1184 -1229 0
-1184 -1230 0
-1184 -1231 0
-1184 -1232 0
-1184 -1233 0
-1184 -1234 0
-1184 -1235 0
-1184 -1236 0
-1184 -1237 0
-1184 -1238 0
-1184 -1239 0
-1184 -1240 0
-1184 -1241 0
-1184 -1242 0
-1185 -1186 0
-1185 -1187 0
-1185 -1188 0
-1185 -1189 0
-1185 -1190 0
-1185 -1191 0
-1185 -1192 0
-1185 -1193 0
-1185 -1194 0
-1185 -1195 0
-1185 -1196 0
-1185 -1197 0
-1185 -1198 0
-1185 -1199 0
-1185 -1200 0
-1185 -1201 0
-1185 -1202 0
-1185 -1203 0
-1185 -1204 0
-1185 -1205 0
-1185 -1206 0
-1185 -1207 0
-1185 -1208 0
-1185 -1209 0
-1185 -1210 0
-1185 -1211 0
-1185 -1212 0
-1185 -1213 0
-1185 -1214 0
-1185 -1215 0
-1185 -1216 0
-1185 -1217 0
-1185 -1218 0
-1185 -1219 0
-1185 -1220 0
-1185 -1221 0
-1185 -1222 0
-1185 -1223 0
-1185 -1224 0
-1185 -1225 0
-1185 -1226 0
-1185 -1227 0
-1185 -1228 0
-1185 -1229 0
-1185 -1230 0
-1185 -1231 0
-1185 -1232 0
-1185 -1233 0
-1185 -1234 0
-1185 -1235 0
-1185 -1236 0
-1185 -1237 0
-1185 -1238 0
-1185 -1239 0
-1185 -1240 0
-1185 -1241 0
-1185 -1242 0
-1186 -1187 0
-1186 -1188 0
-1186 -1189 0
-1186 -1190 0
-1186 -1191 0
-1186 -1192 0
-1186 -1193 0
-1186 -1194 0
-1186 -1195 0
-1186 -1196 0
-1186 -1197 0
-1186 -1198 0
-1186 -1199 0
-1186 -1200 0
-1186 -1201 0
-1186 -1202 0
-1186 -1203 0
-1186 -1204 0
-1186 -1205 0
-1186 -1206 0
-1186 -1207 0
-1186 -1208 0
-1186 -1209 0
-1186 -1210 0
-1186 -1211 0
-1186 -1212 0
-1186 -1213 0
-1186 -1214 0
-1186 -1215 0
-1186 -1216 0
-1186 -1217 0
-1186 -1218 0
-1186 -1219 0
-1186 -1220 0
-1186 -1221 0
-1186 -1222 0
-1186 -1223 0
-1186 -1224 0
-1186 -1225 0
-1186 -1226 0
-1186 -1227 0
-1186 -1228 0
-1186 -1229 0
-1186 -1230 0
-1186 -1231 0
-1186 -1232 0
-1186 -1233 0
-1186 -1234 0
-1186 -1235 0
-1186 -1236 0
-1186 -1237 0
-1186 -1238 0
-1186 -1239 0
-1186 -1240 0
-1186 -1241 0
-1186 -1242 0
-1187 -1188 0
-1187 -1189 0
-1187 -1190 0
-1187 -1191 0
-1187 -1192 0
-1187 -1193 0
-1187 -1194 0
-1187 -1195 0
-1187 -1196 0
-1187 -1197 0
-1187 -1198 0
-1187 -1199 0
-1187 -1200 0
-1187 -1201 0
-1187 -1202 0
-1187 -1203 0
-1187 -1204 0
-1187 -1205 0
-1187 -1206 0
-1187 -1207 0
-1187 -1208 0
-1187 -1209 0
-1187 -1210 0
-1187 -1211 0
-1187 -1212 0
-1187 -1213 0
-1187 -1214 0
-1187 -1215 0
-1187 -1216 0
-1187 -1217 0
-1187 -1218 0
-1187 -1219 0
-1187 -1220 0
-1187 -1221 0
-1187 -1222 0
-1187 -1223 0
-1187 -1224 0
-1187 -1225 0
-1187 -1226 0
-1187 -1227 0
-1187 -1228 0
-1187 -1229 0
-1187 -1230 0
-1187 -1231 0
-1187 -1232 0
-1187 -1233 0
-1187 -1234 0
-1187 -1235 0
-1187 -1236 0
-1187 -1237 0
-1187 -1238 0
-1187 -1239 0
-1187 -1240 0
-1187 -1241 0
-1187 -1242 0
-1188 -1189 0
-1188 -1190 0
-1188 -1191 0
-1188 -1192 0
-1188 -1193 0
-1188 -1194 0
-1188 -1195 0
-1188 -1196 0
-1188 -1197 0
-1188 -1198 0
-1188 -1199 0
-1188 -1200 0
-1188 -1201 0
-1188 -1202 0
-1188 -1203 0
-1188 -1204 0
-1188 -1205 0
-1188 -1206 0
-1188 -1207 0
-1188 -1208 0
-1188 -1209 0
-1188 -1210 0
-1188 -1211 0
-1188 -1212 0
-1188 -1213 0
-1188 -1214 0
-1188 -1215 0
-1188 -1216 0
-1188 -1217 0
-1188 -1218 0
-1188 -1219 0
-1188 -1220 0
-1188 -1221 0
-1188 -1222 0
-1188 -1223 0
-1188 -1224 0
-1188 -1225 0
-1188 -1226 0
-1188 -1227 0
-1188 -1228 0
-1188 -1229 0
-1188 -1230 0
-1188 -1231 0
-1188 -1232 0
-1188 -1233 0
-1188 -1234 0
-1188 -1235 0
-1188 -1236 0
-1188 -1237 0
-1188 -1238 0
-1188 -1239 0
-1188 -1240 0
-1188 -1241 0
-1188 -1242 0
-1189 -1190 0
-1189 -1191 0
-1189 -1192 0
-1189 -1193 0
-1189 -1194 0
-1189 -1195 0
-1189 -1196 0
-1189 -1197 0
-1189 -1198 0
-1189 -1199 0
-1189 -1200 0
-1189 -1201 0
-1189 -1202 0
-1189 -1203 0
-1189 -1204 0
-1189 -1205 0
-1189 -1206 0
-1189 -1207 0
-1189 -1208 0
-1189 -1209 0
-1189 -1210 0
-1189 -1211 0
-1189 -1212 0
-1189 -1213 0
-1189 -1214 0
-1189 -1215 0
-1189 -1216 0
-1189 -1217 0
-1189 -1218 0
-1189 -1219 0
-1189 -1220 0
-1189 -1221 0
-1189 -1222 0
-1189 -1223 0
-1189 -1224 0
-1189 -1225 0
-1189 -1226 0
-1189 -1227 0
-1189 -1228 0
-1189 -1229 0
-1189 -1230 0
-1189 -1231 0
-1189 -1232 0
-1189 -1233 0
-1189 -1234 0
-1189 -1235 0
-1189 -1236 0
-1189 -1237 0
-1189 -1238 0
-1189 -1239 0
-1189 -1240 0
-1189 -1241 0
-1189 -1242 0
-1190 -1191 0
-1190 -1192 0
-1190 -1193 0
-1190 -1194 0
-1190 -1195 0
-1190 -1196 0
-1190 -1197 0
-1190 -1198 0
-1190 -1199 0
-1190 -1200 0
-1190 -1201 0
-1190 -1202 0
-1190 -1203 0
-1190 -1204 0
-1190 -1205 0
-1190 -1206 0
-1190 -1207 0
-1190 -1208 0
-1190 -1209 0
-1190 -1210 0
-1190 -1211 0
-1190 -1212 0
-1190 -1213 0
-1190 -1214 0
-1190 -1215 0
-1190 -1216 0
-1190 -1217 0
-1190 -1218 0
-1190 -1219 0
-1190 -1220 0
-1190 -1221 0
-1190 -1222 0
-1190 -1223 0
-1190 -1224 0
-1190 -1225 0
-1190 -1226 0
-1190 -1227 0
-1190 -1228 0
-1190 -1229 0
-1190 -1230 0
-1190 -1231 0
-1190 -1232 0
-1190 -1233 0
-1190 -1234 0
-1190 -1235 0
-1190 -1236 0
-1190 -1237 0
-1190 -1238 0
-1190 -1239 0
-1190 -1240 0
-1190 -1241 0
-1190 -1242 0
-1191 -1192 0
-1191 -1193 0
-1191 -1194 0
-1191 -1195 0
-1191 -1196 0
-1191 -1197 0
-1191 -1198 0
-1191 -1199 0
-1191 -1200 0
-1191 -1201 0
-1191 -1202 0
-1191 -1203 0
-1191 -1204 0
-1191 -1205 0
-1191 -1206 0
-1191 -1207 0
-1191 -1208 0
-1191 -1209 0
-1191 -1210 0
-1191 -1211 0
-1191 -1212 0
-1191 -1213 0
-1191 -1214 0
-1191 -1215 0
-1191 -1216 0
-1191 -1217 0
-1191 -1218 0
-1191 -1219 0
-1191 -1220 0
-1191 -1221 0
-1191 -1222 0
-1191 -1223 0
-1191 -1224 0
-1191 -1225 0
-1191 -1226 0
-1191 -1227 0
-1191 -1228 0
-1191 -1229 0
-1191 -1230 0
-1191 -1231 0
-1191 -1232 0
-1191 -1233 0
-1191 -1234 0
-1191 -1235 0
-1191 -1236 0
-1191 -1237 0
-1191 -1238 0
-1191 -1239 0
-1191 -1240 0
-1191 -1241 0
-1191 -1242 0
-1192 -1193 0
-1192 -1194 0
-1192 -1195 0
-1192 -1196 0
-1192 -1197 0
-1192 -1198 0
-1192 -1199 0
-1192 -1200 0
-1192 -1201 0
-1192 -1202 0
-1192 -1203 0
-1192 -1204 0
-1192 -1205 0
-1192 -1206 0
-1192 -1207 0
-1192 -1208 0
-1192 -1209 0
-1192 -1210 0
-1192 -1211 0
-1192 -1212 0
-1192 -1213 0
-1192 -1214 0
-1192 -1215 0
-1192 -1216 0
-1192 -1217 0
-1192 -1218 0
-1192 -1219 0
-1192 -1220 0
-1192 -1221 0
-1192 -1222 0
-1192 -1223 0
-1192 -1224 0
-1192 -1225 0
-1192 -1226 0
-1192 -1227 0
-1192 -1228 0
-1192 -1229 0
-1192 -1230 0
-1192 -1231 0
-1192 -1232 0
-1192 -1233 0
-1192 -1234 0
-1192 -1235 0
-1192 -1236 0
-1192 -1237 0
-1192 -1238 0
-1192 -1239 0
-1192 -1240 0
-1192 -1241 0
-1192 -1242 0
-1193 -1194 0
-1193 -1195 0
-1193 -1196 0
-1193 -1197 0
-1193 -1198 0
-1193 -1199 0
-1193 -1200 0
-1193 -1201 0
-1193 -1202 0
-1193 -1203 0
-1193 -1204 0
-1193 -1205 0
-1193 -1206 0
-1193 -1207 0
-1193 -1208 0
-1193 -1209 0
-1193 -1210 0
-1193 -1211 0
-1193 -1212 0
-1193 -1213 0
-1193 -1214 0
-1193 -1215 0
-1193 -1216 0
-1193 -1217 0
-1193 -1218 0
-1193 -1219 0
-1193 -1220 0
-1193 -1221 0
-1193 -1222 0
-1193 -1223 0
-1193 -1224 0
-1193 -1225 0
-1193 -1226 0
-1193 -1227 0
-1193 -1228 0
-1193 -1229 0
-1193 -1230 0
-1193 -1231 0
-1193 -1232 0
-1193 -1233 0
-1193 -1234 0
-1193 -1235 0
-1193 -1236 0
-1193 -1237 0
-1193 -1238 0
-1193 -1239 0
-1193 -1240 0
-1193 -1241 0
-1193 -1242 0
-1194 -1195 0
-1194 -1196 0
-1194 -1197 0
-1194 -1198 0
-1194 -1199 0
-1194 -1200 0
-1194 -1201 0
-1194 -1202 0
-1194 -1203 0
-1194 -1204 0
-1194 -1205 0
-1194 -1206 0
-1194 -1207 0
-1194 -1208 0
-1194 -1209 0
-1194 -1210 0
-1194 -1211 0
-1194 -1212 0
-1194 -1213 0
-1194 -1214 0
-1194 -1215 0
-1194 -1216 0
-1194 -1217 0
-1194 -1218 0
-1194 -1219 0
-1194 -1220 0
-1194 -1221 0
-1194 -1222 0
-1194 -1223 0
-1194 -1224 0
-1194 -1225 0
-1194 -1226 0
-1194 -1227 0
-1194 -1228 0
-1194 -1229 0
-1194 -1230 0
-1194 -1231 0
-1194 -1232 0
-1194 -1233 0
-1194 -1234 0
-1194 -1235 0
-1194 -1236 0
-1194 -1237 0
-1194 -1238 0
-1194 -1239 0
-1194 -1240 0
-1194 -1241 0
-1194 -1242 0
-1195 -1196 0
-1195 -1197 0
-1195 -1198 0
-1195 -1199 0
-1195 -1200 0
-1195 -1201 0
-1195 -1202 0
-1195 -1203 0
-1195 -1204 0
-1195 -1205 0
-1195 -1206 0
-1195 -1207 0
-1195 -1208 0
-1195 -1209 0
-1195 -1210 0
-1195 -1211 0
-1195 -1212 0
-1195 -1213 0
-1195 -1214 0
-1195 -1215 0
-1195 -1216 0
-1195 -1217 0
-1195 -1218 0
-1195 -1219 0
-1195 -1220 0
-1195 -1221 0
-1195 -1222 0
-1195 -1223 0
-1195 -1224 0
-1195 -1225 0
-1195 -1226 0
-1195 -1227 0
-1195 -1228 0
-1195 -1229 0
-1195 -1230 0
-1195 -1231 0
-1195 -1232 0
-1195 -1233 0
-1195 -1234 0
-1195 -1235 0
-1195 -1236 0
-1195 -1237 0
-1195 -1238 0
-1195 -1239 0
-1195 -1240 0
-1195 -1241 0
-1195 -1242 0
-1196 -1197 0
-1196 -1198 0
-1196 -1199 0
-1196 -1200 0
-1196 -1201 0
-1196 -1202 0
-1196 -1203 0
-1196 -1204 0
-1196 -1205 0
-1196 -1206 0
-1196 -1207 0
-1196 -1208 0
-1196 -1209 0
-1196 -1210 0
-1196 -1211 0
-1196 -1212 0
-1196 -1213 0
-1196 -1214 0
-1196 -1215 0
-1196 -1216 0
-1196 -1217 0
-1196 -1218 0
-1196 -1219 0
-1196 -1220 0
-1196 -1221 0
-1196 -1222 0
-1196 -1223 0
-1196 -1224 0
-1196 -1225 0
-1196 -1226 0
-1196 -1227 0
-1196 -1228 0
-1196 -1229 0
-1196 -1230 0
-1196 -1231 0
-1196 -1232 0
-1196 -1233 0
-1196 -1234 0
-1196 -1235 0
-1196 -1236 0
-1196 -1237 0
-1196 -1238 0
-1196 -1239 0
-1196 -1240 0
-1196 -1241 0
-1196 -1242 0
-1197 -1198 0
-1197 -1199 0
-1197 -1200 0
-1197 -1201 0
-1197 -1202 0
-1197 -1203 0
-1197 -1204 0
-1197 -1205 0
-1197 -1206 0
-1197 -1207 0
-1197 -1208 0
-1197 -1209 0
-1197 -1210 0
-1197 -1211 0
-1197 -1212 0
-1197 -1213 0
-1197 -1214 0
-1197 -1215 0
-1197 -1216 0
-1197 -1217 0
-1197 -1218 0
-1197 -1219 0
-1197 -1220 0
-1197 -1221 0
-1197 -1222 0
-1197 -1223 0
-1197 -1224 0
-1197 -1225 0
-1197 -1226 0
-1197 -1227 0
-1197 -1228 0
-1197 -1229 0
-1197 -1230 0
-1197 -1231 0
-1197 -1232 0
-1197 -1233 0
-1197 -1234 0
-1197 -1235 0
-1197 -1236 0
-1197 -1237 0
-1197 -1238 0
-1197 -1239 0
-1197 -1240 0
-1197 -1241 0
-1197 -1242 0
-1198 -1199 0
-1198 -1200 0
-1198 -1201 0
-1198 -1202 0
-1198 -1203 0
-1198 -1204 0
-1198 -1205 0
-1198 -1206 0
-1198 -1207 0
-1198 -1208 0
-1198 -1209 0
-1198 -1210 0
-1198 -1211 0
-1198 -1212 0
-1198 -1213 0
-1198 -1214 0
-1198 -1215 0
-1198 -1216 0
-1198 -1217 0
-1198 -1218 0
-1198 -1219 0
-1198 -1220 0
-1198 -1221 0
-1198 -1222 0
-1198 -1223 0
-1198 -1224 0
-1198 -1225 0
-1198 -1226 0
-1198 -1227 0
-1198 -1228 0
-1198 -1229 0
-1198 -1230 0
-1198 -1231 0
-1198 -1232 0
-1198 -1233 0
-1198 -1234 0
-1198 -1235 0
-1198 -1236 0
-1198 -1237 0
-1198 -1238 0
-1198 -1239 0
-1198 -1240 0
-1198 -1241 0
-1198 -1242 0
-1199 -1200 0
-1199 -1201 0
-1199 -1202 0
-1199 -1203 0
-1199 -1204 0
-1199 -1205 0
-1199 -1206 0
-1199 -1207 0
-1199 -1208 0
-1199 -1209 0
-1199 -1210 0
-1199 -1211 0
-1199 -1212 0
-1199 -1213 0
-1199 -1214 0
-1199 -1215 0
-1199 -1216 0
-1199 -1217 0
-1199 -1218 0
-1199 -1219 0
-1199 -1220 0
-1199 -1221 0
-1199 -1222 0
-1199 -1223 0
-1199 -1224 0
-1199 -1225 0
-1199 -1226 0
-1199 -1227 0
-1199 -1228 0
-1199 -1229 0
-1199 -1230 0
-1199 -1231 0
-1199 -1232 0
-1199 -1233 0
-1199 -1234 0
-1199 -1235 0
-1199 -1236 0
-1199 -1237 0
-1199 -1238 0
-1199 -1239 0
-1199 -1240 0
-1199 -1241 0
-1199 -1242 0
-1200 -1201 0
-1200 -1202 0
-1200 -1203 0
-1200 -1204 0
-1200 -1205 0
-1200 -1206 0
-1200 -1207 0
-1200 -1208 0
-1200 -1209 0
-1200 -1210 0
-1200 -1211 0
-1200 -1212 0
-1200 -1213 0
-1200 -1214 0
-1200 -1215 0
-1200 -1216 0
-1200 -1217 0
-1200 -1218 0
-1200 -1219 0
-1200 -1220 0
-1200 -1221 0
-1200 -1222 0
-1200 -1223 0
-1200 -1224 0
-1200 -1225 0
-1200 -1226 0
-1200 -1227 0
-1200 -1228 0
-1200 -1229 0
-1200 -1230 0
-1200 -1231 0
-1200 -1232 0
-1200 -1233 0
-1200 -1234 0
-1200 -1235 0
-1200 -1236 0
-1200 -1237 0
-1200 -1238 0
-1200 -1239 0
-1200 -1240 0
-1200 -1241 0
-1200 -1242 0
-1201 -1202 0
-1201 -1203 0
-1201 -1204 0
-1201 -1205 0
-1201 -1206 0
-1201 -1207 0
-1201 -1208 0
-1201 -1209 0
-1201 -1210 0
-1201 -1211 0
-1201 -1212 0
-1201 -1213 0
-1201 -1214 0
-1201 -1215 0
-1201 -1216 0
-1201 -1217 0
-1201 -1218 0
-1201 -1219 0
-1201 -1220 0
-1201 -1221 0
-1201 -1222 0
-1201 -1223 0
-1201 -1224 0
-1201 -1225 0
-1201 -1226 0
-1201 -1227 0
-1201 -1228 0
-1201 -1229 0
-1201 -1230 0
-1201 -1231 0
-1201 -1232 0
-1201 -1233 0
-1201 -1234 0
-1201 -1235 0
-1201 -1236 0
-1201 -1237 0
-1201 -1238 0
-1201 -1239 0
-1201 -1240 0
-1201 -1241 0
-1201 -1242 0
-1202 -1203 0
-1202 -1204 0
-1202 -1205 0
-1202 -1206 0
-1202 -1207 0
-1202 -1208 0
-1202 -1209 0
-1202 -1210 0
-1202 -1211 0
-1202 -1212 0
-1202 -1213 0
-1202 -1214 0
-1202 -1215 0
-1202 -1216 0
-1202 -1217 0
-1202 -1218 0
-1202 -1219 0
-1202 -1220 0
-1202 -1221 0
-1202 -1222 0
-1202 -1223 0
-1202 -1224 0
-1202 -1225 0
-1202 -1226 0
-1202 -1227 0
-1202 -1228 0
-1202 -1229 0
-1202 -1230 0
-1202 -1231 0
-1202 -1232 0
-1202 -1233 0
-1202 -1234 0
-1202 -1235 0
-1202 -1236 0
-1202 -1237 0
-1202 -1238 0
-1202 -1239 0
-1202 -1240 0
-1202 -1241 0
-1202 -1242 0
-1203 -1204 0
-1203 -1205 0
-1203 -1206 0
-1203 -1207 0
-1203 -1208 0
-1203 -1209 0
-1203 -1210 0
-1203 -1211 0
-1203 -1212 0
-1203 -1213 0
-1203 -1214 0
-1203 -1215 0
-1203 -1216 0
-1203 -1217 0
-1203 -1218 0
-1203 -1219 0
-1203 -1220 0
-1203 -1221 0
-1203 -1222 0
-1203 -1223 0
-1203 -1224 0
-1203 -1225 0
-1203 -1226 0
-1203 -1227 0
-1203 -1228 0
-1203 -1229 0
-1203 -1230 0
-1203 -1231 0
-1203 -1232 0
-1203 -1233 0
-1203 -1234 0
-1203 -1235 0
-1203 -1236 0
-1203 -1237 0
-1203 -1238 0
-1203 -1239 0
-1203 -1240 0
-1203 -1241 0
-1203 -1242 0
-1204 -1205 0
-1204 -1206 0
-1204 -1207 0
-1204 -1208 0
-1204 -1209 0
-1204 -1210 0
-1204 -1211 0
-1204 -1212 0
-1204 -1213 0
-1204 -1214 0
-1204 -1215 0
-1204 -1216 0
-1204 -1217 0
-1204 -1218 0
-1204 -1219 0
-1204 -1220 0
-1204 -1221 0
-1204 -1222 0
-1204 -1223 0
-1204 -1224 0
-1204 -1225 0
-1204 -1226 0
-1204 -1227 0
-1204 -1228 0
-1204 -1229 0
-1204 -1230 0
-1204 -1231 0
-1204 -1232 0
-1204 -1233 0
-1204 -1234 0
-1204 -1235 0
-1204 -1236 0
-1204 -1237 0
-1204 -1238 0
-1204 -1239 0
-1204 -1240 0
-1204 -1241 0
-1204 -1242 0
-1205 -1206 0
-1205 -1207 0
-1205 -1208 0
-1205 -1209 0
-1205 -1210 0
-1205 -1211 0
-1205 -1212 0
-1205 -1213 0
-1205 -1214 0
-1205 -1215 0
-1205 -1216 0
-1205 -1217 0
-1205 -1218 0
-1205 -1219 0
-1205 -1220 0
-1205 -1221 0
-1205 -1222 0
-1205 -1223 0
-1205 -1224 0
-1205 -1225 0
-1205 -1226 0
-1205 -1227 0
-1205 -1228 0
-1205 -1229 0
-1205 -1230 0
-1205 -1231 0
-1205 -1232 0
-1205 -1233 0
-1205 -1234 0
-1205 -1235 0
-1205 -1236 0
-1205 -1237 0
-1205 -1238 0
-1205 -1239 0
-1205 -1240 0
-1205 -1241 0
-1205 -1242 0
-1206 -1207 0
-1206 -1208 0
-1206 -1209 0
-1206 -1210 0
-1206 -1211 0
-1206 -1212 0
-1206 -1213 0
-1206 -1214 0
-1206 -1215 0
-1206 -1216 0
-1206 -1217 0
-1206 -1218 0
-1206 -1219 0
-1206 -1220 0
-1206 -1221 0
-1206 -1222 0
-1206 -1223 0
-1206 -1224 0
-1206 -1225 0
-1206 -1226 0
-1206 -1227 0
-1206 -1228 0
-1206 -1229 0
-1206 -1230 0
-1206 -1231 0
-1206 -1232 0
-1206 -1233 0
-1206 -1234 0
-1206 -1235 0
-1206 -1236 0
-1206 -1237 0
-1206 -1238 0
-1206 -1239 0
-1206 -1240 0
-1206 -1241 0
-1206 -1242 0
-1207 -1208 0
-1207 -1209 0
-1207 -1210 0
-1207 -1211 0
-1207 -1212 0
-1207 -1213 0
-1207 -1214 0
-1207 -1215 0
-1207 -1216 0
-1207 -1217 0
-1207 -1218 0
-1207 -1219 0
-1207 -1220 0
-1207 -1221 0
-1207 -1222 0
-1207 -1223 0
-1207 -1224 0
-1207 -1225 0
-1207 -1226 0
-1207 -1227 0
-1207 -1228 0
-1207 -1229 0
-1207 -1230 0
-1207 -1231 0
-1207 -1232 0
-1207 -1233 0
-1207 -1234 0
-1207 -1235 0
-1207 -1236 0
-1207 -1237 0
-1207 -1238 0
-1207 -1239 0
-1207 -1240 0
-1207 -1241 0
-1207 -1242 0
-1208 -1209 0
-1208 -1210 0
-1208 -1211 0
-1208 -1212 0
-1208 -1213 0
-1208 -1214 0
-1208 -1215 0
-1208 -1216 0
-1208 -1217 0
-1208 -1218 0
-1208 -1219 0
-1208 -1220 0
-1208 -1221 0
-1208 -1222 0
-1208 -1223 0
-1208 -1224 0
-1208 -1225 0
-1208 -1226 0
-1208 -1227 0
-1208 -1228 0
-1208 -1229 0
-1208 -1230 0
-1208 -1231 0
-1208 -1232 0
-1208 -1233 0
-1208 -1234 0
-1208 -1235 0
-1208 -1236 0
-1208 -1237 0
-1208 -1238 0
-1208 -1239 0
-1208 -1240 0
-1208 -1241 0
-1208 -1242 0
-1209 -1210 0
-1209 -1211 0
-1209 -1212 0
-1209 -1213 0
-1209 -1214 0
-1209 -1215 0
-1209 -1216 0
-1209 -1217 0
-1209 -1218 0
-1209 -1219 0
-1209 -1220 0
-1209 -1221 0
-1209 -1222 0
-1209 -1223 0
-1209 -1224 0
-1209 -1225 0
-1209 -1226 0
-1209 -1227 0
-1209 -1228 0
-1209 -1229 0
-1209 -1230 0
-1209 -1231 0
-1209 -1232 0
-1209 -1233 0
-1209 -1234 0
-1209 -1235 0
-1209 -1236 0
-1209 -1237 0
-1209 -1238 0
-1209 -1239 0
-1209 -1240 0
-1209 -1241 0
-1209 -1242 0
-1210 -1211 0
-1210 -1212 0
-1210 -1213 0
-1210 -1214 0
-1210 -1215 0
-1210 -1216 0
-1210 -1217 0
-1210 -1218 0
-1210 -1219 0
-1210 -1220 0
-1210 -1221 0
-1210 -1222 0
-1210 -1223 0
-1210 -1224 0
-1210 -1225 0
-1210 -1226 0
-1210 -1227 0
-1210 -1228 0
-1210 -1229 0
-1210 -1230 0
-1210 -1231 0
-1210 -1232 0
-1210 -1233 0
-1210 -1234 0
-1210 -1235 0
-1210 -1236 0
-1210 -1237 0
-1210 -1238 0
-1210 -1239 0
-1210 -1240 0
-1210 -1241 0
-1210 -1242 0
-1211 -1212 0
-1211 -1213 0
-1211 -1214 0
-1211 -1215 0
-1211 -1216 0
-1211 -1217 0
-1211 -1218 0
-1211 -1219 0
-1211 -1220 0
-1211 -1221 0
-1211 -1222 0
-1211 -1223 0
-1211 -1224 0
-1211 -1225 0
-1211 -1226 0
-1211 -1227 0
-1211 -1228 0
-1211 -1229 0
-1211 -1230 0
-1211 -1231 0
-1211 -1232 0
-1211 -1233 0
-1211 -1234 0
-1211 -1235 0
-1211 -1236 0
-1211 -1237 0
-1211 -1238 0
-1211 -1239 0
-1211 -1240 0
-1211 -1241 0
-1211 -1242 0
-1212 -1213 0
-1212 -1214 0
-1212 -1215 0
-1212 -1216 0
-1212 -1217 0
-1212 -1218 0
-1212 -1219 0
-1212 -1220 0
-1212 -1221 0
-1212 -1222 0
-1212 -1223 0
-1212 -1224 0
-1212 -1225 0
-1212 -1226 0
-1212 -1227 0
-1212 -1228 0
-1212 -1229 0
-1212 -1230 0
-1212 -1231 0
-1212 -1232 0
-1212 -1233 0
-1212 -1234 0
-1212 -1235 0
-1212 -1236 0
-1212 -1237 0
-1212 -1238 0
-1212 -1239 0
-1212 -1240 0
-1212 -1241 0
-1212 -1242 0
-1213 -1214 0
-1213 -1215 0
-1213 -1216 0
-1213 -1217 0
-1213 -1218 0
-1213 -1219 0
-1213 -1220 0
-1213 -1221 0
-1213 -1222 0
-1213 -1223 0
-1213 -1224 0
-1213 -1225 0
-1213 -1226 0
-1213 -1227 0
-1213 -1228 0
-1213 -1229 0
-1213 -1230 0
-1213 -1231 0
-1213 -1232 0
-1213 -1233 0
-1213 -1234 0
-1213 -1235 0
-1213 -1236 0
-1213 -1237 0
-1213 -1238 0
-1213 -1239 0
-1213 -1240 0
-1213 -1241 0
-1213 -1242 0
-1214 -1215 0
-1214 -1216 0
-1214 -1217 0
-1214 -1218 0
-1214 -1219 0
-1214 -1220 0
-1214 -1221 0
-1214 -1222 0
-1214 -1223 0
-1214 -1224 0
-1214 -1225 0
-1214 -1226 0
-1214 -1227 0
-1214 -1228 0
-1214 -1229 0
-1214 -1230 0
-1214 -1231 0
-1214 -1232 0
-1214 -1233 0
-1214 -1234 0
-1214 -1235 0
-1214 -1236 0
-1214 -1237 0
-1214 -1238 0
-1214 -1239 0
-1214 -1240 0
-1214 -1241 0
-1214 -1242 0
-1215 -1216 0
-1215 -1217 0
-1215 -1218 0
-1215 -1219 0
-1215 -1220 0
-1215 -1221 0
-1215 -1222 0
-1215 -1223 0
-1215 -1224 0
-1215 -1225 0
-1215 -1226 0
-1215 -1227 0
-1215 -1228 0
-1215 -1229 0
-1215 -1230 0
-1215 -1231 0
-1215 -1232 0
-1215 -1233 0
-1215 -1234 0
-1215 -1235 0
-1215 -1236 0
-1215 -1237 0
-1215 -1238 0
-1215 -1239 0
-1215 -1240 0
-1215 -1241 0
-1215 -1242 0
-1216 -1217 0
-1216 -1218 0
-1216 -1219 0
-1216 -1220 0
-1216 -1221 0
-1216 -1222 0
-1216 -1223 0
-1216 -1224 0
-1216 -1225 0
-1216 -1226 0
-1216 -1227 0
-1216 -1228 0
-1216 -1229 0
-1216 -1230 0
-1216 -1231 0
-1216 -1232 0
-1216 -1233 0
-1216 -1234 0
-1216 -1235 0
-1216 -1236 0
-1216 -1237 0
-1216 -1238 0
-1216 -1239 0
-1216 -1240 0
-1216 -1241 0
-1216 -1242 0
-1217 -1218 0
-1217 -1219 0
-1217 -1220 0
-1217 -1221 0
-1217 -1222 0
-1217 -1223 0
-1217 -1224 0
-1217 -1225 0
-1217 -1226 0
-1217 -1227 0
-1217 -1228 0
-1217 -1229 0
-1217 -1230 0
-1217 -1231 0
-1217 -1232 0
-1217 -1233 0
-1217 -1234 0
-1217 -1235 0
-1217 -1236 0
-1217 -1237 0
-1217 -1238 0
-1217 -1239 0
-1217 -1240 0
-1217 -1241 0
-1217 -1242 0
-1218 -1219 0
-1218 -1220 0
-1218 -1221 0
-1218 -1222 0
-1218 -1223 0
-1218 -1224 0
-1218 -1225 0
-1218 -1226 0
-1218 -1227 0
-1218 -1228 0
-1218 -1229 0
-1218 -1230 0
-1218 -1231 0
-1218 -1232 0
-1218 -1233 0
-1218 -1234 0
-1218 -1235 0
-1218 -1236 0
-1218 -1237 0
-1218 -1238 0
-1218 -1239 0
-1218 -1240 0
-1218 -1241 0
-1218 -1242 0
-1219 -1220 0
-1219 -1221 0
-1219 -1222 0
-1219 -1223 0
-1219 -1224 0
-1219 -1225 0
-1219 -1226 0
-1219 -1227 0
-1219 -1228 0
-1219 -1229 0
-1219 -1230 0
-1219 -1231 0
-1219 -1232 0
-1219 -1233 0
-1219 -1234 0
-1219 -1235 0
-1219 -1236 0
-1219 -1237 0
-1219 -1238 0
-1219 -1239 0
-1219 -1240 0
-1219 -1241 0
-1219 -1242 0
-1220 -1221 0
-1220 -1222 0
-1220 -1223 0
-1220 -1224 0
-1220 -1225 0
-1220 -1226 0
-1220 -1227 0
-1220 -1228 0
-1220 -1229 0
-1220 -1230 0
-1220 -1231 0
-1220 -1232 0
-1220 -1233 0
-1220 -1234 0
-1220 -1235 0
-1220 -1236 0
-1220 -1237 0
-1220 -1238 0
-1220 -1239 0
-1220 -1240 0
-1220 -1241 0
-1220 -1242 0
-1221 -1222 0
-1221 -1223 0
-1221 -1224 0
-1221 -1225 0
-1221 -1226 0
-1221 -1227 0
-1221 -1228 0
-1221 -1229 0
-1221 -1230 0
-1221 -1231 0
-1221 -1232 0
-1221 -1233 0
-1221 -1234 0
-1221 -1235 0
-1221 -1236 0
-1221 -1237 0
-1221 -1238 0
-1221 -1239 0
-1221 -1240 0
-1221 -1241 0
-1221 -1242 0
-1222 -1223 0
-1222 -1224 0
-1222 -1225 0
-1222 -1226 0
-1222 -1227 0
-1222 -1228 0
-1222 -1229 0
-1222 -1230 0
-1222 -1231 0
-1222 -1232 0
-1222 -1233 0
-1222 -1234 0
-1222 -1235 0
-1222 -1236 0
-1222 -1237 0
-1222 -1238 0
-1222 -1239 0
-1222 -1240 0
-1222 -1241 0
-1222 -1242 0
-1223 -1224 0
-1223 -1225 0
-1223 -1226 0
-1223 -1227 0
-1223 -1228 0
-1223 -1229 0
-1223 -1230 0
-1223 -1231 0
-1223 -1232 0
-1223 -1233 0
-1223 -1234 0
-1223 -1235 0
-1223 -1236 0
-1223 -1237 0
-1223 -1238 0
-1223 -1239 0
-1223 -1240 0
-1223 -1241 0
-1223 -1242 0
-1224 -1225 0
-1224 -1226 0
-1224 -1227 0
-1224 -1228 0
-1224 -1229 0
-1224 -1230 0
-1224 -1231 0
-1224 -1232 0
-1224 -1233 0
-1224 -1234 0
-1224 -1235 0
-1224 -1236 0
-1224 -1237 0
-1224 -1238 0
-1224 -1239 0
-1224 -1240 0
-1224 -1241 0
-1224 -1242 0
-1225 -1226 0
-1225 -1227 0
-1225 -1228 0
-1225 -1229 0
-1225 -1230 0
-1225 -1231 0
-1225 -1232 0
-1225 -1233 0
-1225 -1234 0
-1225 -1235 0
-1225 -1236 0
-1225 -1237 0
-1225 -1238 0
-1225 -1239 0
-1225 -1240 0
-1225 -1241 0
-1225 -1242 0
-1226 -1227 0
-1226 -1228 0
-1226 -1229 0
-1226 -1230 0
-1226 -1231 0
-1226 -1232 0
-1226 -1233 0
-1226 -1234 0
-1226 -1235 0
-1226 -1236 0
-1226 -1237 0
-1226 -1238 0
-1226 -1239 0
-1226 -1240 0
-1226 -1241 0
-1226 -1242 0
-1227 -1228 0
-1227 -1229 0
-1227 -1230 0
-1227 -1231 0
-1227 -1232 0
-1227 -1233 0
-1227 -1234 0
-1227 -1235 0
-1227 -1236 0
-1227 -1237 0
-1227 -1238 0
-1227 -1239 0
-1227 -1240 0
-1227 -1241 0
-1227 -1242 0
-1228 -1229 0
-1228 -1230 0
-1228 -1231 0
-1228 -1232 0
-1228 -1233 0
-1228 -1234 0
-1228 -1235 0
-1228 -1236 0
-1228 -1237 0
-1228 -1238 0
-1228 -1239 0
-1228 -1240 0
-1228 -1241 0
-1228 -1242 0
-1229 -1230 0
-1229 -1231 0
-1229 -1232 0
-1229 -1233 0
-1229 -1234 0
-1229 -1235 0
-1229 -1236 0
-1229 -1237 0
-1229 -1238 0
-1229 -1239 0
-1229 -1240 0
-1229 -1241 0
-1229 -1242 0
-1230 -1231 0
-1230 -1232 0
-1230 -1233 0
-1230 -1234 0
-1230 -1235 0
-1230 -1236 0
-1230 -1237 0
-1230 -1238 0
-1230 -1239 0
-1230 -1240 0
-1230 -1241 0
-1230 -1242 0
-1231 -1232 0
-1231 -1233 0
-1231 -1234 0
-1231 -1235 0
-1231 -1236 0
-1231 -1237 0
-1231 -1238 0
-1231 -1239 0
-1231 -1240 0
-1231 -1241 0
-1231 -1242 0
-1232 -1233 0
-1232 -1234 0
-1232 -1235 0
-1232 -1236 0
-1232 -1237 0
-1232 -1238 0
-1232 -1239 0
-1232 -1240 0
-1232 -1241 0
-1232 -1242 0
-1233 -1234 0
-1233 -1235 0
-1233 -1236 0
-1233 -1237 0
-1233 -1238 0
-1233 -1239 0
-1233 -1240 0
-1233 -1241 0
-1233 -1242 0
-1234 -1235 0
-1234 -1236 0
-1234 -1237 0
-1234 -1238 0
-1234 -1239 0
-1234 -1240 0
-1234 -1241 0
-1234 -1242 0
-1235 -1236 0
-1235 -1237 0
-1235 -1238 0
-1235 -1239 0
-1235 -1240 0
-1235 -1241 0
-1235 -1242 0
-1236 -1237 0
-1236 -1238 0
-1236 -1239 0
-1236 -1240 0
-1236 -1241 0
-1236 -1242 0
-1237 -1238 0
-1237 -1239 0
-1237 -1240 0
-1237 -1241 0
-1237 -1242 0
-1238 -1239 0
-1238 -1240 0
-1238 -1241 0
-1238 -1242 0
-1239 -1240 0
-1239 -1241 0
-1239 -1242 0
-1240 -1241 0
-1240 -1242 0
-1241 -1242 0
-1243 1159 1160 1161 1162 1163 1164 1165 1166 1167 1168 1169 1170 1171 1172 1173 1174 1175 1176 1177 1178 1179 1180 1181 1182 0
-1159 1243 0
-1160 1243 0
-1161 1243 0
-1162 1243 0
-1163 1243 0
-1164 1243 0
-1165 1243 0
-1166 1243 0
-1167 1243 0
-1168 1243 0
-1169 1243 0
-1170 1243 0
-1171 1243 0
-1172 1243 0
-1173 1243 0
-1174 1243 0
-1175 1243 0
-1176 1243 0
-1177 1243 0
-1178 1243 0
-1179 1243 0
-1180 1243 0
-1181 1243 0
-1182 1243 0
1243 -448 597 0
1243 448 -597 0
1243 -449 598 0
1243 449 -598 0
1243 -450 599 0
1243 450 -599 0
1243 -451 600 0
1243 451 -600 0
1243 -452 601 0
1243 452 -601 0
1243 -453 602 0
1243 453 -602 0
1243 -454 603 0
1243 454 -603 0
1243 -455 604 0
1243 455 -604 0
1243 -456 605 0
1243 456 -605 0
1243 -457 606 0
1243 457 -606 0
-1244 1183 1184 1185 1186 1187 1188 1189 1190 1191 1192 1193 1194 1195 1196 1197 1198 1199 1200 1201 1202 1203 1204 1205 1206 0
-1183 1244 0
-1184 1244 0
-1185 1244 0
-1186 1244 0
-1187 1244 0
-1188 1244 0
-1189 1244 0
-1190 1244 0
-1191 1244 0
-1192 1244 0
-1193 1244 0
-1194 1244 0
-1195 1244 0
-1196 1244 0
-1197 1244 0
-1198 1244 0
-1199 1244 0
-1200 1244 0
-1201 1244 0
-1202 1244 0
-1203 1244 0
-1204 1244 0
-1205 1244 0
-1206 1244 0
1244 -458 607 0
1244 458 -607 0
1244 -459 608 0
1244 459 -608 0
1244 -460 609 0
1244 460 -609 0
1244 -461 610 0
1244 461 -610 0
1244 -462 611 0
1244 462 -611 0
1244 -463 612 0
1244 463 -612 0
1244 -464 613 0
1244 464 -613 0
1244 -465 614 0
1244 465 -614 0
1244 -466 615 0
1244 466 -615 0
1244 -467 616 0
1244 467 -616 0
-1245 1207 1208 1209 1210 1211 1212 1213 1214 1215 1216 1217 1218 1219 1220 1221 1222 1223 1224 1225 1226 0
-1207 1245 0
-1208 1245 0
-1209 1245 0
-1210 1245 0
-1211 1245 0
-1212 1245 0
-1213 1245 0
-1214 1245 0
-1215 1245 0
-1216 1245 0
-1217 1245 0
-1218 1245 0
-1219 1245 0
-1220 1245 0
-1221 1245 0
-1222 1245 0
-1223 1245 0
-1224 1245 0
-1225 1245 0
-1226 1245 0
1245 -468 617 0
1245 468 -617 0
1245 -469 618 0
1245 469 -618 0
1245 -470 619 0
1245 470 -619 0
1245 -471 620 0
1245 471 -620 0
1245 -472 621 0
1245 472 -621 0
1245 -473 622 0
1245 473 -622 0
1245 -474 623 0
1245 474 -623 0
1245 -475 624 0
1245 475 -624 0
1245 -476 625 0
1245 476 -625 0
-1246 1227 1228 1229 1230 1231 1232 1233 1234 1235 1236 1237 1238 1239 1240 1241 1242 0
-1227 1246 0
-1228 1246 0
-1229 1246 0
-1230 1246 0
-1231 1246 0
-1232 1246 0
-1233 1246 0
-1234 1246 0
-1235 1246 0
-1236 1246 0
-1237 1246 0
-1238 1246 0
-1239 1246 0
-1240 1246 0
-1241 1246 0
-1242 1246 0
1246 -477 626 0
1246 477 -626 0
1246 -478 627 0
1246 478 -627 0
1246 -479 628 0
1246 479 -628 0
1246 -480 629 0
1246 480 -629 0
1246 -481 630 0
1246 481 -630 0
1246 -482 631 0
1246 482 -631 0
1246 -483 632 0
1246 483 -632 0
1246 -484 633 0
1246 484 -633 0
-1159 593 0
-1159 597 0
-1159 -459 0
-1159 -460 0
-1159 -461 0
-1159 -462 0
-1159 -463 0
-1159 -467 0
-1159 -464 604 0
-1159 -464 -448 -455 0
-1159 -464 -510 0
-1159 -464 -511 0
-1159 -464 -512 0
-1159 -464 -534 0
-1159 -464 -535 0
-1159 -464 -536 0
-1159 -464 -554 0
-1159 -464 -555 0
-1159 -464 -556 0
-1159 -465 605 0
-1159 -465 -448 -456 0
-1159 -465 -511 0
-1159 -465 -512 0
-1159 -465 -535 0
-1159 -465 -536 0
-1159 -465 -555 0
-1159 -465 -556 0
-1159 -466 606 0
-1159 -466 -448 -457 0
-1159 -466 -512 0
-1159 -466 -536 0
-1159 -466 -556 0
-1160 593 0
-1160 598 0
-1160 -458 0
-1160 -460 0
-1160 -461 0
-1160 -462 0
-1160 -463 0
-1160 -467 0
-1160 -464 604 0
-1160 -464 -449 -455 0
-1160 -464 -514 0
-1160 -464 -515 0
-1160 -464 -516 0
-1160 -464 -534 0
-1160 -464 -535 0
-1160 -464 -536 0
-1160 -464 -538 0
-1160 -464 -539 0
-1160 -464 -540 0
-1160 -464 -554 0
-1160 -464 -555 0
-1160 -464 -556 0
-1160 -464 -558 0
-1160 -464 -559 0
-1160 -464 -560 0
-1160 -465 605 0
-1160 -465 -449 -456 0
-1160 -465 -515 0
-1160 -465 -516 0
-1160 -465 -535 0
-1160 -465 -536 0
-1160 -465 -539 0
-1160 -465 -540 0
-1160 -465 -555 0
-1160 -465 -556 0
-1160 -465 -559 0
-1160 -465 -560 0
-1160 -466 606 0
-1160 -466 -449 -457 0
-1160 -466 -516 0
-1160 -466 -536 0
-1160 -466 -540 0
-1160 -466 -556 0
-1160 -466 -560 0
-1161 593 0
-1161 599 0
-1161 -458 0
-1161 -459 0
-1161 -461 0
-1161 -462 0
-1161 -463 0
-1161 -467 0
-1161 -464 604 0
-1161 -464 -450 -455 0
-1161 -464 -518 0
-1161 -464 -519 0
-1161 -464 -520 0
-1161 -464 -538 0
-1161 -464 -539 0
-1161 -464 -540 0
-1161 -464 -542 0
-1161 -464 -543 0
-1161 -464 -544 0
-1161 -464 -554 0
-1161 -464 -555 0
-1161 -464 -556 0
-1161 -464 -558 0
-1161 -464 -559 0
-1161 -464 -560 0
-1161 -464 -562 0
-1161 -464 -563 0
-1161 -464 -564 0
-1161 -465 605 0
-1161 -465 -450 -456 0
-1161 -465 -519 0
-1161 -465 -520 0
-1161 -465 -539 0
-1161 -465 -540 0
-1161 -465 -543 0
-1161 -465 -544 0
-1161 -465 -555 0
-1161 -465 -556 0
-1161 -465 -559 0
-1161 -465 -560 0
-1161 -465 -563 0
-1161 -465 -564 0
-1161 -466 606 0
-1161 -466 -450 -457 0
-1161 -466 -520 0
-1161 -466 -540 0
-1161 -466 -544 0
-1161 -466 -556 0
-1161 -466 -560 0
-1161 -466 -564 0
-1162 593 0
-1162 600 0
-1162 -458 0
-1162 -459 0
-1162 -460 0
-1162 -462 0
-1162 -463 0
-1162 -467 0
-1162 -464 604 0
-1162 -464 -451 -455 0
-1162 -464 -522 0
-1162 -464 -523 0
-1162 -464 -524 0
-1162 -464 -542 0
-1162 -464 -543 0
-1162 -464 -544 0
-1162 -464 -546 0
-1162 -464 -547 0
-1162 -464 -548 0
-1162 -464 -558 0
-1162 -464 -559 0
-1162 -464 -560 0
-1162 -464 -562 0
-1162 -464 -563 0
-1162 -464 -564 0
-1162 -464 -566 0
-1162 -464 -567 0
-1162 -464 -568 0
-1162 -465 605 0
-1162 -465 -451 -456 0
-1162 -465 -523 0
-1162 -465 -524 0
-1162 -465 -543 0
-1162 -465 -544 0
-1162 -465 -547 0
-1162 -465 -548 0
-1162 -465 -559 0
-1162 -465 -560 0
-1162 -465 -563 0
-1162 -465 -564 0
-1162 -465 -567 0
-1162 -465 -568 0
-1162 -466 606 0
-1162 -466 -451 -457 0
-1162 -466 -524 0
-1162 -466 -544 0
-1162 -466 -548 0
-1162 -466 -560 0
-1162 -466 -564 0
-1162 -466 -568 0
-1163 593 0
-1163 601 0
-1163 -458 0
-1163 -459 0
-1163 -460 0
-1163 -461 0
-1163 -463 0
-1163 -467 0
-1163 -464 604 0
-1163 -464 -452 -455 0
-1163 -464 -526 0
-1163 -464 -527 0
-1163 -464 -528 0
-1163 -464 -546 0
-1163 -464 -547 0
-1163 -464 -548 0
-1163 -464 -550 0
-1163 -464 -551 0
-1163 -464 -552 0
-1163 -464 -562 0
-1163 -464 -563 0
-1163 -464 -564 0
-1163 -464 -566 0
-1163 -464 -567 0
-1163 -464 -568 0
-1163 -465 605 0
-1163 -465 -452 -456 0
-1163 -465 -527 0
-1163 -465 -528 0
-1163 -465 -547 0
-1163 -465 -548 0
-1163 -465 -551 0
-1163 -465 -552 0
-1163 -465 -563 0
-1163 -465 -564 0
-1163 -465 -567 0
-1163 -465 -568 0
-1163 -466 606 0
-1163 -466 -452 -457 0
-1163 -466 -528 0
-1163 -466 -548 0
-1163 -466 -552 0
-1163 -466 -564 0
-1163 -466 -568 0
-1164 593 0
-1164 602 0
-1164 -458 0
-1164 -459 0
-1164 -460 0
-1164 -461 0
-1164 -462 0
-1164 -467 0
-1164 -464 604 0
-1164 -464 -453 -455 0
-1164 -464 -530 0
-1164 -464 -531 0
-1164 -464 -532 0
-1164 -464 -550 0
-1164 -464 -551 0
-1164 -464 -552 0
-1164 -464 -566 0
-1164 -464 -567 0
-1164 -464 -568 0
-1164 -465 605 0
-1164 -465 -453 -456 0
-1164 -465 -531 0
-1164 -465 -532 0
-1164 -465 -551 0
-1164 -465 -552 0
-1164 -465 -567 0
-1164 -465 -568 0
-1164 -466 606 0
-1164 -466 -453 -457 0
-1164 -466 -532 0
-1164 -466 -552 0
-1164 -466 -568 0
-1165 593 0
-1165 597 0
-1165 -469 0
-1165 -470 0
-1165 -471 0
-1165 -472 0
-1165 -476 0
-1165 -473 604 0
-1165 -473 -448 -455 0
-1165 -473 -510 0
-1165 -473 -511 0
-1165 -473 -512 0
-1165 -473 -534 0
-1165 -473 -535 0
-1165 -473 -536 0
-1165 -473 -554 0
-1165 -473 -555 0
-1165 -473 -556 0
-1165 -474 605 0
-1165 -474 -448 -456 0
-1165 -474 -511 0
-1165 -474 -512 0
-1165 -474 -535 0
-1165 -474 -536 0
-1165 -474 -555 0
-1165 -474 -556 0
-1165 -475 606 0
-1165 -475 -448 -457 0
-1165 -475 -512 0
-1165 -475 -536 0
-1165 -475 -556 0
-1166 593 0
-1166 598 0
-1166 -470 0
-1166 -471 0
-1166 -472 0
-1166 -476 0
-1166 -473 604 0
-1166 -473 -449 -455 0
-1166 -473 -514 0
-1166 -473 -515 0
-1166 -473 -516 0
-1166 -473 -534 0
-1166 -473 -535 0
-1166 -473 -536 0
-1166 -473 -538 0
-1166 -473 -539 0
-1166 -473 -540 0
-1166 -473 -554 0
-1166 -473 -555 0
-1166 -473 -556 0
-1166 -473 -558 0
-1166 -473 -559 0
-1166 -473 -560 0
-1166 -474 605 0
-1166 -474 -449 -456 0
-1166 -474 -515 0
-1166 -474 -516 0
-1166 -474 -535 0
-1166 -474 -536 0
-1166 -474 -539 0
-1166 -474 -540 0
-1166 -474 -555 0
-1166 -474 -556 0
-1166 -474 -559 0
-1166 -474 -560 0
-1166 -475 606 0
-1166 -475 -449 -457 0
-1166 -475 -516 0
-1166 -475 -536 0
-1166 -475 -540 0
-1166 -475 -556 0
-1166 -475 -560 0
-1167 593 0
-1167 599 0
-1167 -468 0
-1167 -471 0
-1167 -472 0
-1167 -476 0
-1167 -473 604 0
-1167 -473 -450 -455 0
-1167 -473 -518 0
-1167 -473 -519 0
-1167 -473 -520 0
-1167 -473 -538 0
-1167 -473 -539 0
-1167 -473 -540 0
-1167 -473 -542 0
-1167 -473 -543 0
-1167 -473 -544 0
-1167 -473 -554 0
-1167 -473 -555 0
-1167 -473 -556 0
-1167 -473 -558 0
-1167 -473 -559 0
-1167 -473 -560 0
-1167 -473 -562 0
-1167 -473 -563 0
-1167 -473 -564 0
-1167 -474 605 0
-1167 -474 -450 -456 0
-1167 -474 -519 0
-1167 -474 -520 0
-1167 -474 -539 0
-1167 -474 -540 0
-1167 -474 -543 0
-1167 -474 -544 0
-1167 -474 -555 0
-1167 -474 -556 0
-1167 -474 -559 0
-1167 -474 -560 0
-1167 -474 -563 0
-1167 -474 -564 0
-1167 -475 606 0
-1167 -475 -450 -457 0
-1167 -475 -520 0
-1167 -475 -540 0
-1167 -475 -544 0
-1167 -475 -556 0
-1167 -475 -560 0
-1167 -475 -564 0
-1168 593 0
-1168 600 0
-1168 -468 0
-1168 -469 0
-1168 -472 0
-1168 -476 0
-1168 -473 604 0
-1168 -473 -451 -455 0
-1168 -473 -522 0
-1168 -473 -523 0
-1168 -473 -524 0
-1168 -473 -542 0
-1168 -473 -543 0
-1168 -473 -544 0
-1168 -473 -546 0
-1168 -473 -547 0
-1168 -473 -548 0
-1168 -473 -558 0
-1168 -473 -559 0
-1168 -473 -560 0
-1168 -473 -562 0
-1168 -473 -563 0
-1168 -473 -564 0
-1168 -473 -566 0
-1168 -473 -567 0
-1168 -473 -568 0
-1168 -474 605 0
-1168 -474 -451 -456 0
-1168 -474 -523 0
-1168 -474 -524 0
-1168 -474 -543 0
-1168 -474 -544 0
-1168 -474 -547 0
-1168 -474 -548 0
-1168 -474 -559 0
-1168 -474 -560 0
-1168 -474 -563 0
-1168 -474 -564 0
-1168 -474 -567 0
-1168 -474 -568 0
-1168 -475 606 0
-1168 -475 -451 -457 0
-1168 -475 -524 0
-1168 -475 -544 0
-1168 -475 -548 0
-1168 -475 -560 0
-1168 -475 -564 0
-1168 -475 -568 0
-1169 593 0
-1169 601 0
-1169 -468 0
-1169 -469 0
-1169 -470 0
-1169 -476 0
-1169 -473 604 0
-1169 -473 -452 -455 0
-1169 -473 -526 0
-1169 -473 -527 0
-1169 -473 -528 0
-1169 -473 -546 0
-1169 -473 -547 0
-1169 -473 -548 0
-1169 -473 -550 0
-1169 -473 -551 0
-1169 -473 -552 0
-1169 -473 -562 0
-1169 -473 -563 0
-1169 -473 -564 0
-1169 -473 -566 0
-1169 -473 -567 0
-1169 -473 -568 0
-1169 -474 605 0
-1169 -474 -452 -456 0
-1169 -474 -527 0
-1169 -474 -528 0
-1169 -474 -547 0
-1169 -474 -548 0
-1169 -474 -551 0
-1169 -474 -552 0
-1169 -474 -563 0
-1169 -474 -564 0
-1169 -474 -567 0
-1169 -474 -568 0
-1169 -475 606 0
-1169 -475 -452 -457 0
-1169 -475 -528 0
-1169 -475 -548 0
-1169 -475 -552 0
-1169 -475 -564 0
-1169 -475 -568 0
-1170 593 0
-1170 602 0
-1170 -468 0
-1170 -469 0
-1170 -470 0
-1170 -471 0
-1170 -476 0
-1170 -473 604 0
-1170 -473 -453 -455 0
-1170 -473 -530 0
-1170 -473 -531 0
-1170 -473 -532 0
-1170 -473 -550 0
-1170 -473 -551 0
-1170 -473 -552 0
-1170 -473 -566 0
-1170 -473 -567 0
-1170 -473 -568 0
-1170 -474 605 0
-1170 -474 -453 -456 0
-1170 -474 -531 0
-1170 -474 -532 0
-1170 -474 -551 0
-1170 -474 -552 0
-1170 -474 -567 0
-1170 -474 -568 0
-1170 -475 606 0
-1170 -475 -453 -457 0
-1170 -475 -532 0
-1170 -475 -552 0
-1170 -475 -568 0
-1171 593 0
-1171 597 0
-1171 -478 0
-1171 -479 0
-1171 -480 0
-1171 -484 0
-1171 -481 604 0
-1171 -481 -448 -455 0
-1171 -481 -510 0
-1171 -481 -511 0
-1171 -481 -512 0
-1171 -481 -534 0
-1171 -481 -535 0
-1171 -481 -536 0
-1171 -481 -554 0
-1171 -481 -555 0
-1171 -481 -556 0
-1171 -482 605 0
-1171 -482 -448 -456 0
-1171 -482 -511 0
-1171 -482 -512 0
-1171 -482 -535 0
-1171 -482 -536 0
-1171 -482 -555 0
-1171 -482 -556 0
-1171 -483 606 0
-1171 -483 -448 -457 0
-1171 -483 -512 0
-1171 -483 -536 0
-1171 -483 -556 0
-1172 593 0
-1172 598 0
-1172 -479 0
-1172 -480 0
-1172 -484 0
-1172 -481 604 0
-1172 -481 -449 -455 0
-1172 -481 -514 0
-1172 -481 -515 0
-1172 -481 -516 0
-1172 -481 -534 0
-1172 -481 -535 0
-1172 -481 -536 0
-1172 -481 -538 0
-1172 -481 -539 0
-1172 -481 -540 0
-1172 -481 -554 0
-1172 -481 -555 0
-1172 -481 -556 0
-1172 -481 -558 0
-1172 -481 -559 0
-1172 -481 -560 0
-1172 -482 605 0
-1172 -482 -449 -456 0
-1172 -482 -515 0
-1172 -482 -516 0
-1172 -482 -535 0
-1172 -482 -536 0
-1172 -482 -539 0
-1172 -482 -540 0
-1172 -482 -555 0
-1172 -482 -556 0
-1172 -482 -559 0
-1172 -482 -560 0
-1172 -483 606 0
-1172 -483 -449 -457 0
-1172 -483 -516 0
-1172 -483 -536 0
-1172 -483 -540 0
-1172 -483 -556 0
-1172 -483 -560 0
-1173 593 0
-1173 599 0
-1173 -480 0
-1173 -484 0
-1173 -481 604 0
-1173 -481 -450 -455 0
-1173 -481 -518 0
-1173 -481 -519 0
-1173 -481 -520 0
-1173 -481 -538 0
-1173 -481 -539 0
-1173 -481 -540 0
-1173 -481 -542 0
-1173 -481 -543 0
-1173 -481 -544 0
-1173 -481 -554 0
-1173 -481 -555 0
-1173 -481 -556 0
-1173 -481 -558 0
-1173 -481 -559 0
-1173 -481 -560 0
-1173 -481 -562 0
-1173 -481 -563 0
-1173 -481 -564 0
-1173 -482 605 0
-1173 -482 -450 -456 0
-1173 -482 -519 0
-1173 -482 -520 0
-1173 -482 -539 0
-1173 -482 -540 0
-1173 -482 -543 0
-1173 -482 -544 0
-1173 -482 -555 0
-1173 -482 -556 0
-1173 -482 -559 0
-1173 -482 -560 0
-1173 -482 -563 0
-1173 -482 -564 0
-1173 -483 606 0
-1173 -483 -450 -457 0
-1173 -483 -520 0
-1173 -483 -540 0
-1173 -483 -544 0
-1173 -483 -556 0
-1173 -483 -560 0
-1173 -483 -564 0
-1174 593 0
-1174 600 0
-1174 -477 0
-1174 -484 0
-1174 -481 604 0
-1174 -481 -451 -455 0
-1174 -481 -522 0
-1174 -481 -523 0
-1174 -481 -524 0
-1174 -481 -542 0
-1174 -481 -543 0
-1174 -481 -544 0
-1174 -481 -546 0
-1174 -481 -547 0
-1174 -481 -548 0
-1174 -481 -558 0
-1174 -481 -559 0
-1174 -481 -560 0
-1174 -481 -562 0
-1174 -481 -563 0
-1174 -481 -564 0
-1174 -481 -566 0
-1174 -481 -567 0
-1174 -481 -568 0
-1174 -482 605 0
-1174 -482 -451 -456 0
-1174 -482 -523 0
-1174 -482 -524 0
-1174 -482 -543 0
-1174 -482 -544 0
-1174 -482 -547 0
-1174 -482 -548 0
-1174 -482 -559 0
-1174 -482 -560 0
-1174 -482 -563 0
-1174 -482 -564 0
-1174 -482 -567 0
-1174 -482 -568 0
-1174 -483 606 0
-1174 -483 -451 -457 0
-1174 -483 -524 0
-1174 -483 -544 0
-1174 -483 -548 0
-1174 -483 -560 0
-1174 -483 -564 0
-1174 -483 -568 0
-1175 593 0
-1175 601 0
-1175 -477 0
-1175 -478 0
-1175 -484 0
-1175 -481 604 0
-1175 -481 -452 -455 0
-1175 -481 -526 0
-1175 -481 -527 0
-1175 -481 -528 0
-1175 -481 -546 0
-1175 -481 -547 0
-1175 -481 -548 0
-1175 -481 -550 0
-1175 -481 -551 0
-1175 -481 -552 0
-1175 -481 -562 0
-1175 -481 -563 0
-1175 -481 -564 0
-1175 -481 -566 0
-1175 -481 -567 0
-1175 -481 -568 0
-1175 -482 605 0
-1175 -482 -452 -456 0
-1175 -482 -527 0
-1175 -482 -528 0
-1175 -482 -547 0
-1175 -482 -548 0
-1175 -482 -551 0
-1175 -482 -552 0
-1175 -482 -563 0
-1175 -482 -564 0
-1175 -482 -567 0
-1175 -482 -568 0
-1175 -483 606 0
-1175 -483 -452 -457 0
-1175 -483 -528 0
-1175 -483 -548 0
-1175 -483 -552 0
-1175 -483 -564 0
-1175 -483 -568 0
-1176 593 0
-1176 602 0
-1176 -477 0
-1176 -478 0
-1176 -479 0
-1176 -484 0
-1176 -481 604 0
-1176 -481 -453 -455 0
-1176 -481 -530 0
-1176 -481 -531 0
-1176 -481 -532 0
-1176 -481 -550 0
-1176 -481 -551 0
-1176 -481 -552 0
-1176 -481 -566 0
-1176 -481 -567 0
-1176 -481 -568 0
-1176 -482 605 0
-1176 -482 -453 -456 0
-1176 -482 -531 0
-1176 -482 -532 0
-1176 -482 -551 0
-1176 -482 -552 0
-1176 -482 -567 0
-1176 -482 -568 0
-1176 -483 606 0
-1176 -483 -453 -457 0
-1176 -483 -532 0
-1176 -483 -552 0
-1176 -483 -568 0
-1177 593 0
-1177 597 0
-1177 603 0
-1177 -448 -454 0
-1177 -509 0
-1177 -510 0
-1177 -511 0
-1177 -512 0
-1177 -533 0
-1177 -534 0
-1177 -535 0
-1177 -536 0
-1177 -553 0
-1177 -554 0
-1177 -555 0
-1177 -556 0
-1178 593 0
-1178 598 0
-1178 603 0
-1178 -449 -454 0
-1178 -513 0
-1178 -514 0
-1178 -515 0
-1178 -516 0
-1178 -533 0
-1178 -534 0
-1178 -535 0
-1178 -536 0
-1178 -537 0
-1178 -538 0
-1178 -539 0
-1178 -540 0
-1178 -553 0
-1178 -554 0
-1178 -555 0
-1178 -556 0
-1178 -557 0
-1178 -558 0
-1178 -559 0
-1178 -560 0
-1179 593 0
-1179 599 0
-1179 603 0
-1179 -450 -454 0
-1179 -517 0
-1179 -518 0
-1179 -519 0
-1179 -520 0
-1179 -537 0
-1179 -538 0
-1179 -539 0
-1179 -540 0
-1179 -541 0
-1179 -542 0
-1179 -543 0
-1179 -544 0
-1179 -553 0
-1179 -554 0
-1179 -555 0
-1179 -556 0
-1179 -557 0
-1179 -558 0
-1179 -559 0
-1179 -560 0
-1179 -561 0
-1179 -562 0
-1179 -563 0
-1179 -564 0
-1180 593 0
-1180 600 0
-1180 603 0
-1180 -451 -454 0
-1180 -521 0
-1180 -522 0
-1180 -523 0
-1180 -524 0
-1180 -541 0
-1180 -542 0
-1180 -543 0
-1180 -544 0
-1180 -545 0
-1180 -546 0
-1180 -547 0
-1180 -548 0
-1180 -557 0
-1180 -558 0
-1180 -559 0
-1180 -560 0
-1180 -561 0
-1180 -562 0
-1180 -563 0
-1180 -564 0
-1180 -565 0
-1180 -566 0
-1180 -567 0
-1180 -568 0
-1181 593 0
-1181 601 0
-1181 603 0
-1181 -452 -454 0
-1181 -525 0
-1181 -526 0
-1181 -527 0
-1181 -528 0
-1181 -545 0
-1181 -546 0
-1181 -547 0
-1181 -548 0
-1181 -549 0
-1181 -550 0
-1181 -551 0
-1181 -552 0
-1181 -561 0
-1181 -562 0
-1181 -563 0
-1181 -564 0
-1181 -565 0
-1181 -566 0
-1181 -567 0
-1181 -568 0
-1182 593 0
-1182 602 0
-1182 603 0
-1182 -453 -454 0
-1182 -529 0
-1182 -530 0
-1182 -531 0
-1182 -532 0
-1182 -549 0
-1182 -550 0
-1182 -551 0
-1182 -552 0
-1182 -565 0
-1182 -566 0
-1182 -567 0
-1182 -568 0
-1183 594 0
-1183 607 0
-1183 -449 0
-1183 -450 0
-1183 -451 0
-1183 -452 0
-1183 -453 0
-1183 -457 0
-1183 -454 614 0
-1183 -454 -458 -465 0
-1183 -454 -486 0
-1183 -454 -487 0
-1183 -454 -488 0
-1183 -454 -534 0
-1183 -454 -535 0
-1183 -454 -536 0
-1183 -454 -554 0
-1183 -454 -555 0
-1183 -454 -556 0
-1183 -455 615 0
-1183 -455 -458 -466 0
-1183 -455 -487 0
-1183 -455 -488 0
-1183 -455 -535 0
-1183 -455 -536 0
-1183 -455 -555 0
-1183 -455 -556 0
-1183 -456 616 0
-1183 -456 -458 -467 0
-1183 -456 -488 0
-1183 -456 -536 0
-1183 -456 -556 0
-1184 594 0
-1184 608 0
-1184 -448 0
-1184 -450 0
-1184 -451 0
-1184 -452 0
-1184 -453 0
-1184 -457 0
-1184 -454 614 0
-1184 -454 -459 -465 0
-1184 -454 -490 0
-1184 -454 -491 0
-1184 -454 -492 0
-1184 -454 -534 0
-1184 -454 -535 0
-1184 -454 -536 0
-1184 -454 -538 0
-1184 -454 -539 0
-1184 -454 -540 0
-1184 -454 -554 0
-1184 -454 -555 0
-1184 -454 -556 0
-1184 -454 -558 0
-1184 -454 -559 0
-1184 -454 -560 0
-1184 -455 615 0
-1184 -455 -459 -466 0
-1184 -455 -491 0
-1184 -455 -492 0
-1184 -455 -535 0
-1184 -455 -536 0
-1184 -455 -539 0
-1184 -455 -540 0
-1184 -455 -555 0
-1184 -455 -556 0
-1184 -455 -559 0
-1184 -455 -560 0
-1184 -456 616 0
-1184 -456 -459 -467 0
-1184 -456 -492 0
-1184 -456 -536 0
-1184 -456 -540 0
-1184 -456 -556 0
-1184 -456 -560 0
-1185 594 0
-1185 609 0
-1185 -448 0
-1185 -449 0
-1185 -451 0
-1185 -452 0
-1185 -453 0
-1185 -457 0
-1185 -454 614 0
-1185 -454 -460 -465 0
-1185 -454 -494 0
-1185 -454 -495 0
-1185 -454 -496 0
-1185 -454 -538 0
-1185 -454 -539 0
-1185 -454 -540 0
-1185 -454 -542 0
-1185 -454 -543 0
-1185 -454 -544 0
-1185 -454 -554 0
-1185 -454 -555 0
-1185 -454 -556 0
-1185 -454 -558 0
-1185 -454 -559 0
-1185 -454 -560 0
-1185 -454 -562 0
-1185 -454 -563 0
-1185 -454 -564 0
-1185 -455 615 0
-1185 -455 -460 -466 0
-1185 -455 -495 0
-1185 -455 -496 0
-1185 -455 -539 0
-1185 -455 -540 0
-1185 -455 -543 0
-1185 -455 -544 0
-1185 -455 -555 0
-1185 -455 -556 0
-1185 -455 -559 0
-1185 -455 -560 0
-1185 -455 -563 0
-1185 -455 -564 0
-1185 -456 616 0
-1185 -456 -460 -467 0
-1185 -456 -496 0
-1185 -456 -540 0
-1185 -456 -544 0
-1185 -456 -556 0
-1185 -456 -560 0
-1185 -456 -564 0
-1186 594 0
-1186 610 0
-1186 -448 0
-1186 -449 0
-1186 -450 0
-1186 -452 0
-1186 -453 0
-1186 -457 0
-1186 -454 614 0
-1186 -454 -461 -465 0
-1186 -454 -498 0
-1186 -454 -499 0
-1186 -454 -500 0
-1186 -454 -542 0
-1186 -454 -543 0
-1186 -454 -544 0
-1186 -454 -546 0
-1186 -454 -547 0
-1186 -454 -548 0
-1186 -454 -558 0
-1186 -454 -559 0
-1186 -454 -560 0
-1186 -454 -562 0
-1186 -454 -563 0
-1186 -454 -564 0
-1186 -454 -566 0
-1186 -454 -567 0
-1186 -454 -568 0
-1186 -455 615 0
-1186 -455 -461 -466 0
-1186 -455 -499 0
-1186 -455 -500 0
-1186 -455 -543 0
-1186 -455 -544 0
-1186 -455 -547 0
-1186 -455 -548 0
-1186 -455 -559 0
-1186 -455 -560 0
-1186 -455 -563 0
-1186 -455 -564 0
-1186 -455 -567 0
-1186 -455 -568 0
-1186 -456 616 0
-1186 -456 -461 -467 0
-1186 -456 -500 0
-1186 -456 -544 0
-1186 -456 -548 0
-1186 -456 -560 0
-1186 -456 -564 0
-1186 -456 -568 0
-1187 594 0
-1187 611 0
-1187 -448 0
-1187 -449 0
-1187 -450 0
-1187 -451 0
-1187 -453 0
-1187 -457 0
-1187 -454 614 0
-1187 -454 -462 -465 0
-1187 -454 -502 0
-1187 -454 -503 0
-1187 -454 -504 0
-1187 -454 -546 0
-1187 -454 -547 0
-1187 -454 -548 0
-1187 -454 -550 0
-1187 -454 -551 0
-1187 -454 -552 0
-1187 -454 -562 0
-1187 -454 -563 0
-1187 -454 -564 0
-1187 -454 -566 0
-1187 -454 -567 0
-1187 -454 -568 0
-1187 -455 615 0
-1187 -455 -462 -466 0
-1187 -455 -503 0
-1187 -455 -504 0
-1187 -455 -547 0
-1187 -455 -548 0
-1187 -455 -551 0
-1187 -455 -552 0
-1187 -455 -563 0
-1187 -455 -564 0
-1187 -455 -567 0
-1187 -455 -568 0
-1187 -456 616 0
-1187 -456 -462 -467 0
-1187 -456 -504 0
-1187 -456 -548 0
-1187 -456 -552 0
-1187 -456 -564 0
-1187 -456 -568 0
-1188 594 0
-1188 612 0
-1188 -448 0
-1188 -449 0
-1188 -450 0
-1188 -451 0
-1188 -452 0
-1188 -457 0
-1188 -454 614 0
-1188 -454 -463 -465 0
-1188 -454 -506 0
-1188 -454 -507 0
-1188 -454 -508 0
-1188 -454 -550 0
-1188 -454 -551 0
-1188 -454 -552 0
-1188 -454 -566 0
-1188 -454 -567 0
-1188 -454 -568 0
-1188 -455 615 0
-1188 -455 -463 -466 0
-1188 -455 -507 0
-1188 -455 -508 0
-1188 -455 -551 0
-1188 -455 -552 0
-1188 -455 -567 0
-1188 -455 -568 0
-1188 -456 616 0
-1188 -456 -463 -467 0
-1188 -456 -508 0
-1188 -456 -552 0
-1188 -456 -568 0
-1189 594 0
-1189 607 0
-1189 -469 0
-1189 -470 0
-1189 -471 0
-1189 -472 0
-1189 -476 0
-1189 -473 614 0
-1189 -473 -458 -465 0
-1189 -473 -486 0
-1189 -473 -487 0
-1189 -473 -488 0
-1189 -473 -534 0
-1189 -473 -535 0
-1189 -473 -536 0
-1189 -473 -554 0
-1189 -473 -555 0
-1189 -473 -556 0
-1189 -474 615 0
-1189 -474 -458 -466 0
-1189 -474 -487 0
-1189 -474 -488 0
-1189 -474 -535 0
-1189 -474 -536 0
-1189 -474 -555 0
-1189 -474 -556 0
-1189 -475 616 0
-1189 -475 -458 -467 0
-1189 -475 -488 0
-1189 -475 -536 0
-1189 -475 -556 0
-1190 594 0
-1190 608 0
-1190 -470 0
-1190 -471 0
-1190 -472 0
-1190 -476 0
-1190 -473 614 0
-1190 -473 -459 -465 0
-1190 -473 -490 0
-1190 -473 -491 0
-1190 -473 -492 0
-1190 -473 -534 0
-1190 -473 -535 0
-1190 -473 -536 0
-1190 -473 -538 0
-1190 -473 -539 0
-1190 -473 -540 0
-1190 -473 -554 0
-1190 -473 -555 0
-1190 -473 -556 0
-1190 -473 -558 0
-1190 -473 -559 0
-1190 -473 -560 0
-1190 -474 615 0
-1190 -474 -459 -466 0
-1190 -474 -491 0
-1190 -474 -492 0
-1190 -474 -535 0
-1190 -474 -536 0
-1190 -474 -539 0
-1190 -474 -540 0
-1190 -474 -555 0
-1190 -474 -556 0
-1190 -474 -559 0
-1190 -474 -560 0
-1190 -475 616 0
-1190 -475 -459 -467 0
-1190 -475 -492 0
-1190 -475 -536 0
-1190 -475 -540 0
-1190 -475 -556 0
-1190 -475 -560 0
-1191 594 0
-1191 609 0
-1191 -468 0
-1191 -471 0
-1191 -472 0
-1191 -476 0
-1191 -473 614 0
-1191 -473 -460 -465 0
-1191 -473 -494 0
-1191 -473 -495 0
-1191 -473 -496 0
-1191 -473 -538 0
-1191 -473 -539 0
-1191 -473 -540 0
-1191 -473 -542 0
-1191 -473 -543 0
-1191 -473 -544 0
-1191 -473 -554 0
-1191 -473 -555 0
-1191 -473 -556 0
-1191 -473 -558 0
-1191 -473 -559 0
-1191 -473 -560 0
-1191 -473 -562 0
-1191 -473 -563 0
-1191 -473 -564 0
-1191 -474 615 0
-1191 -474 -460 -466 0
-1191 -474 -495 0
-1191 -474 -496 0
-1191 -474 -539 0
-1191 -474 -540 0
-1191 -474 -543 0
-1191 -474 -544 0
-1191 -474 -555 0
-1191 -474 -556 0
-1191 -474 -559 0
-1191 -474 -560 0
-1191 -474 -563 0
-1191 -474 -564 0
-1191 -475 616 0
-1191 -475 -460 -467 0
-1191 -475 -496 0
-1191 -475 -540 0
-1191 -475 -544 0
-1191 -475 -556 0
-1191 -475 -560 0
-1191 -475 -564 0
-1192 594 0
-1192 610 0
-1192 -468 0
-1192 -469 0
-1192 -472 0
-1192 -476 0
-1192 -473 614 0
-1192 -473 -461 -465 0
-1192 -473 -498 0
-1192 -473 -499 0
-1192 -473 -500 0
-1192 -473 -542 0
-1192 -473 -543 0
-1192 -473 -544 0
-1192 -473 -546 0
-1192 -473 -547 0
-1192 -473 -548 0
-1192 -473 -558 0
-1192 -473 -559 0
-1192 -473 -560 0
-1192 -473 -562 0
-1192 -473 -563 0
-1192 -473 -564 0
-1192 -473 -566 0
-1192 -473 -567 0
-1192 -473 -568 0
-1192 -474 615 0
-1192 -474 -461 -466 0
-1192 -474 -499 0
-1192 -474 -500 0
-1192 -474 -543 0
-1192 -474 -544 0
-1192 -474 -547 0
-1192 -474 -548 0
-1192 -474 -559 0
-1192 -474 -560 0
-1192 -474 -563 0
-1192 -474 -564 0
-1192 -474 -567 0
-1192 -474 -568 0
-1192 -475 616 0
-1192 -475 -461 -467 0
-1192 -475 -500 0
-1192 -475 -544 0
-1192 -475 -548 0
-1192 -475 -560 0
-1192 -475 -564 0
-1192 -475 -568 0
-1193 594 0
-1193 611 0
-1193 -468 0
-1193 -469 0
-1193 -470 0
-1193 -476 0
-1193 -473 614 0
-1193 -473 -462 -465 0
-1193 -473 -502 0
-1193 -473 -503 0
-1193 -473 -504 0
-1193 -473 -546 0
-1193 -473 -547 0
-1193 -473 -548 0
-1193 -473 -550 0
-1193 -473 -551 0
-1193 -473 -552 0
-1193 -473 -562 0
-1193 -473 -563 0
-1193 -473 -564 0
-1193 -473 -566 0
-1193 -473 -567 0
-1193 -473 -568 0
-1193 -474 615 0
-1193 -474 -462 -466 0
-1193 -474 -503 0
-1193 -474 -504 0
-1193 -474 -547 0
-1193 -474 -548 0
-1193 -474 -551 0
-1193 -474 -552 0
-1193 -474 -563 0
-1193 -474 -564 0
-1193 -474 -567 0
-1193 -474 -568 0
-1193 -475 616 0
-1193 -475 -462 -467 0
-1193 -475 -504 0
-1193 -475 -548 0
-1193 -475 -552 0
-1193 -475 -564 0
-1193 -475 -568 0
-1194 594 0
-1194 612 0
-1194 -468 0
-1194 -469 0
-1194 -470 0
-1194 -471 0
-1194 -476 0
-1194 -473 614 0
-1194 -473 -463 -465 0
-1194 -473 -506 0
-1194 -473 -507 0
-1194 -473 -508 0
-1194 -473 -550 0
-1194 -473 -551 0
-1194 -473 -552 0
-1194 -473 -566 0
-1194 -473 -567 0
-1194 -473 -568 0
-1194 -474 615 0
-1194 -474 -463 -466 0
-1194 -474 -507 0
-1194 -474 -508 0
-1194 -474 -551 0
-1194 -474 -552 0
-1194 -474 -567 0
-1194 -474 -568 0
-1194 -475 616 0
-1194 -475 -463 -467 0
-1194 -475 -508 0
-1194 -475 -552 0
-1194 -475 -568 0
-1195 594 0
-1195 607 0
-1195 -478 0
-1195 -479 0
-1195 -480 0
-1195 -484 0
-1195 -481 614 0
-1195 -481 -458 -465 0
-1195 -481 -486 0
-1195 -481 -487 0
-1195 -481 -488 0
-1195 -481 -534 0
-1195 -481 -535 0
-1195 -481 -536 0
-1195 -481 -554 0
-1195 -481 -555 0
-1195 -481 -556 0
-1195 -482 615 0
-1195 -482 -458 -466 0
-1195 -482 -487 0
-1195 -482 -488 0
-1195 -482 -535 0
-1195 -482 -536 0
-1195 -482 -555 0
-1195 -482 -556 0
-1195 -483 616 0
-1195 -483 -458 -467 0
-1195 -483 -488 0
-1195 -483 -536 0
-1195 -483 -556 0
-1196 594 0
-1196 608 0
-1196 -479 0
-1196 -480 0
-1196 -484 0
-1196 -481 614 0
-1196 -481 -459 -465 0
-1196 -481 -490 0
-1196 -481 -491 0
-1196 -481 -492 0
-1196 -481 -534 0
-1196 -481 -535 0
-1196 -481 -536 0
-1196 -481 -538 0
-1196 -481 -539 0
-1196 -481 -540 0
-1196 -481 -554 0
-1196 -481 -555 0
-1196 -481 -556 0
-1196 -481 -558 0
-1196 -481 -559 0
-1196 -481 -560 0
-1196 -482 615 0
-1196 -482 -459 -466 0
-1196 -482 -491 0
-1196 -482 -492 0
-1196 -482 -535 0
-1196 -482 -536 0
-1196 -482 -539 0
-1196 -482 -540 0
-1196 -482 -555 0
-1196 -482 -556 0
-1196 -482 -559 0
-1196 -482 -560 0
-1196 -483 616 0
-1196 -483 -459 -467 0
-1196 -483 -492 0
-1196 -483 -536 0
-1196 -483 -540 0
-1196 -483 -556 0
-1196 -483 -560 0
-1197 594 0
-1197 609 0
-1197 -480 0
-1197 -484 0
-1197 -481 614 0
-1197 -481 -460 -465 0
-1197 -481 -494 0
-1197 -481 -495 0
-1197 -481 -496 0
-1197 -481 -538 0
-1197 -481 -539 0
-1197 -481 -540 0
-1197 -481 -542 0
-1197 -481 -543 0
-1197 -481 -544 0
-1197 -481 -554 0
-1197 -481 -555 0
-1197 -481 -556 0
-1197 -481 -558 0
-1197 -481 -559 0
-1197 -481 -560 0
-1197 -481 -562 0
-1197 -481 -563 0
-1197 -481 -564 0
-1197 -482 615 0
-1197 -482 -460 -466 0
-1197 -482 -495 0
-1197 -482 -496 0
-1197 -482 -539 0
-1197 -482 -540 0
-1197 -482 -543 0
-1197 -482 -544 0
-1197 -482 -555 0
-1197 -482 -556 0
-1197 -482 -559 0
-1197 -482 -560 0
-1197 -482 -563 0
-1197 -482 -564 0
-1197 -483 616 0
-1197 -483 -460 -467 0
-1197 -483 -496 0
-1197 -483 -540 0
-1197 -483 -544 0
-1197 -483 -556 0
-1197 -483 -560 0
-1197 -483 -564 0
-1198 594 0
-1198 610 0
-1198 -477 0
-1198 -484 0
-1198 -481 614 0
-1198 -481 -461 -465 0
-1198 -481 -498 0
-1198 -481 -499 0
-1198 -481 -500 0
-1198 -481 -542 0
-1198 -481 -543 0
-1198 -481 -544 0
-1198 -481 -546 0
-1198 -481 -547 0
-1198 -481 -548 0
-1198 -481 -558 0
-1198 -481 -559 0
-1198 -481 -560 0
-1198 -481 -562 0
-1198 -481 -563 0
-1198 -481 -564 0
-1198 -481 -566 0
-1198 -481 -567 0
-1198 -481 -568 0
-1198 -482 615 0
-1198 -482 -461 -466 0
-1198 -482 -499 0
-1198 -482 -500 0
-1198 -482 -543 0
-1198 -482 -544 0
-1198 -482 -547 0
-1198 -482 -548 0
-1198 -482 -559 0
-1198 -482 -560 0
-1198 -482 -563 0
-1198 -482 -564 0
-1198 -482 -567 0
-1198 -482 -568 0
-1198 -483 616 0
-1198 -483 -461 -467 0
-1198 -483 -500 0
-1198 -483 -544 0
-1198 -483 -548 0
-1198 -483 -560 0
-1198 -483 -564 0
-1198 -483 -568 0
-1199 594 0
-1199 611 0
-1199 -477 0
-1199 -478 0
-1199 -484 0
-1199 -481 614 0
-1199 -481 -462 -465 0
-1199 -481 -502 0
-1199 -481 -503 0
-1199 -481 -504 0
-1199 -481 -546 0
-1199 -481 -547 0
-1199 -481 -548 0
-1199 -481 -550 0
-1199 -481 -551 0
-1199 -481 -552 0
-1199 -481 -562 0
-1199 -481 -563 0
-1199 -481 -564 0
-1199 -481 -566 0
-1199 -481 -567 0
-1199 -481 -568 0
-1199 -482 615 0
-1199 -482 -462 -466 0
-1199 -482 -503 0
-1199 -482 -504 0
-1199 -482 -547 0
-1199 -482 -548 0
-1199 -482 -551 0
-1199 -482 -552 0
-1199 -482 -563 0
-1199 -482 -564 0
-1199 -482 -567 0
-1199 -482 -568 0
-1199 -483 616 0
-1199 -483 -462 -467 0
-1199 -483 -504 0
-1199 -483 -548 0
-1199 -483 -552 0
-1199 -483 -564 0
-1199 -483 -568 0
-1200 594 0
-1200 612 0
-1200 -477 0
-1200 -478 0
-1200 -479 0
-1200 -484 0
-1200 -481 614 0
-1200 -481 -463 -465 0
-1200 -481 -506 0
-1200 -481 -507 0
-1200 -481 -508 0
-1200 -481 -550 0
-1200 -481 -551 0
-1200 -481 -552 0
-1200 -481 -566 0
-1200 -481 -567 0
-1200 -481 -568 0
-1200 -482 615 0
-1200 -482 -463 -466 0
-1200 -482 -507 0
-1200 -482 -508 0
-1200 -482 -551 0
-1200 -482 -552 0
-1200 -482 -567 0
-1200 -482 -568 0
-1200 -483 616 0
-1200 -483 -463 -467 0
-1200 -483 -508 0
-1200 -483 -552 0
-1200 -483 -568 0
-1201 594 0
-1201 607 0
-1201 613 0
-1201 -458 -464 0
-1201 -485 0
-1201 -486 0
-1201 -487 0
-1201 -488 0
-1201 -533 0
-1201 -534 0
-1201 -535 0
-1201 -536 0
-1201 -553 0
-1201 -554 0
-1201 -555 0
-1201 -556 0
-1202 594 0
-1202 608 0
-1202 613 0
-1202 -459 -464 0
-1202 -489 0
-1202 -490 0
-1202 -491 0
-1202 -492 0
-1202 -533 0
-1202 -534 0
-1202 -535 0
-1202 -536 0
-1202 -537 0
-1202 -538 0
-1202 -539 0
-1202 -540 0
-1202 -553 0
-1202 -554 0
-1202 -555 0
-1202 -556 0
-1202 -557 0
-1202 -558 0
-1202 -559 0
-1202 -560 0
-1203 594 0
-1203 609 0
-1203 613 0
-1203 -460 -464 0
-1203 -493 0
-1203 -494 0
-1203 -495 0
-1203 -496 0
-1203 -537 0
-1203 -538 0
-1203 -539 0
-1203 -540 0
-1203 -541 0
-1203 -542 0
-1203 -543 0
-1203 -544 0
-1203 -553 0
-1203 -554 0
-1203 -555 0
-1203 -556 0
-1203 -557 0
-1203 -558 0
-1203 -559 0
-1203 -560 0
-1203 -561 0
-1203 -562 0
-1203 -563 0
-1203 -564 0
-1204 594 0
-1204 610 0
-1204 613 0
-1204 -461 -464 0
-1204 -497 0
-1204 -498 0
-1204 -499 0
-1204 -500 0
-1204 -541 0
-1204 -542 0
-1204 -543 0
-1204 -544 0
-1204 -545 0
-1204 -546 0
-1204 -547 0
-1204 -548 0
-1204 -557 0
-1204 -558 0
-1204 -559 0
-1204 -560 0
-1204 -561 0
-1204 -562 0
-1204 -563 0
-1204 -564 0
-1204 -565 0
-1204 -566 0
-1204 -567 0
-1204 -568 0
-1205 594 0
-1205 611 0
-1205 613 0
-1205 -462 -464 0
-1205 -501 0
-1205 -502 0
-1205 -503 0
-1205 -504 0
-1205 -545 0
-1205 -546 0
-1205 -547 0
-1205 -548 0
-1205 -549 0
-1205 -550 0
-1205 -551 0
-1205 -552 0
-1205 -561 0
-1205 -562 0
-1205 -563 0
-1205 -564 0
-1205 -565 0
-1205 -566 0
-1205 -567 0
-1205 -568 0
-1206 594 0
-1206 612 0
-1206 613 0
-1206 -463 -464 0
-1206 -505 0
-1206 -506 0
-1206 -507 0
-1206 -508 0
-1206 -549 0
-1206 -550 0
-1206 -551 0
-1206 -552 0
-1206 -565 0
-1206 -566 0
-1206 -567 0
-1206 -568 0
-1207 595 0
-1207 617 0
-1207 -450 0
-1207 -451 0
-1207 -452 0
-1207 -453 0
-1207 -457 0
-1207 -454 623 0
-1207 -454 -468 -474 0
-1207 -454 -486 0
-1207 -454 -487 0
-1207 -454 -488 0
-1207 -454 -490 0
-1207 -454 -491 0
-1207 -454 -492 0
-1207 -454 -510 0
-1207 -454 -511 0
-1207 -454 -512 0
-1207 -454 -514 0
-1207 -454 -515 0
-1207 -454 -516 0
-1207 -454 -554 0
-1207 -454 -555 0
-1207 -454 -556 0
-1207 -454 -558 0
-1207 -454 -559 0
-1207 -454 -560 0
-1207 -455 624 0
-1207 -455 -468 -475 0
-1207 -455 -487 0
-1207 -455 -488 0
-1207 -455 -491 0
-1207 -455 -492 0
-1207 -455 -511 0
-1207 -455 -512 0
-1207 -455 -515 0
-1207 -455 -516 0
-1207 -455 -555 0
-1207 -455 -556 0
-1207 -455 -559 0
-1207 -455 -560 0
-1207 -456 625 0
-1207 -456 -468 -476 0
-1207 -456 -488 0
-1207 -456 -492 0
-1207 -456 -512 0
-1207 -456 -516 0
-1207 -456 -556 0
-1207 -456 -560 0
-1208 595 0
-1208 618 0
-1208 -448 0
-1208 -451 0
-1208 -452 0
-1208 -453 0
-1208 -457 0
-1208 -454 623 0
-1208 -454 -469 -474 0
-1208 -454 -490 0
-1208 -454 -491 0
-1208 -454 -492 0
-1208 -454 -494 0
-1208 -454 -495 0
-1208 -454 -496 0
-1208 -454 -514 0
-1208 -454 -515 0
-1208 -454 -516 0
-1208 -454 -518 0
-1208 -454 -519 0
-1208 -454 -520 0
-1208 -454 -554 0
-1208 -454 -555 0
-1208 -454 -556 0
-1208 -454 -558 0
-1208 -454 -559 0
-1208 -454 -560 0
-1208 -454 -562 0
-1208 -454 -563 0
-1208 -454 -564 0
-1208 -455 624 0
-1208 -455 -469 -475 0
-1208 -455 -491 0
-1208 -455 -492 0
-1208 -455 -495 0
-1208 -455 -496 0
-1208 -455 -515 0
-1208 -455 -516 0
-1208 -455 -519 0
-1208 -455 -520 0
-1208 -455 -555 0
-1208 -455 -556 0
-1208 -455 -559 0
-1208 -455 -560 0
-1208 -455 -563 0
-1208 -455 -564 0
-1208 -456 625 0
-1208 -456 -469 -476 0
-1208 -456 -492 0
-1208 -456 -496 0
-1208 -456 -516 0
-1208 -456 -520 0
-1208 -456 -556 0
-1208 -456 -560 0
-1208 -456 -564 0
-1209 595 0
-1209 619 0
-1209 -448 0
-1209 -449 0
-1209 -452 0
-1209 -453 0
-1209 -457 0
-1209 -454 623 0
-1209 -454 -470 -474 0
-1209 -454 -494 0
-1209 -454 -495 0
-1209 -454 -496 0
-1209 -454 -498 0
-1209 -454 -499 0
-1209 -454 -500 0
-1209 -454 -518 0
-1209 -454 -519 0
-1209 -454 -520 0
-1209 -454 -522 0
-1209 -454 -523 0
-1209 -454 -524 0
-1209 -454 -554 0
-1209 -454 -555 0
-1209 -454 -556 0
-1209 -454 -558 0
-1209 -454 -559 0
-1209 -454 -560 0
-1209 -454 -562 0
-1209 -454 -563 0
-1209 -454 -564 0
-1209 -454 -566 0
-1209 -454 -567 0
-1209 -454 -568 0
-1209 -455 624 0
-1209 -455 -470 -475 0
-1209 -455 -495 0
-1209 -455 -496 0
-1209 -455 -499 0
-1209 -455 -500 0
-1209 -455 -519 0
-1209 -455 -520 0
-1209 -455 -523 0
-1209 -455 -524 0
-1209 -455 -555 0
-1209 -455 -556 0
-1209 -455 -559 0
-1209 -455 -560 0
-1209 -455 -563 0
-1209 -455 -564 0
-1209 -455 -567 0
-1209 -455 -568 0
-1209 -456 625 0
-1209 -456 -470 -476 0
-1209 -456 -496 0
-1209 -456 -500 0
-1209 -456 -520 0
-1209 -456 -524 0
-1209 -456 -556 0
-1209 -456 -560 0
-1209 -456 -564 0
-1209 -456 -568 0
-1210 595 0
-1210 620 0
-1210 -448 0
-1210 -449 0
-1210 -450 0
-1210 -453 0
-1210 -457 0
-1210 -454 623 0
-1210 -454 -471 -474 0
-1210 -454 -498 0
-1210 -454 -499 0
-1210 -454 -500 0
-1210 -454 -502 0
-1210 -454 -503 0
-1210 -454 -504 0
-1210 -454 -522 0
-1210 -454 -523 0
-1210 -454 -524 0
-1210 -454 -526 0
-1210 -454 -527 0
-1210 -454 -528 0
-1210 -454 -558 0
-1210 -454 -559 0
-1210 -454 -560 0
-1210 -454 -562 0
-1210 -454 -563 0
-1210 -454 -564 0
-1210 -454 -566 0
-1210 -454 -567 0
-1210 -454 -568 0
-1210 -455 624 0
-1210 -455 -471 -475 0
-1210 -455 -499 0
-1210 -455 -500 0
-1210 -455 -503 0
-1210 -455 -504 0
-1210 -455 -523 0
-1210 -455 -524 0
-1210 -455 -527 0
-1210 -455 -528 0
-1210 -455 -559 0
-1210 -455 -560 0
-1210 -455 -563 0
-1210 -455 -564 0
-1210 -455 -567 0
-1210 -455 -568 0
-1210 -456 625 0
-1210 -456 -471 -476 0
-1210 -456 -500 0
-1210 -456 -504 0
-1210 -456 -524 0
-1210 -456 -528 0
-1210 -456 -560 0
-1210 -456 -564 0
-1210 -456 -568 0
-1211 595 0
-1211 621 0
-1211 -448 0
-1211 -449 0
-1211 -450 0
-1211 -451 0
-1211 -457 0
-1211 -454 623 0
-1211 -454 -472 -474 0
-1211 -454 -502 0
-1211 -454 -503 0
-1211 -454 -504 0
-1211 -454 -506 0
-1211 -454 -507 0
-1211 -454 -508 0
-1211 -454 -526 0
-1211 -454 -527 0
-1211 -454 -528 0
-1211 -454 -530 0
-1211 -454 -531 0
-1211 -454 -532 0
-1211 -454 -562 0
-1211 -454 -563 0
-1211 -454 -564 0
-1211 -454 -566 0
-1211 -454 -567 0
-1211 -454 -568 0
-1211 -455 624 0
-1211 -455 -472 -475 0
-1211 -455 -503 0
-1211 -455 -504 0
-1211 -455 -507 0
-1211 -455 -508 0
-1211 -455 -527 0
-1211 -455 -528 0
-1211 -455 -531 0
-1211 -455 -532 0
-1211 -455 -563 0
-1211 -455 -564 0
-1211 -455 -567 0
-1211 -455 -568 0
-1211 -456 625 0
-1211 -456 -472 -476 0
-1211 -456 -504 0
-1211 -456 -508 0
-1211 -456 -528 0
-1211 -456 -532 0
-1211 -456 -564 0
-1211 -456 -568 0
-1212 595 0
-1212 617 0
-1212 -460 0
-1212 -461 0
-1212 -462 0
-1212 -463 0
-1212 -467 0
-1212 -464 623 0
-1212 -464 -468 -474 0
-1212 -464 -486 0
-1212 -464 -487 0
-1212 -464 -488 0
-1212 -464 -490 0
-1212 -464 -491 0
-1212 -464 -492 0
-1212 -464 -510 0
-1212 -464 -511 0
-1212 -464 -512 0
-1212 -464 -514 0
-1212 -464 -515 0
-1212 -464 -516 0
-1212 -464 -554 0
-1212 -464 -555 0
-1212 -464 -556 0
-1212 -464 -558 0
-1212 -464 -559 0
-1212 -464 -560 0
-1212 -465 624 0
-1212 -465 -468 -475 0
-1212 -465 -487 0
-1212 -465 -488 0
-1212 -465 -491 0
-1212 -465 -492 0
-1212 -465 -511 0
-1212 -465 -512 0
-1212 -465 -515 0
-1212 -465 -516 0
-1212 -465 -555 0
-1212 -465 -556 0
-1212 -465 -559 0
-1212 -465 -560 0
-1212 -466 625 0
-1212 -466 -468 -476 0
-1212 -466 -488 0
-1212 -466 -492 0
-1212 -466 -512 0
-1212 -466 -516 0
-1212 -466 -556 0
-1212 -466 -560 0
-1213 595 0
-1213 618 0
-1213 -458 0
-1213 -461 0
-1213 -462 0
-1213 -463 0
-1213 -467 0
-1213 -464 623 0
-1213 -464 -469 -474 0
-1213 -464 -490 0
-1213 -464 -491 0
-1213 -464 -492 0
-1213 -464 -494 0
-1213 -464 -495 0
-1213 -464 -496 0
-1213 -464 -514 0
-1213 -464 -515 0
-1213 -464 -516 0
-1213 -464 -518 0
-1213 -464 -519 0
-1213 -464 -520 0
-1213 -464 -554 0
-1213 -464 -555 0
-1213 -464 -556 0
-1213 -464 -558 0
-1213 -464 -559 0
-1213 -464 -560 0
-1213 -464 -562 0
-1213 -464 -563 0
-1213 -464 -564 0
-1213 -465 624 0
-1213 -465 -469 -475 0
-1213 -465 -491 0
-1213 -465 -492 0
-1213 -465 -495 0
-1213 -465 -496 0
-1213 -465 -515 0
-1213 -465 -516 0
-1213 -465 -519 0
-1213 -465 -520 0
-1213 -465 -555 0
-1213 -465 -556 0
-1213 -465 -559 0
-1213 -465 -560 0
-1213 -465 -563 0
-1213 -465 -564 0
-1213 -466 625 0
-1213 -466 -469 -476 0
-1213 -466 -492 0
-1213 -466 -496 0
-1213 -466 -516 0
-1213 -466 -520 0
-1213 -466 -556 0
-1213 -466 -560 0
-1213 -466 -564 0
-1214 595 0
-1214 619 0
-1214 -458 0
-1214 -459 0
-1214 -462 0
-1214 -463 0
-1214 -467 0
-1214 -464 623 0
-1214 -464 -470 -474 0
-1214 -464 -494 0
-1214 -464 -495 0
-1214 -464 -496 0
-1214 -464 -498 0
-1214 -464 -499 0
-1214 -464 -500 0
-1214 -464 -518 0
-1214 -464 -519 0
-1214 -464 -520 0
-1214 -464 -522 0
-1214 -464 -523 0
-1214 -464 -524 0
-1214 -464 -554 0
-1214 -464 -555 0
-1214 -464 -556 0
-1214 -464 -558 0
-1214 -464 -559 0
-1214 -464 -560 0
-1214 -464 -562 0
-1214 -464 -563 0
-1214 -464 -564 0
-1214 -464 -566 0
-1214 -464 -567 0
-1214 -464 -568 0
-1214 -465 624 0
-1214 -465 -470 -475 0
-1214 -465 -495 0
-1214 -465 -496 0
-1214 -465 -499 0
-1214 -465 -500 0
-1214 -465 -519 0
-1214 -465 -520 0
-1214 -465 -523 0
-1214 -465 -524 0
-1214 -465 -555 0
-1214 -465 -556 0
-1214 -465 -559 0
-1214 -465 -560 0
-1214 -465 -563 0
-1214 -465 -564 0
-1214 -465 -567 0
-1214 -465 -568 0
-1214 -466 625 0
-1214 -466 -470 -476 0
-1214 -466 -496 0
-1214 -466 -500 0
-1214 -466 -520 0
-1214 -466 -524 0
-1214 -466 -556 0
-1214 -466 -560 0
-1214 -466 -564 0
-1214 -466 -568 0
-1215 595 0
-1215 620 0
-1215 -458 0
-1215 -459 0
-1215 -460 0
-1215 -463 0
-1215 -467 0
-1215 -464 623 0
-1215 -464 -471 -474 0
-1215 -464 -498 0
-1215 -464 -499 0
-1215 -464 -500 0
-1215 -464 -502 0
-1215 -464 -503 0
-1215 -464 -504 0
-1215 -464 -522 0
-1215 -464 -523 0
-1215 -464 -524 0
-1215 -464 -526 0
-1215 -464 -527 0
-1215 -464 -528 0
-1215 -464 -558 0
-1215 -464 -559 0
-1215 -464 -560 0
-1215 -464 -562 0
-1215 -464 -563 0
-1215 -464 -564 0
-1215 -464 -566 0
-1215 -464 -567 0
-1215 -464 -568 0
-1215 -465 624 0
-1215 -465 -471 -475 0
-1215 -465 -499 0
-1215 -465 -500 0
-1215 -465 -503 0
-1215 -465 -504 0
-1215 -465 -523 0
-1215 -465 -524 0
-1215 -465 -527 0
-1215 -465 -528 0
-1215 -465 -559 0
-1215 -465 -560 0
-1215 -465 -563 0
-1215 -465 -564 0
-1215 -465 -567 0
-1215 -465 -568 0
-1215 -466 625 0
-1215 -466 -471 -476 0
-1215 -466 -500 0
-1215 -466 -504 0
-1215 -466 -524 0
-1215 -466 -528 0
-1215 -466 -560 0
-1215 -466 -564 0
-1215 -466 -568 0
-1216 595 0
-1216 621 0
-1216 -458 0
-1216 -459 0
-1216 -460 0
-1216 -461 0
-1216 -467 0
-1216 -464 623 0
-1216 -464 -472 -474 0
-1216 -464 -502 0
-1216 -464 -503 0
-1216 -464 -504 0
-1216 -464 -506 0
-1216 -464 -507 0
-1216 -464 -508 0
-1216 -464 -526 0
-1216 -464 -527 0
-1216 -464 -528 0
-1216 -464 -530 0
-1216 -464 -531 0
-1216 -464 -532 0
-1216 -464 -562 0
-1216 -464 -563 0
-1216 -464 -564 0
-1216 -464 -566 0
-1216 -464 -567 0
-1216 -464 -568 0
-1216 -465 624 0
-1216 -465 -472 -475 0
-1216 -465 -503 0
-1216 -465 -504 0
-1216 -465 -507 0
-1216 -465 -508 0
-1216 -465 -527 0
-1216 -465 -528 0
-1216 -465 -531 0
-1216 -465 -532 0
-1216 -465 -563 0
-1216 -465 -564 0
-1216 -465 -567 0
-1216 -465 -568 0
-1216 -466 625 0
-1216 -466 -472 -476 0
-1216 -466 -504 0
-1216 -466 -508 0
-1216 -466 -528 0
-1216 -466 -532 0
-1216 -466 -564 0
-1216 -466 -568 0
-1217 595 0
-1217 617 0
-1217 -479 0
-1217 -480 0
-1217 -484 0
-1217 -481 623 0
-1217 -481 -468 -474 0
-1217 -481 -486 0
-1217 -481 -487 0
-1217 -481 -488 0
-1217 -481 -490 0
-1217 -481 -491 0
-1217 -481 -492 0
-1217 -481 -510 0
-1217 -481 -511 0
-1217 -481 -512 0
-1217 -481 -514 0
-1217 -481 -515 0
-1217 -481 -516 0
-1217 -481 -554 0
-1217 -481 -555 0
-1217 -481 -556 0
-1217 -481 -558 0
-1217 -481 -559 0
-1217 -481 -560 0
-1217 -482 624 0
-1217 -482 -468 -475 0
-1217 -482 -487 0
-1217 -482 -488 0
-1217 -482 -491 0
-1217 -482 -492 0
-1217 -482 -511 0
-1217 -482 -512 0
-1217 -482 -515 0
-1217 -482 -516 0
-1217 -482 -555 0
-1217 -482 -556 0
-1217 -482 -559 0
-1217 -482 -560 0
-1217 -483 625 0
-1217 -483 -468 -476 0
-1217 -483 -488 0
-1217 -483 -492 0
-1217 -483 -512 0
-1217 -483 -516 0
-1217 -483 -556 0
-1217 -483 -560 0
-1218 595 0
-1218 618 0
-1218 -480 0
-1218 -484 0
-1218 -481 623 0
-1218 -481 -469 -474 0
-1218 -481 -490 0
-1218 -481 -491 0
-1218 -481 -492 0
-1218 -481 -494 0
-1218 -481 -495 0
-1218 -481 -496 0
-1218 -481 -514 0
-1218 -481 -515 0
-1218 -481 -516 0
-1218 -481 -518 0
-1218 -481 -519 0
-1218 -481 -520 0
-1218 -481 -554 0
-1218 -481 -555 0
-1218 -481 -556 0
-1218 -481 -558 0
-1218 -481 -559 0
-1218 -481 -560 0
-1218 -481 -562 0
-1218 -481 -563 0
-1218 -481 -564 0
-1218 -482 624 0
-1218 -482 -469 -475 0
-1218 -482 -491 0
-1218 -482 -492 0
-1218 -482 -495 0
-1218 -482 -496 0
-1218 -482 -515 0
-1218 -482 -516 0
-1218 -482 -519 0
-1218 -482 -520 0
-1218 -482 -555 0
-1218 -482 -556 0
-1218 -482 -559 0
-1218 -482 -560 0
-1218 -482 -563 0
-1218 -482 -564 0
-1218 -483 625 0
-1218 -483 -469 -476 0
-1218 -483 -492 0
-1218 -483 -496 0
-1218 -483 -516 0
-1218 -483 -520 0
-1218 -483 -556 0
-1218 -483 -560 0
-1218 -483 -564 0
-1219 595 0
-1219 619 0
-1219 -484 0
-1219 -481 623 0
-1219 -481 -470 -474 0
-1219 -481 -494 0
-1219 -481 -495 0
-1219 -481 -496 0
-1219 -481 -498 0
-1219 -481 -499 0
-1219 -481 -500 0
-1219 -481 -518 0
-1219 -481 -519 0
-1219 -481 -520 0
-1219 -481 -522 0
-1219 -481 -523 0
-1219 -481 -524 0
-1219 -481 -554 0
-1219 -481 -555 0
-1219 -481 -556 0
-1219 -481 -558 0
-1219 -481 -559 0
-1219 -481 -560 0
-1219 -481 -562 0
-1219 -481 -563 0
-1219 -481 -564 0
-1219 -481 -566 0
-1219 -481 -567 0
-1219 -481 -568 0
-1219 -482 624 0
-1219 -482 -470 -475 0
-1219 -482 -495 0
-1219 -482 -496 0
-1219 -482 -499 0
-1219 -482 -500 0
-1219 -482 -519 0
-1219 -482 -520 0
-1219 -482 -523 0
-1219 -482 -524 0
-1219 -482 -555 0
-1219 -482 -556 0
-1219 -482 -559 0
-1219 -482 -560 0
-1219 -482 -563 0
-1219 -482 -564 0
-1219 -482 -567 0
-1219 -482 -568 0
-1219 -483 625 0
-1219 -483 -470 -476 0
-1219 -483 -496 0
-1219 -483 -500 0
-1219 -483 -520 0
-1219 -483 -524 0
-1219 -483 -556 0
-1219 -483 -560 0
-1219 -483 -564 0
-1219 -483 -568 0
-1220 595 0
-1220 620 0
-1220 -477 0
-1220 -484 0
-1220 -481 623 0
-1220 -481 -471 -474 0
-1220 -481 -498 0
-1220 -481 -499 0
-1220 -481 -500 0
-1220 -481 -502 0
-1220 -481 -503 0
-1220 -481 -504 0
-1220 -481 -522 0
-1220 -481 -523 0
-1220 -481 -524 0
-1220 -481 -526 0
-1220 -481 -527 0
-1220 -481 -528 0
-1220 -481 -558 0
-1220 -481 -559 0
-1220 -481 -560 0
-1220 -481 -562 0
-1220 -481 -563 0
-1220 -481 -564 0
-1220 -481 -566 0
-1220 -481 -567 0
-1220 -481 -568 0
-1220 -482 624 0
-1220 -482 -471 -475 0
-1220 -482 -499 0
-1220 -482 -500 0
-1220 -482 -503 0
-1220 -482 -504 0
-1220 -482 -523 0
-1220 -482 -524 0
-1220 -482 -527 0
-1220 -482 -528 0
-1220 -482 -559 0
-1220 -482 -560 0
-1220 -482 -563 0
-1220 -482 -564 0
-1220 -482 -567 0
-1220 -482 -568 0
-1220 -483 625 0
-1220 -483 -471 -476 0
-1220 -483 -500 0
-1220 -483 -504 0
-1220 -483 -524 0
-1220 -483 -528 0
-1220 -483 -560 0
-1220 -483 -564 0
-1220 -483 -568 0
-1221 595 0
-1221 621 0
-1221 -477 0
-1221 -478 0
-1221 -484 0
-1221 -481 623 0
-1221 -481 -472 -474 0
-1221 -481 -502 0
-1221 -481 -503 0
-1221 -481 -504 0
-1221 -481 -506 0
-1221 -481 -507 0
-1221 -481 -508 0
-1221 -481 -526 0
-1221 -481 -527 0
-1221 -481 -528 0
-1221 -481 -530 0
-1221 -481 -531 0
-1221 -481 -532 0
-1221 -481 -562 0
-1221 -481 -563 0
-1221 -481 -564 0
-1221 -481 -566 0
-1221 -481 -567 0
-1221 -481 -568 0
-1221 -482 624 0
-1221 -482 -472 -475 0
-1221 -482 -503 0
-1221 -482 -504 0
-1221 -482 -507 0
-1221 -482 -508 0
-1221 -482 -527 0
-1221 -482 -528 0
-1221 -482 -531 0
-1221 -482 -532 0
-1221 -482 -563 0
-1221 -482 -564 0
-1221 -482 -567 0
-1221 -482 -568 0
-1221 -483 625 0
-1221 -483 -472 -476 0
-1221 -483 -504 0
-1221 -483 -508 0
-1221 -483 -528 0
-1221 -483 -532 0
-1221 -483 -564 0
-1221 -483 -568 0
-1222 595 0
-1222 617 0
-1222 622 0
-1222 -468 -473 0
-1222 -485 0
-1222 -486 0
-1222 -487 0
-1222 -488 0
-1222 -489 0
-1222 -490 0
-1222 -491 0
-1222 -492 0
-1222 -509 0
-1222 -510 0
-1222 -511 0
-1222 -512 0
-1222 -513 0
-1222 -514 0
-1222 -515 0
-1222 -516 0
-1222 -553 0
-1222 -554 0
-1222 -555 0
-1222 -556 0
-1222 -557 0
-1222 -558 0
-1222 -559 0
-1222 -560 0
-1223 595 0
-1223 618 0
-1223 622 0
-1223 -469 -473 0
-1223 -489 0
-1223 -490 0
-1223 -491 0
-1223 -492 0
-1223 -493 0
-1223 -494 0
-1223 -495 0
-1223 -496 0
-1223 -513 0
-1223 -514 0
-1223 -515 0
-1223 -516 0
-1223 -517 0
-1223 -518 0
-1223 -519 0
-1223 -520 0
-1223 -553 0
-1223 -554 0
-1223 -555 0
-1223 -556 0
-1223 -557 0
-1223 -558 0
-1223 -559 0
-1223 -560 0
-1223 -561 0
-1223 -562 0
-1223 -563 0
-1223 -564 0
-1224 595 0
-1224 619 0
-1224 622 0
-1224 -470 -473 0
-1224 -493 0
-1224 -494 0
-1224 -495 0
-1224 -496 0
-1224 -497 0
-1224 -498 0
-1224 -499 0
-1224 -500 0
-1224 -517 0
-1224 -518 0
-1224 -519 0
-1224 -520 0
-1224 -521 0
-1224 -522 0
-1224 -523 0
-1224 -524 0
-1224 -553 0
-1224 -554 0
-1224 -555 0
-1224 -556 0
-1224 -557 0
-1224 -558 0
-1224 -559 0
-1224 -560 0
-1224 -561 0
-1224 -562 0
-1224 -563 0
-1224 -564 0
-1224 -565 0
-1224 -566 0
-1224 -567 0
-1224 -568 0
-1225 595 0
-1225 620 0
-1225 622 0
-1225 -471 -473 0
-1225 -497 0
-1225 -498 0
-1225 -499 0
-1225 -500 0
-1225 -501 0
-1225 -502 0
-1225 -503 0
-1225 -504 0
-1225 -521 0
-1225 -522 0
-1225 -523 0
-1225 -524 0
-1225 -525 0
-1225 -526 0
-1225 -527 0
-1225 -528 0
-1225 -557 0
-1225 -558 0
-1225 -559 0
-1225 -560 0
-1225 -561 0
-1225 -562 0
-1225 -563 0
-1225 -564 0
-1225 -565 0
-1225 -566 0
-1225 -567 0
-1225 -568 0
-1226 595 0
-1226 621 0
-1226 622 0
-1226 -472 -473 0
-1226 -501 0
-1226 -502 0
-1226 -503 0
-1226 -504 0
-1226 -505 0
-1226 -506 0
-1226 -507 0
-1226 -508 0
-1226 -525 0
-1226 -526 0
-1226 -527 0
-1226 -528 0
-1226 -529 0
-1226 -530 0
-1226 -531 0
-1226 -532 0
-1226 -561 0
-1226 -562 0
-1226 -563 0
-1226 -564 0
-1226 -565 0
-1226 -566 0
-1226 -567 0
-1226 -568 0
-1227 596 0
-1227 626 0
-1227 -451 0
-1227 -452 0
-1227 -453 0
-1227 -457 0
-1227 -454 631 0
-1227 -454 -477 -482 0
-1227 -454 -486 0
-1227 -454 -487 0
-1227 -454 -488 0
-1227 -454 -490 0
-1227 -454 -491 0
-1227 -454 -492 0
-1227 -454 -494 0
-1227 -454 -495 0
-1227 -454 -496 0
-1227 -454 -510 0
-1227 -454 -511 0
-1227 -454 -512 0
-1227 -454 -514 0
-1227 -454 -515 0
-1227 -454 -516 0
-1227 -454 -518 0
-1227 -454 -519 0
-1227 -454 -520 0
-1227 -454 -534 0
-1227 -454 -535 0
-1227 -454 -536 0
-1227 -454 -538 0
-1227 -454 -539 0
-1227 -454 -540 0
-1227 -454 -542 0
-1227 -454 -543 0
-1227 -454 -544 0
-1227 -455 632 0
-1227 -455 -477 -483 0
-1227 -455 -487 0
-1227 -455 -488 0
-1227 -455 -491 0
-1227 -455 -492 0
-1227 -455 -495 0
-1227 -455 -496 0
-1227 -455 -511 0
-1227 -455 -512 0
-1227 -455 -515 0
-1227 -455 -516 0
-1227 -455 -519 0
-1227 -455 -520 0
-1227 -455 -535 0
-1227 -455 -536 0
-1227 -455 -539 0
-1227 -455 -540 0
-1227 -455 -543 0
-1227 -455 -544 0
-1227 -456 633 0
-1227 -456 -477 -484 0
-1227 -456 -488 0
-1227 -456 -492 0
-1227 -456 -496 0
-1227 -456 -512 0
-1227 -456 -516 0
-1227 -456 -520 0
-1227 -456 -536 0
-1227 -456 -540 0
-1227 -456 -544 0
-1228 596 0
-1228 627 0
-1228 -448 0
-1228 -452 0
-1228 -453 0
-1228 -457 0
-1228 -454 631 0
-1228 -454 -478 -482 0
-1228 -454 -490 0
-1228 -454 -491 0
-1228 -454 -492 0
-1228 -454 -494 0
-1228 -454 -495 0
-1228 -454 -496 0
-1228 -454 -498 0
-1228 -454 -499 0
-1228 -454 -500 0
-1228 -454 -514 0
-1228 -454 -515 0
-1228 -454 -516 0
-1228 -454 -518 0
-1228 -454 -519 0
-1228 -454 -520 0
-1228 -454 -522 0
-1228 -454 -523 0
-1228 -454 -524 0
-1228 -454 -534 0
-1228 -454 -535 0
-1228 -454 -536 0
-1228 -454 -538 0
-1228 -454 -539 0
-1228 -454 -540 0
-1228 -454 -542 0
-1228 -454 -543 0
-1228 -454 -544 0
-1228 -454 -546 0
-1228 -454 -547 0
-1228 -454 -548 0
-1228 -455 632 0
-1228 -455 -478 -483 0
-1228 -455 -491 0
-1228 -455 -492 0
-1228 -455 -495 0
-1228 -455 -496 0
-1228 -455 -499 0
-1228 -455 -500 0
-1228 -455 -515 0
-1228 -455 -516 0
-1228 -455 -519 0
-1228 -455 -520 0
-1228 -455 -523 0
-1228 -455 -524 0
-1228 -455 -535 0
-1228 -455 -536 0
-1228 -455 -539 0
-1228 -455 -540 0
-1228 -455 -543 0
-1228 -455 -544 0
-1228 -455 -547 0
-1228 -455 -548 0
-1228 -456 633 0
-1228 -456 -478 -484 0
-1228 -456 -492 0
-1228 -456 -496 0
-1228 -456 -500 0
-1228 -456 -516 0
-1228 -456 -520 0
-1228 -456 -524 0
-1228 -456 -536 0
-1228 -456 -540 0
-1228 -456 -544 0
-1228 -456 -548 0
-1229 596 0
-1229 628 0
-1229 -448 0
-1229 -449 0
-1229 -453 0
-1229 -457 0
-1229 -454 631 0
-1229 -454 -479 -482 0
-1229 -454 -494 0
-1229 -454 -495 0
-1229 -454 -496 0
-1229 -454 -498 0
-1229 -454 -499 0
-1229 -454 -500 0
-1229 -454 -502 0
-1229 -454 -503 0
-1229 -454 -504 0
-1229 -454 -518 0
-1229 -454 -519 0
-1229 -454 -520 0
-1229 -454 -522 0
-1229 -454 -523 0
-1229 -454 -524 0
-1229 -454 -526 0
-1229 -454 -527 0
-1229 -454 -528 0
-1229 -454 -538 0
-1229 -454 -539 0
-1229 -454 -540 0
-1229 -454 -542 0
-1229 -454 -543 0
-1229 -454 -544 0
-1229 -454 -546 0
-1229 -454 -547 0
-1229 -454 -548 0
-1229 -454 -550 0
-1229 -454 -551 0
-1229 -454 -552 0
-1229 -455 632 0
-1229 -455 -479 -483 0
-1229 -455 -495 0
-1229 -455 -496 0
-1229 -455 -499 0
-1229 -455 -500 0
-1229 -455 -503 0
-1229 -455 -504 0
-1229 -455 -519 0
-1229 -455 -520 0
-1229 -455 -523 0
-1229 -455 -524 0
-1229 -455 -527 0
-1229 -455 -528 0
-1229 -455 -539 0
-1229 -455 -540 0
-1229 -455 -543 0
-1229 -455 -544 0
-1229 -455 -547 0
-1229 -455 -548 0
-1229 -455 -551 0
-1229 -455 -552 0
-1229 -456 633 0
-1229 -456 -479 -484 0
-1229 -456 -496 0
-1229 -456 -500 0
-1229 -456 -504 0
-1229 -456 -520 0
-1229 -456 -524 0
-1229 -456 -528 0
-1229 -456 -540 0
-1229 -456 -544 0
-1229 -456 -548 0
-1229 -456 -552 0
-1230 596 0
-1230 629 0
-1230 -448 0
-1230 -449 0
-1230 -450 0
-1230 -457 0
-1230 -454 631 0
-1230 -454 -480 -482 0
-1230 -454 -498 0
-1230 -454 -499 0
-1230 -454 -500 0
-1230 -454 -502 0
-1230 -454 -503 0
-1230 -454 -504 0
-1230 -454 -506 0
-1230 -454 -507 0
-1230 -454 -508 0
-1230 -454 -522 0
-1230 -454 -523 0
-1230 -454 -524 0
-1230 -454 -526 0
-1230 -454 -527 0
-1230 -454 -528 0
-1230 -454 -530 0
-1230 -454 -531 0
-1230 -454 -532 0
-1230 -454 -542 0
-1230 -454 -543 0
-1230 -454 -544 0
-1230 -454 -546 0
-1230 -454 -547 0
-1230 -454 -548 0
-1230 -454 -550 0
-1230 -454 -551 0
-1230 -454 -552 0
-1230 -455 632 0
-1230 -455 -480 -483 0
-1230 -455 -499 0
-1230 -455 -500 0
-1230 -455 -503 0
-1230 -455 -504 0
-1230 -455 -507 0
-1230 -455 -508 0
-1230 -455 -523 0
-1230 -455 -524 0
-1230 -455 -527 0
-1230 -455 -528 0
-1230 -455 -531 0
-1230 -455 -532 0
-1230 -455 -543 0
-1230 -455 -544 0
-1230 -455 -547 0
-1230 -455 -548 0
-1230 -455 -551 0
-1230 -455 -552 0
-1230 -456 633 0
-1230 -456 -480 -484 0
-1230 -456 -500 0
-1230 -456 -504 0
-1230 -456 -508 0
-1230 -456 -524 0
-1230 -456 -528 0
-1230 -456 -532 0
-1230 -456 -544 0
-1230 -456 -548 0
-1230 -456 -552 0
-1231 596 0
-1231 626 0
-1231 -461 0
-1231 -462 0
-1231 -463 0
-1231 -467 0
-1231 -464 631 0
-1231 -464 -477 -482 0
-1231 -464 -486 0
-1231 -464 -487 0
-1231 -464 -488 0
-1231 -464 -490 0
-1231 -464 -491 0
-1231 -464 -492 0
-1231 -464 -494 0
-1231 -464 -495 0
-1231 -464 -496 0
-1231 -464 -510 0
-1231 -464 -511 0
-1231 -464 -512 0
-1231 -464 -514 0
-1231 -464 -515 0
-1231 -464 -516 0
-1231 -464 -518 0
-1231 -464 -519 0
-1231 -464 -520 0
-1231 -464 -534 0
-1231 -464 -535 0
-1231 -464 -536 0
-1231 -464 -538 0
-1231 -464 -539 0
-1231 -464 -540 0
-1231 -464 -542 0
-1231 -464 -543 0
-1231 -464 -544 0
-1231 -465 632 0
-1231 -465 -477 -483 0
-1231 -465 -487 0
-1231 -465 -488 0
-1231 -465 -491 0
-1231 -465 -492 0
-1231 -465 -495 0
-1231 -465 -496 0
-1231 -465 -511 0
-1231 -465 -512 0
-1231 -465 -515 0
-1231 -465 -516 0
-1231 -465 -519 0
-1231 -465 -520 0
-1231 -465 -535 0
-1231 -465 -536 0
-1231 -465 -539 0
-1231 -465 -540 0
-1231 -465 -543 0
-1231 -465 -544 0
-1231 -466 633 0
-1231 -466 -477 -484 0
-1231 -466 -488 0
-1231 -466 -492 0
-1231 -466 -496 0
-1231 -466 -512 0
-1231 -466 -516 0
-1231 -466 -520 0
-1231 -466 -536 0
-1231 -466 -540 0
-1231 -466 -544 0
-1232 596 0
-1232 627 0
-1232 -458 0
-1232 -462 0
-1232 -463 0
-1232 -467 0
-1232 -464 631 0
-1232 -464 -478 -482 0
-1232 -464 -490 0
-1232 -464 -491 0
-1232 -464 -492 0
-1232 -464 -494 0
-1232 -464 -495 0
-1232 -464 -496 0
-1232 -464 -498 0
-1232 -464 -499 0
-1232 -464 -500 0
-1232 -464 -514 0
-1232 -464 -515 0
-1232 -464 -516 0
-1232 -464 -518 0
-1232 -464 -519 0
-1232 -464 -520 0
-1232 -464 -522 0
-1232 -464 -523 0
-1232 -464 -524 0
-1232 -464 -534 0
-1232 -464 -535 0
-1232 -464 -536 0
-1232 -464 -538 0
-1232 -464 -539 0
-1232 -464 -540 0
-1232 -464 -542 0
-1232 -464 -543 0
-1232 -464 -544 0
-1232 -464 -546 0
-1232 -464 -547 0
-1232 -464 -548 0
-1232 -465 632 0
-1232 -465 -478 -483 0
-1232 -465 -491 0
-1232 -465 -492 0
-1232 -465 -495 0
-1232 -465 -496 0
-1232 -465 -499 0
-1232 -465 -500 0
-1232 -465 -515 0
-1232 -465 -516 0
-1232 -465 -519 0
-1232 -465 -520 0
-1232 -465 -523 0
-1232 -465 -524 0
-1232 -465 -535 0
-1232 -465 -536 0
-1232 -465 -539 0
-1232 -465 -540 0
-1232 -465 -543 0
-1232 -465 -544 0
-1232 -465 -547 0
-1232 -465 -548 0
-1232 -466 633 0
-1232 -466 -478 -484 0
-1232 -466 -492 0
-1232 -466 -496 0
-1232 -466 -500 0
-1232 -466 -516 0
-1232 -466 -520 0
-1232 -466 -524 0
-1232 -466 -536 0
-1232 -466 -540 0
-1232 -466 -544 0
-1232 -466 -548 0
-1233 596 0
-1233 628 0
-1233 -458 0
-1233 -459 0
-1233 -463 0
-1233 -467 0
-1233 -464 631 0
-1233 -464 -479 -482 0
-1233 -464 -494 0
-1233 -464 -495 0
-1233 -464 -496 0
-1233 -464 -498 0
-1233 -464 -499 0
-1233 -464 -500 0
-1233 -464 -502 0
-1233 -464 -503 0
-1233 -464 -504 0
-1233 -464 -518 0
-1233 -464 -519 0
-1233 -464 -520 0
-1233 -464 -522 0
-1233 -464 -523 0
-1233 -464 -524 0
-1233 -464 -526 0
-1233 -464 -527 0
-1233 -464 -528 0
-1233 -464 -538 0
-1233 -464 -539 0
-1233 -464 -540 0
-1233 -464 -542 0
-1233 -464 -543 0
-1233 -464 -544 0
-1233 -464 -546 0
-1233 -464 -547 0
-1233 -464 -548 0
-1233 -464 -550 0
-1233 -464 -551 0
-1233 -464 -552 0
-1233 -465 632 0
-1233 -465 -479 -483 0
-1233 -465 -495 0
-1233 -465 -496 0
-1233 -465 -499 0
-1233 -465 -500 0
-1233 -465 -503 0
-1233 -465 -504 0
-1233 -465 -519 0
-1233 -465 -520 0
-1233 -465 -523 0
-1233 -465 -524 0
-1233 -465 -527 0
-1233 -465 -528 0
-1233 -465 -539 0
-1233 -465 -540 0
-1233 -465 -543 0
-1233 -465 -544 0
-1233 -465 -547 0
-1233 -465 -548 0
-1233 -465 -551 0
-1233 -465 -552 0
-1233 -466 633 0
-1233 -466 -479 -484 0
-1233 -466 -496 0
-1233 -466 -500 0
-1233 -466 -504 0
-1233 -466 -520 0
-1233 -466 -524 0
-1233 -466 -528 0
-1233 -466 -540 0
-1233 -466 -544 0
-1233 -466 -548 0
-1233 -466 -552 0
-1234 596 0
-1234 629 0
-1234 -458 0
-1234 -459 0
-1234 -460 0
-1234 -467 0
-1234 -464 631 0
-1234 -464 -480 -482 0
-1234 -464 -498 0
-1234 -464 -499 0
-1234 -464 -500 0
-1234 -464 -502 0
-1234 -464 -503 0
-1234 -464 -504 0
-1234 -464 -506 0
-1234 -464 -507 0
-1234 -464 -508 0
-1234 -464 -522 0
-1234 -464 -523 0
-1234 -464 -524 0
-1234 -464 -526 0
-1234 -464 -527 0
-1234 -464 -528 0
-1234 -464 -530 0
-1234 -464 -531 0
-1234 -464 -532 0
-1234 -464 -542 0
-1234 -464 -543 0
-1234 -464 -544 0
-1234 -464 -546 0
-1234 -464 -547 0
-1234 -464 -548 0
-1234 -464 -550 0
-1234 -464 -551 0
-1234 -464 -552 0
-1234 -465 632 0
-1234 -465 -480 -483 0
-1234 -465 -499 0
-1234 -465 -500 0
-1234 -465 -503 0
-1234 -465 -504 0
-1234 -465 -507 0
-1234 -465 -508 0
-1234 -465 -523 0
-1234 -465 -524 0
-1234 -465 -527 0
-1234 -465 -528 0
-1234 -465 -531 0
-1234 -465 -532 0
-1234 -465 -543 0
-1234 -465 -544 0
-1234 -465 -547 0
-1234 -465 -548 0
-1234 -465 -551 0
-1234 -465 -552 0
-1234 -466 633 0
-1234 -466 -480 -484 0
-1234 -466 -500 0
-1234 -466 -504 0
-1234 -466 -508 0
-1234 -466 -524 0
-1234 -466 -528 0
-1234 -466 -532 0
-1234 -466 -544 0
-1234 -466 -548 0
-1234 -466 -552 0
-1235 596 0
-1235 626 0
-1235 -471 0
-1235 -472 0
-1235 -476 0
-1235 -473 631 0
-1235 -473 -477 -482 0
-1235 -473 -486 0
-1235 -473 -487 0
-1235 -473 -488 0
-1235 -473 -490 0
-1235 -473 -491 0
-1235 -473 -492 0
-1235 -473 -494 0
-1235 -473 -495 0
-1235 -473 -496 0
-1235 -473 -510 0
-1235 -473 -511 0
-1235 -473 -512 0
-1235 -473 -514 0
-1235 -473 -515 0
-1235 -473 -516 0
-1235 -473 -518 0
-1235 -473 -519 0
-1235 -473 -520 0
-1235 -473 -534 0
-1235 -473 -535 0
-1235 -473 -536 0
-1235 -473 -538 0
-1235 -473 -539 0
-1235 -473 -540 0
-1235 -473 -542 0
-1235 -473 -543 0
-1235 -473 -544 0
-1235 -474 632 0
-1235 -474 -477 -483 0
-1235 -474 -487 0
-1235 -474 -488 0
-1235 -474 -491 0
-1235 -474 -492 0
-1235 -474 -495 0
-1235 -474 -496 0
-1235 -474 -511 0
-1235 -474 -512 0
-1235 -474 -515 0
-1235 -474 -516 0
-1235 -474 -519 0
-1235 -474 -520 0
-1235 -474 -535 0
-1235 -474 -536 0
-1235 -474 -539 0
-1235 -474 -540 0
-1235 -474 -543 0
-1235 -474 -544 0
-1235 -475 633 0
-1235 -475 -477 -484 0
-1235 -475 -488 0
-1235 -475 -492 0
-1235 -475 -496 0
-1235 -475 -512 0
-1235 -475 -516 0
-1235 -475 -520 0
-1235 -475 -536 0
-1235 -475 -540 0
-1235 -475 -544 0
-1236 596 0
-1236 627 0
-1236 -472 0
-1236 -476 0
-1236 -473 631 0
-1236 -473 -478 -482 0
-1236 -473 -490 0
-1236 -473 -491 0
-1236 -473 -492 0
-1236 -473 -494 0
-1236 -473 -495 0
-1236 -473 -496 0
-1236 -473 -498 0
-1236 -473 -499 0
-1236 -473 -500 0
-1236 -473 -514 0
-1236 -473 -515 0
-1236 -473 -516 0
-1236 -473 -518 0
-1236 -473 -519 0
-1236 -473 -520 0
-1236 -473 -522 0
-1236 -473 -523 0
-1236 -473 -524 0
-1236 -473 -534 0
-1236 -473 -535 0
-1236 -473 -536 0
-1236 -473 -538 0
-1236 -473 -539 0
-1236 -473 -540 0
-1236 -473 -542 0
-1236 -473 -543 0
-1236 -473 -544 0
-1236 -473 -546 0
-1236 -473 -547 0
-1236 -473 -548 0
-1236 -474 632 0
-1236 -474 -478 -483 0
-1236 -474 -491 0
-1236 -474 -492 0
-1236 -474 -495 0
-1236 -474 -496 0
-1236 -474 -499 0
-1236 -474 -500 0
-1236 -474 -515 0
-1236 -474 -516 0
-1236 -474 -519 0
-1236 -474 -520 0
-1236 -474 -523 0
-1236 -474 -524 0
-1236 -474 -535 0
-1236 -474 -536 0
-1236 -474 -539 0
-1236 -474 -540 0
-1236 -474 -543 0
-1236 -474 -544 0
-1236 -474 -547 0
-1236 -474 -548 0
-1236 -475 633 0
-1236 -475 -478 -484 0
-1236 -475 -492 0
-1236 -475 -496 0
-1236 -475 -500 0
-1236 -475 -516 0
-1236 -475 -520 0
-1236 -475 -524 0
-1236 -475 -536 0
-1236 -475 -540 0
-1236 -475 -544 0
-1236 -475 -548 0
-1237 596 0
-1237 628 0
-1237 -468 0
-1237 -476 0
-1237 -473 631 0
-1237 -473 -479 -482 0
-1237 -473 -494 0
-1237 -473 -495 0
-1237 -473 -496 0
-1237 -473 -498 0
-1237 -473 -499 0
-1237 -473 -500 0
-1237 -473 -502 0
-1237 -473 -503 0
-1237 -473 -504 0
-1237 -473 -518 0
-1237 -473 -519 0
-1237 -473 -520 0
-1237 -473 -522 0
-1237 -473 -523 0
-1237 -473 -524 0
-1237 -473 -526 0
-1237 -473 -527 0
-1237 -473 -528 0
-1237 -473 -538 0
-1237 -473 -539 0
-1237 -473 -540 0
-1237 -473 -542 0
-1237 -473 -543 0
-1237 -473 -544 0
-1237 -473 -546 0
-1237 -473 -547 0
-1237 -473 -548 0
-1237 -473 -550 0
-1237 -473 -551 0
-1237 -473 -552 0
-1237 -474 632 0
-1237 -474 -479 -483 0
-1237 -474 -495 0
-1237 -474 -496 0
-1237 -474 -499 0
-1237 -474 -500 0
-1237 -474 -503 0
-1237 -474 -504 0
-1237 -474 -519 0
-1237 -474 -520 0
-1237 -474 -523 0
-1237 -474 -524 0
-1237 -474 -527 0
-1237 -474 -528 0
-1237 -474 -539 0
-1237 -474 -540 0
-1237 -474 -543 0
-1237 -474 -544 0
-1237 -474 -547 0
-1237 -474 -548 0
-1237 -474 -551 0
-1237 -474 -552 0
-1237 -475 633 0
-1237 -475 -479 -484 0
-1237 -475 -496 0
-1237 -475 -500 0
-1237 -475 -504 0
-1237 -475 -520 0
-1237 -475 -524 0
-1237 -475 -528 0
-1237 -475 -540 0
-1237 -475 -544 0
-1237 -475 -548 0
-1237 -475 -552 0
-1238 596 0
-1238 629 0
-1238 -468 0
-1238 -469 0
-1238 -476 0
-1238 -473 631 0
-1238 -473 -480 -482 0
-1238 -473 -498 0
-1238 -473 -499 0
-1238 -473 -500 0
-1238 -473 -502 0
-1238 -473 -503 0
-1238 -473 -504 0
-1238 -473 -506 0
-1238 -473 -507 0
-1238 -473 -508 0
-1238 -473 -522 0
-1238 -473 -523 0
-1238 -473 -524 0
-1238 -473 -526 0
-1238 -473 -527 0
-1238 -473 -528 0
-1238 -473 -530 0
-1238 -473 -531 0
-1238 -473 -532 0
-1238 -473 -542 0
-1238 -473 -543 0
-1238 -473 -544 0
-1238 -473 -546 0
-1238 -473 -547 0
-1238 -473 -548 0
-1238 -473 -550 0
-1238 -473 -551 0
-1238 -473 -552 0
-1238 -474 632 0
-1238 -474 -480 -483 0
-1238 -474 -499 0
-1238 -474 -500 0
-1238 -474 -503 0
-1238 -474 -504 0
-1238 -474 -507 0
-1238 -474 -508 0
-1238 -474 -523 0
-1238 -474 -524 0
-1238 -474 -527 0
-1238 -474 -528 0
-1238 -474 -531 0
-1238 -474 -532 0
-1238 -474 -543 0
-1238 -474 -544 0
-1238 -474 -547 0
-1238 -474 -548 0
-1238 -474 -551 0
-1238 -474 -552 0
-1238 -475 633 0
-1238 -475 -480 -484 0
-1238 -475 -500 0
-1238 -475 -504 0
-1238 -475 -508 0
-1238 -475 -524 0
-1238 -475 -528 0
-1238 -475 -532 0
-1238 -475 -544 0
-1238 -475 -548 0
-1238 -475 -552 0
-1239 596 0
-1239 626 0
-1239 630 0
-1239 -477 -481 0
-1239 -485 0
-1239 -486 0
-1239 -487 0
-1239 -488 0
-1239 -489 0
-1239 -490 0
-1239 -491 0
-1239 -492 0
-1239 -493 0
-1239 -494 0
-1239 -495 0
-1239 -496 0
-1239 -509 0
-1239 -510 0
-1239 -511 0
-1239 -512 0
-1239 -513 0
-1239 -514 0
-1239 -515 0
-1239 -516 0
-1239 -517 0
-1239 -518 0
-1239 -519 0
-1239 -520 0
-1239 -533 0
-1239 -534 0
-1239 -535 0
-1239 -536 0
-1239 -537 0
-1239 -538 0
-1239 -539 0
-1239 -540 0
-1239 -541 0
-1239 -542 0
-1239 -543 0
-1239 -544 0
-1240 596 0
-1240 627 0
-1240 630 0
-1240 -478 -481 0
-1240 -489 0
-1240 -490 0
-1240 -491 0
-1240 -492 0
-1240 -493 0
-1240 -494 0
-1240 -495 0
-1240 -496 0
-1240 -497 0
-1240 -498 0
-1240 -499 0
-1240 -500 0
-1240 -513 0
-1240 -514 0
-1240 -515 0
-1240 -516 0
-1240 -517 0
-1240 -518 0
-1240 -519 0
-1240 -520 0
-1240 -521 0
-1240 -522 0
-1240 -523 0
-1240 -524 0
-1240 -533 0
-1240 -534 0
-1240 -535 0
-1240 -536 0
-1240 -537 0
-1240 -538 0
-1240 -539 0
-1240 -540 0
-1240 -541 0
-1240 -542 0
-1240 -543 0
-1240 -544 0
-1240 -545 0
-1240 -546 0
-1240 -547 0
-1240 -548 0
-1241 596 0
-1241 628 0
-1241 630 0
-1241 -479 -481 0
-1241 -493 0
-1241 -494 0
-1241 -495 0
-1241 -496 0
-1241 -497 0
-1241 -498 0
-1241 -499 0
-1241 -500 0
-1241 -501 0
-1241 -502 0
-1241 -503 0
-1241 -504 0
-1241 -517 0
-1241 -518 0
-1241 -519 0
-1241 -520 0
-1241 -521 0
-1241 -522 0
-1241 -523 0
-1241 -524 0
-1241 -525 0
-1241 -526 0
-1241 -527 0
-1241 -528 0
-1241 -537 0
-1241 -538 0
-1241 -539 0
-1241 -540 0
-1241 -541 0
-1241 -542 0
-1241 -543 0
-1241 -544 0
-1241 -545 0
-1241 -546 0
-1241 -547 0
-1241 -548 0
-1241 -549 0
-1241 -550 0
-1241 -551 0
-1241 -552 0
-1242 596 0
-1242 629 0
-1242 630 0
-1242 -480 -481 0
-1242 -497 0
-1242 -498 0
-1242 -499 0
-1242 -500 0
-1242 -501 0
-1242 -502 0
-1242 -503 0
-1242 -504 0
-1242 -505 0
-1242 -506 0
-1242 -507 0
-1242 -508 0
-1242 -521 0
-1242 -522 0
-1242 -523 0
-1242 -524 0
-1242 -525 0
-1242 -526 0
-1242 -527 0
-1242 -528 0
-1242 -529 0
-1242 -530 0
-1242 -531 0
-1242 -532 0
-1242 -541 0
-1242 -542 0
-1242 -543 0
-1242 -544 0
-1242 -545 0
-1242 -546 0
-1242 -547 0
-1242 -548 0
-1242 -549 0
-1242 -550 0
-1242 -551 0
-1242 -552 0
1247 1248 1249 1250 1251 1252 1253 1254 1255 1256 1257 1258 1259 1260 1261 1262 1263 1264 1265 1266 1267 1268 1269 1270 1271 1272 1273 1274 1275 1276 1277 1278 1279 1280 1281 1282 1283 1284 1285 1286 1287 1288 1289 1290 1291 1292 1293 1294 1295 1296 1297 1298 1299 1300 1301 1302 1303 1304 1305 1306 1307 1308 1309 1310 1311 1312 1313 1314 1315 1316 1317 1318 1319 1320 1321 1322 1323 1324 1325 1326 1327 1328 1329 1330 0
-1247 -1248 0
-1247 -1249 0
-1247 -1250 0
-1247 -1251 0
-1247 -1252 0
-1247 -1253 0
-1247 -1254 0
-1247 -1255 0
-1247 -1256 0
-1247 -1257 0
-1247 -1258 0
-1247 -1259 0
-1247 -1260 0
-1247 -1261 0
-1247 -1262 0
-1247 -1263 0
-1247 -1264 0
-1247 -1265 0
-1247 -1266 0
-1247 -1267 0
-1247 -1268 0
-1247 -1269 0
-1247 -1270 0
-1247 -1271 0
-1247 -1272 0
-1247 -1273 0
-1247 -1274 0
-1247 -1275 0
-1247 -1276 0
-1247 -1277 0
-1247 -1278 0
-1247 -1279 0
-1247 -1280 0
-1247 -1281 0
-1247 -1282 0
-1247 -1283 0
-1247 -1284 0
-1247 -1285 0
-1247 -1286 0
-1247 -1287 0
-1247 -1288 0
-1247 -1289 0
-1247 -1290 0
-1247 -1291 0
-1247 -1292 0
-1247 -1293 0
-1247 -1294 0
-1247 -1295 0
-1247 -1296 0
-1247 -1297 0
-1247 -1298 0
-1247 -1299 0
-1247 -1300 0
-1247 -1301 0
-1247 -1302 0
-1247 -1303 0
-1247 -1304 0
-1247 -1305 0
-1247 -1306 0
-1247 -1307 0
-1247 -1308 0
-1247 -1309 0
-1247 -1310 0
-1247 -1311 0
-1247 -1312 0
-1247 -1313 0
-1247 -1314 0
-1247 -1315 0
-1247 -1316 0
-1247 -1317 0
-1247 -1318 0
-1247 -1319 0
-1247 -1320 0
-1247 -1321 0
-1247 -1322 0
-1247 -1323 0
-1247 -1324 0
-1247 -1325 0
-1247 -1326 0
-1247 -1327 0
-1247 -1328 0
-1247 -1329 0
-1247 -1330 0
-1248 -1249 0
-1248 -1250 0
-1248 -1251 0
-1248 -1252 0
-1248 -1253 0
-1248 -1254 0
-1248 -1255 0
-1248 -1256 0
-1248 -1257 0
-1248 -1258 0
-1248 -1259 0
-1248 -1260 0
-1248 -1261 0
-1248 -1262 0
-1248 -1263 0
-1248 -1264 0
-1248 -1265 0
-1248 -1266 0
-1248 -1267 0
-1248 -1268 0
-1248 -1269 0
-1248 -1270 0
-1248 -1271 0
-1248 -1272 0
-1248 -1273 0
-1248 -1274 0
-1248 -1275 0
-1248 -1276 0
-1248 -1277 0
-1248 -1278 0
-1248 -1279 0
-1248 -1280 0
-1248 -1281 0
-1248 -1282 0
-1248 -1283 0
-1248 -1284 0
-1248 -1285 0
-1248 -1286 0
-1248 -1287 0
-1248 -1288 0
-1248 -1289 0
-1248 -1290 0
-1248 -1291 0
-1248 -1292 0
-1248 -1293 0
-1248 -1294 0
-1248 -1295 0
-1248 -1296 0
-1248 -1297 0
-1248 -1298 0
-1248 -1299 0
-1248 -1300 0
-1248 -1301 0
-1248 -1302 0
-1248 -1303 0
-1248 -1304 0
-1248 -1305 0
-1248 -1306 0
-1248 -1307 0
-1248 -1308 0
-1248 -1309 0
-1248 -1310 0
-1248 -1311 0
-1248 -1312 0
-1248 -1313 0
-1248 -1314 0
-1248 -1315 0
-1248 -1316 0
-1248 -1317 0
-1248 -1318 0
-1248 -1319 0
-1248 -1320 0
-1248 -1321 0
-1248 -1322 0
-1248 -1323 0
-1248 -1324 0
-1248 -1325 0
-1248 -1326 0
-1248 -1327 0
-1248 -1328 0
-1248 -1329 0
-1248 -1330 0
-1249 -1250 0
-1249 -1251 0
-1249 -1252 0
-1249 -1253 0
-1249 -1254 0
-1249 -1255 0
-1249 -1256 0
-1249 -1257 0
-1249 -1258 0
-1249 -1259 0
-1249 -1260 0
-1249 -1261 0
-1249 -1262 0
-1249 -1263 0
-1249 -1264 0
-1249 -1265 0
-1249 -1266 0
-1249 -1267 0
-1249 -1268 0
-1249 -1269 0
-1249 -1270 0
-1249 -1271 0
-1249 -1272 0
-1249 -1273 0
-1249 -1274 0
-1249 -1275 0
-1249 -1276 0
-1249 -1277 0
-1249 -1278 0
-1249 -1279 0
-1249 -1280 0
-1249 -1281 0
-1249 -1282 0
-1249 -1283 0
-1249 -1284 0
-1249 -1285 0
-1249 -1286 0
-1249 -1287 0
-1249 -1288 0
-1249 -1289 0
-1249 -1290 0
-1249 -1291 0
-1249 -1292 0
-1249 -1293 0
-1249 -1294 0
-1249 -1295 0
-1249 -1296 0
-1249 -1297 0
-1249 -1298 0
-1249 -1299 0
-1249 -1300 0
-1249 -1301 0
-1249 -1302 0
-1249 -1303 0
-1249 -1304 0
-1249 -1305 0
-1249 -1306 0
-1249 -1307 0
-1249 -1308 0
-1249 -1309 0
-1249 -1310 0
-1249 -1311 0
-1249 -1312 0
-1249 -1313 0
-1249 -1314 0
-1249 -1315 0
-1249 -1316 0
-1249 -1317 0
-1249 -1318 0
-1249 -1319 0
-1249 -1320 0
-1249 -1321 0
-1249 -1322 0
-1249 -1323 0
-1249 -1324 0
-1249 -1325 0
-1249 -1326 0
-1249 -1327 0
-1249 -1328 0
-1249 -1329 0
-1249 -1330 0
-1250 -1251 0
-1250 -1252 0
-1250 -1253 0
-1250 -1254 0
-1250 -1255 0
-1250 -1256 0
-1250 -1257 0
-1250 -1258 0
-1250 -1259 0
-1250 -1260 0
-1250 -1261 0
-1250 -1262 0
-1250 -1263 0
-1250 -1264 0
-1250 -1265 0
-1250 -1266 0
-1250 -1267 0
-1250 -1268 0
-1250 -1269 0
-1250 -1270 0
-1250 -1271 0
-1250 -1272 0
-1250 -1273 0
-1250 -1274 0
-1250 -1275 0
-1250 -1276 0
-1250 -1277 0
-1250 -1278 0
-1250 -1279 0
-1250 -1280 0
-1250 -1281 0
-1250 -1282 0
-1250 -1283 0
-1250 -1284 0
-1250 -1285 0
-1250 -1286 0
-1250 -1287 0
-1250 -1288 0
-1250 -1289 0
-1250 -1290 0
-1250 -1291 0
-1250 -1292 0
-1250 -1293 0
-1250 -1294 0
-1250 -1295 0
-1250 -1296 0
-1250 -1297 0
-1250 -1298 0
-1250 -1299 0
-1250 -1300 0
-1250 -1301 0
-1250 -1302 0
-1250 -1303 0
-1250 -1304 0
-1250 -1305 0
-1250 -1306 0
-1250 -1307 0
-1250 -1308 0
-1250 -1309 0
-1250 -1310 0
-1250 -1311 0
-1250 -1312 0
-1250 -1313 0
-1250 -1314 0
-1250 -1315 0
-1250 -1316 0
-1250 -1317 0
-1250 -1318 0
-1250 -1319 0
-1250 -1320 0
-1250 -1321 0
-1250 -1322 0
-1250 -1323 0
-1250 -1324 0
-1250 -1325 0
-1250 -1326 0
-1250 -1327 0
-1250 -1328 0
-1250 -1329 0
-1250 -1330 0
-1251 -1252 0
-1251 -1253 0
-1251 -1254 0
-1251 -1255 0
-1251 -1256 0
-1251 -1257 0
-1251 -1258 0
-1251 -1259 0
-1251 -1260 0
-1251 -1261 0
-1251 -1262 0
-1251 -1263 0
-1251 -1264 0
-1251 -1265 0
-1251 -1266 0
-1251 -1267 0
-1251 -1268 0
-1251 -1269 0
-1251 -1270 0
-1251 -1271 0
-1251 -1272 0
-1251 -1273 0
-1251 -1274 0
-1251 -1275 0
-1251 -1276 0
-1251 -1277 0
-1251 -1278 0
-1251 -1279 0
-1251 -1280 0
-1251 -1281 0
-1251 -1282 0
-1251 -1283 0
-1251 -1284 0
-1251 -1285 0
-1251 -1286 0
-1251 -1287 0
-1251 -1288 0
-1251 -1289 0
-1251 -1290 0
-1251 -1291 0
-1251 -1292 0
-1251 -1293 0
-1251 -1294 0
-1251 -1295 0
-1251 -1296 0
-1251 -1297 0
-1251 -1298 0
-1251 -1299 0
-1251 -1300 0
-1251 -1301 0
-1251 -1302 0
-1251 -1303 0
-1251 -1304 0
-1251 -1305 0
-1251 -1306 0
-1251 -1307 0
-1251 -1308 0
-1251 -1309 0
-1251 -1310 0
-1251 -1311 0
-1251 -1312 0
-1251 -1313 0
-1251 -1314 0
-1251 -1315 0
-1251 -1316 0
-1251 -1317 0
-1251 -1318 0
-1251 -1319 0
-1251 -1320 0
-1251 -1321 0
-1251 -1322 0
-1251 -1323 0
-1251 -1324 0
-1251 -1325 0
-1251 -1326 0
-1251 -1327 0
-1251 -1328 0
-1251 -1329 0
-1251 -1330 0
-1252 -1253 0
-1252 -1254 0
-1252 -1255 0
-1252 -1256 0
-1252 -1257 0
-1252 -1258 0
-1252 -1259 0
-1252 -1260 0
-1252 -1261 0
-1252 -1262 0
-1252 -1263 0
-1252 -1264 0
-1252 -1265 0
-1252 -1266 0
-1252 -1267 0
-1252 -1268 0
-1252 -1269 0
-1252 -1270 0
-1252 -1271 0
-1252 -1272 0
-1252 -1273 0
-1252 -1274 0
-1252 -1275 0
-1252 -1276 0
-1252 -1277 0
-1252 -1278 0
-1252 -1279 0
-1252 -1280 0
-1252 -1281 0
-1252 -1282 0
-1252 -1283 0
-1252 -1284 0
-1252 -1285 0
-1252 -1286 0
-1252 -1287 0
-1252 -1288 0
-1252 -1289 0
-1252 -1290 0
-1252 -1291 0
-1252 -1292 0
-1252 -1293 0
-1252 -1294 0
-1252 -1295 0
-1252 -1296 0
-1252 -1297 0
-1252 -1298 0
-1252 -1299 0
-1252 -1300 0
-1252 -1301 0
-1252 -1302 0
-1252 -1303 0
-1252 -1304 0
-1252 -1305 0
-1252 -1306 0
-1252 -1307 0
-1252 -1308 0
-1252 -1309 0
-1252 -1310 0
-1252 -1311 0
-1252 -1312 0
-1252 -1313 0
-1252 -1314 0
-1252 -1315 0
-1252 -1316 0
-1252 -1317 0
-1252 -1318 0
-1252 -1319 0
-1252 -1320 0
-1252 -1321 0
-1252 -1322 0
-1252 -1323 0
-1252 -1324 0
-1252 -1325 0
-1252 -1326 0
-1252 -1327 0
-1252 -1328 0
-1252 -1329 0
-1252 -1330 0
-1253 -1254 0
-1253 -1255 0
-1253 -1256 0
-1253 -1257 0
-1253 -1258 0
-1253 -1259 0
-1253 -1260 0
-1253 -1261 0
-1253 -1262 0
-1253 -1263 0
-1253 -1264 0
-1253 -1265 0
-1253 -1266 0
-1253 -1267 0
-1253 -1268 0
-1253 -1269 0
-1253 -1270 0
-1253 -1271 0
-1253 -1272 0
-1253 -1273 0
-1253 -1274 0
-1253 -1275 0
-1253 -1276 0
-1253 -1277 0
-1253 -1278 0
-1253 -1279 0
-1253 -1280 0
-1253 -1281 0
-1253 -1282 0
-1253 -1283 0
-1253 -1284 0
-1253 -1285 0
-1253 -1286 0
-1253 -1287 0
-1253 -1288 0
-1253 -1289 0
-1253 -1290 0
-1253 -1291 0
-1253 -1292 0
-1253 -1293 0
-1253 -1294 0
-1253 -1295 0
-1253 -1296 0
-1253 -1297 0
-1253 -1298 0
-1253 -1299 0
-1253 -1300 0
-1253 -1301 0
-1253 -1302 0
-1253 -1303 0
-1253 -1304 0
-1253 -1305 0
-1253 -1306 0
-1253 -1307 0
-1253 -1308 0
-1253 -1309 0
-1253 -1310 0
-1253 -1311 0
-1253 -1312 0
-1253 -1313 0
-1253 -1314 0
-1253 -1315 0
-1253 -1316 0
-1253 -1317 0
-1253 -1318 0
-1253 -1319 0
-1253 -1320 0
-1253 -1321 0
-1253 -1322 0
-1253 -1323 0
-1253 -1324 0
-1253 -1325 0
-1253 -1326 0
-1253 -1327 0
-1253 -1328 0
-1253 -1329 0
-1253 -1330 0
-1254 -1255 0
-1254 -1256 0
-1254 -1257 0
-1254 -1258 0
-1254 -1259 0
-1254 -1260 0
-1254 -1261 0
-1254 -1262 0
-1254 -1263 0
-1254 -1264 0
-1254 -1265 0
-1254 -1266 0
-1254 -1267 0
-1254 -1268 0
-1254 -1269 0
-1254 -1270 0
-1254 -1271 0
-1254 -1272 0
-1254 -1273 0
-1254 -1274 0
-1254 -1275 0
-1254 -1276 0
-1254 -1277 0
-1254 -1278 0
-1254 -1279 0
-1254 -1280 0
-1254 -1281 0
-1254 -1282 0
-1254 -1283 0
-1254 -1284 0
-1254 -1285 0
-1254 -1286 0
-1254 -1287 0
-1254 -1288 0
-1254 -1289 0
-1254 -1290 0
-1254 -1291 0
-1254 -1292 0
-1254 -1293 0
-1254 -1294 0
-1254 -1295 0
-1254 -1296 0
-1254 -1297 0
-1254 -1298 0
-1254 -1299 0
-1254 -1300 0
-1254 -1301 0
-1254 -1302 0
-1254 -1303 0
-1254 -1304 0
-1254 -1305 0
-1254 -1306 0
-1254 -1307 0
-1254 -1308 0
-1254 -1309 0
-1254 -1310 0
-1254 -1311 0
-1254 -1312 0
-1254 -1313 0
-1254 -1314 0
-1254 -1315 0
-1254 -1316 0
-1254 -1317 0
-1254 -1318 0
-1254 -1319 0
-1254 -1320 0
-1254 -1321 0
-1254 -1322 0
-1254 -1323 0
-1254 -1324 0
-1254 -1325 0
-1254 -1326 0
-1254 -1327 0
-1254 -1328 0
-1254 -1329 0
-1254 -1330 0
-1255 -1256 0
-1255 -1257 0
-1255 -1258 0
-1255 -1259 0
-1255 -1260 0
-1255 -1261 0
-1255 -1262 0
-1255 -1263 0
-1255 -1264 0
-1255 -1265 0
-1255 -1266 0
-1255 -1267 0
-1255 -1268 0
-1255 -1269 0
-1255 -1270 0
-1255 -1271 0
-1255 -1272 0
-1255 -1273 0
-1255 -1274 0
-1255 -1275 0
-1255 -1276 0
-1255 -1277 0
-1255 -1278 0
-1255 -1279 0
-1255 -1280 0
-1255 -1281 0
-1255 -1282 0
-1255 -1283 0
-1255 -1284 0
-1255 -1285 0
-1255 -1286 0
-1255 -1287 0
-1255 -1288 0
-1255 -1289 0
-1255 -1290 0
-1255 -1291 0
-1255 -1292 0
-1255 -1293 0
-1255 -1294 0
-1255 -1295 0
-1255 -1296 0
-1255 -1297 0
-1255 -1298 0
-1255 -1299 0
-1255 -1300 0
-1255 -1301 0
-1255 -1302 0
-1255 -1303 0
-1255 -1304 0
-1255 -1305 0
-1255 -1306 0
-1255 -1307 0
-1255 -1308 0
-1255 -1309 0
-1255 -1310 0
-1255 -1311 0
-1255 -1312 0
-1255 -1313 0
-1255 -1314 0
-1255 -1315 0
-1255 -1316 0
-1255 -1317 0
-1255 -1318 0
-1255 -1319 0
-1255 -1320 0
-1255 -1321 0
-1255 -1322 0
-1255 -1323 0
-1255 -1324 0
-1255 -1325 0
-1255 -1326 0
-1255 -1327 0
-1255 -1328 0
-1255 -1329 0
-1255 -1330 0
-1256 -1257 0
-1256 -1258 0
-1256 -1259 0
-1256 -1260 0
-1256 -1261 0
-1256 -1262 0
-1256 -1263 0
-1256 -1264 0
-1256 -1265 0
-1256 -1266 0
-1256 -1267 0
-1256 -1268 0
-1256 -1269 0
-1256 -1270 0
-1256 -1271 0
-1256 -1272 0
-1256 -1273 0
-1256 -1274 0
-1256 -1275 0
-1256 -1276 0
-1256 -1277 0
-1256 -1278 0
-1256 -1279 0
-1256 -1280 0
-1256 -1281 0
-1256 -1282 0
-1256 -1283 0
-1256 -1284 0
-1256 -1285 0
-1256 -1286 0
-1256 -1287 0
-1256 -1288 0
-1256 -1289 0
-1256 -1290 0
-1256 -1291 0
-1256 -1292 0
-1256 -1293 0
-1256 -1294 0
-1256 -1295 0
-1256 -1296 0
-1256 -1297 0
-1256 -1298 0
-1256 -1299 0
-1256 -1300 0
-1256 -1301 0
-1256 -1302 0
-1256 -1303 0
-1256 -1304 0
-1256 -1305 0
-1256 -1306 0
-1256 -1307 0
-1256 -1308 0
-1256 -1309 0
-1256 -1310 0
-1256 -1311 0
-1256 -1312 0
-1256 -1313 0
-1256 -1314 0
-1256 -1315 0
-1256 -1316 0
-1256 -1317 0
-1256 -1318 0
-1256 -1319 0
-1256 -1320 0
-1256 -1321 0
-1256 -1322 0
-1256 -1323 0
-1256 -1324 0
-1256 -1325 0
-1256 -1326 0
-1256 -1327 0
-1256 -1328 0
-1256 -1329 0
-1256 -1330 0
-1257 -1258 0
-1257 -1259 0
-1257 -1260 0
-1257 -1261 0
-1257 -1262 0
-1257 -1263 0
-1257 -1264 0
-1257 -1265 0
-1257 -1266 0
-1257 -1267 0
-1257 -1268 0
-1257 -1269 0
-1257 -1270 0
-1257 -1271 0
-1257 -1272 0
-1257 -1273 0
-1257 -1274 0
-1257 -1275 0
-1257 -1276 0
-1257 -1277 0
-1257 -1278 0
-1257 -1279 0
-1257 -1280 0
-1257 -1281 0
-1257 -1282 0
-1257 -1283 0
-1257 -1284 0
-1257 -1285 0
-1257 -1286 0
-1257 -1287 0
-1257 -1288 0
-1257 -1289 0
-1257 -1290 0
-1257 -1291 0
-1257 -1292 0
-1257 -1293 0
-1257 -1294 0
-1257 -1295 0
-1257 -1296 0
-1257 -1297 0
-1257 -1298 0
-1257 -1299 0
-1257 -1300 0
-1257 -1301 0
-1257 -1302 0
-1257 -1303 0
-1257 -1304 0
-1257 -1305 0
-1257 -1306 0
-1257 -1307 0
-1257 -1308 0
-1257 -1309 0
-1257 -1310 0
-1257 -1311 0
-1257 -1312 0
-1257 -1313 0
-1257 -1314 0
-1257 -1315 0
-1257 -1316 0
-1257 -1317 0
-1257 -1318 0
-1257 -1319 0
-1257 -1320 0
-1257 -1321 0
-1257 -1322 0
-1257 -1323 0
-1257 -1324 0
-1257 -1325 0
-1257 -1326 0
-1257 -1327 0
-1257 -1328 0
-1257 -1329 0
-1257 -1330 0
-1258 -1259 0
-1258 -1260 0
-1258 -1261 0
-1258 -1262 0
-1258 -1263 0
-1258 -1264 0
-1258 -1265 0
-1258 -1266 0
-1258 -1267 0
-1258 -1268 0
-1258 -1269 0
-1258 -1270 0
-1258 -1271 0
-1258 -1272 0
-1258 -1273 0
-1258 -1274 0
-1258 -1275 0
-1258 -1276 0
-1258 -1277 0
-1258 -1278 0
-1258 -1279 0
-1258 -1280 0
-1258 -1281 0
-1258 -1282 0
-1258 -1283 0
-1258 -1284 0
-1258 -1285 0
-1258 -1286 0
-1258 -1287 0
-1258 -1288 0
-1258 -1289 0
-1258 -1290 0
-1258 -1291 0
-1258 -1292 0
-1258 -1293 0
-1258 -1294 0
-1258 -1295 0
-1258 -1296 0
-1258 -1297 0
-1258 -1298 0
-1258 -1299 0
-1258 -1300 0
-1258 -1301 0
-1258 -1302 0
-1258 -1303 0
-1258 -1304 0
-1258 -1305 0
-1258 -1306 0
-1258 -1307 0
-1258 -1308 0
-1258 -1309 0
-1258 -1310 0
-1258 -1311 0
-1258 -1312 0
-1258 -1313 0
-1258 -1314 0
-1258 -1315 0
-1258 -1316 0
-1258 -1317 0
-1258 -1318 0
-1258 -1319 0
-1258 -1320 0
-1258 -1321 0
-1258 -1322 0
-1258 -1323 0
-1258 -1324 0
-1258 -1325 0
-1258 -1326 0
-1258 -1327 0
-1258 -1328 0
-1258 -1329 0
-1258 -1330 0
-1259 -1260 0
-1259 -1261 0
-1259 -1262 0
-1259 -1263 0
-1259 -1264 0
-1259 -1265 0
-1259 -1266 0
-1259 -1267 0
-1259 -1268 0
-1259 -1269 0
-1259 -1270 0
-1259 -1271 0
-1259 -1272 0
-1259 -1273 0
-1259 -1274 0
-1259 -1275 0
-1259 -1276 0
-1259 -1277 0
-1259 -1278 0
-1259 -1279 0
-1259 -1280 0
-1259 -1281 0
-1259 -1282 0
-1259 -1283 0
-1259 -1284 0
-1259 -1285 0
-1259 -1286 0
-1259 -1287 0
-1259 -1288 0
-1259 -1289 0
-1259 -1290 0
-1259 -1291 0
-1259 -1292 0
-1259 -1293 0
-1259 -1294 0
-1259 -1295 0
-1259 -1296 0
-1259 -1297 0
-1259 -1298 0
-1259 -1299 0
-1259 -1300 0
-1259 -1301 0
-1259 -1302 0
-1259 -1303 0
-1259 -1304 0
-1259 -1305 0
-1259 -1306 0
-1259 -1307 0
-1259 -1308 0
-1259 -1309 0
-1259 -1310 0
-1259 -1311 0
-1259 -1312 0
-1259 -1313 0
-1259 -1314 0
-1259 -1315 0
-1259 -1316 0
-1259 -1317 0
-1259 -1318 0
-1259 -1319 0
-1259 -1320 0
-1259 -1321 0
-1259 -1322 0
-1259 -1323 0
-1259 -1324 0
-1259 -1325 0
-1259 -1326 0
-1259 -1327 0
-1259 -1328 0
-1259 -1329 0
-1259 -1330 0
-1260 -1261 0
-1260 -1262 0
-1260 -1263 0
-1260 -1264 0
-1260 -1265 0
-1260 -1266 0
-1260 -1267 0
-1260 -1268 0
-1260 -1269 0
-1260 -1270 0
-1260 -1271 0
-1260 -1272 0
-1260 -1273 0
-1260 -1274 0
-1260 -1275 0
-1260 -1276 0
-1260 -1277 0
-1260 -1278 0
-1260 -1279 0
-1260 -1280 0
-1260 -1281 0
-1260 -1282 0
-1260 -1283 0
-1260 -1284 0
-1260 -1285 0
-1260 -1286 0
-1260 -1287 0
-1260 -1288 0
-1260 -1289 0
-1260 -1290 0
-1260 -1291 0
-1260 -1292 0
-1260 -1293 0
-1260 -1294 0
-1260 -1295 0
-1260 -1296 0
-1260 -1297 0
-1260 -1298 0
-1260 -1299 0
-1260 -1300 0
-1260 -1301 0
-1260 -1302 0
-1260 -1303 0
-1260 -1304 0
-1260 -1305 0
-1260 -1306 0
-1260 -1307 0
-1260 -1308 0
-1260 -1309 0
-1260 -1310 0
-1260 -1311 0
-1260 -1312 0
-1260 -1313 0
-1260 -1314 0
-1260 -1315 0
-1260 -1316 0
-1260 -1317 0
-1260 -1318 0
-1260 -1319 0
-1260 -1320 0
-1260 -1321 0
-1260 -1322 0
-1260 -1323 0
-1260 -1324 0
-1260 -1325 0
-1260 -1326 0
-1260 -1327 0
-1260 -1328 0
-1260 -1329 0
-1260 -1330 0
-1261 -1262 0
-1261 -1263 0
-1261 -1264 0
-1261 -1265 0
-1261 -1266 0
-1261 -1267 0
-1261 -1268 0
-1261 -1269 0
-1261 -1270 0
-1261 -1271 0
-1261 -1272 0
-1261 -1273 0
-1261 -1274 0
-1261 -1275 0
-1261 -1276 0
-1261 -1277 0
-1261 -1278 0
-1261 -1279 0
-1261 -1280 0
-1261 -1281 0
-1261 -1282 0
-1261 -1283 0
-1261 -1284 0
-1261 -1285 0
-1261 -1286 0
-1261 -1287 0
-1261 -1288 0
-1261 -1289 0
-1261 -1290 0
-1261 -1291 0
-1261 -1292 0
-1261 -1293 0
-1261 -1294 0
-1261 -1295 0
-1261 -1296 0
-1261 -1297 0
-1261 -1298 0
-1261 -1299 0
-1261 -1300 0
-1261 -1301 0
-1261 -1302 0
-1261 -1303 0
-1261 -1304 0
-1261 -1305 0
-1261 -1306 0
-1261 -1307 0
-1261 -1308 0
-1261 -1309 0
-1261 -1310 0
-1261 -1311 0
-1261 -1312 0
-1261 -1313 0
-1261 -1314 0
-1261 -1315 0
-1261 -1316 0
-1261 -1317 0
-1261 -1318 0
-1261 -1319 0
-1261 -1320 0
-1261 -1321 0
-1261 -1322 0
-1261 -1323 0
-1261 -1324 0
-1261 -1325 0
-1261 -1326 0
-1261 -1327 0
-1261 -1328 0
-1261 -1329 0
-1261 -1330 0
-1262 -1263 0
-1262 -1264 0
-1262 -1265 0
-1262 -1266 0
-1262 -1267 0
-1262 -1268 0
-1262 -1269 0
-1262 -1270 0
-1262 -1271 0
-1262 -1272 0
-1262 -1273 0
-1262 -1274 0
-1262 -1275 0
-1262 -1276 0
-1262 -1277 0
-1262 -1278 0
-1262 -1279 0
-1262 -1280 0
-1262 -1281 0
-1262 -1282 0
-1262 -1283 0
-1262 -1284 0
-1262 -1285 0
-1262 -1286 0
-1262 -1287 0
-1262 -1288 0
-1262 -1289 0
-1262 -1290 0
-1262 -1291 0
-1262 -1292 0
-1262 -1293 0
-1262 -1294 0
-1262 -1295 0
-1262 -1296 0
-1262 -1297 0
-1262 -1298 0
-1262 -1299 0
-1262 -1300 0
-1262 -1301 0
-1262 -1302 0
-1262 -1303 0
-1262 -1304 0
-1262 -1305 0
-1262 -1306 0
-1262 -1307 0
-1262 -1308 0
-1262 -1309 0
-1262 -1310 0
-1262 -1311 0
-1262 -1312 0
-1262 -1313 0
-1262 -1314 0
-1262 -1315 0
-1262 -1316 0
-1262 -1317 0
-1262 -1318 0
-1262 -1319 0
-1262 -1320 0
-1262 -1321 0
-1262 -1322 0
-1262 -1323 0
-1262 -1324 0
-1262 -1325 0
-1262 -1326 0
-1262 -1327 0
-1262 -1328 0
-1262 -1329 0
-1262 -1330 0
-1263 -1264 0
-1263 -1265 0
-1263 -1266 0
-1263 -1267 0
-1263 -1268 0
-1263 -1269 0
-1263 -1270 0
-1263 -1271 0
-1263 -1272 0
-1263 -1273 0
-1263 -1274 0
-1263 -1275 0
-1263 -1276 0
-1263 -1277 0
-1263 -1278 0
-1263 -1279 0
-1263 -1280 0
-1263 -1281 0
-1263 -1282 0
-1263 -1283 0
-1263 -1284 0
-1263 -1285 0
-1263 -1286 0
-1263 -1287 0
-1263 -1288 0
-1263 -1289 0
-1263 -1290 0
-1263 -1291 0
-1263 -1292 0
-1263 -1293 0
-1263 -1294 0
-1263 -1295 0
-1263 -1296 0
-1263 -1297 0
-1263 -1298 0
-1263 -1299 0
-1263 -1300 0
-1263 -1301 0
-1263 -1302 0
-1263 -1303 0
-1263 -1304 0
-1263 -1305 0
-1263 -1306 0
-1263 -1307 0
-1263 -1308 0
-1263 -1309 0
-1263 -1310 0
-1263 -1311 0
-1263 -1312 0
-1263 -1313 0
-1263 -1314 0
-1263 -1315 0
-1263 -1316 0
-1263 -1317 0
-1263 -1318 0
-1263 -1319 0
-1263 -1320 0
-1263 -1321 0
-1263 -1322 0
-1263 -1323 0
-1263 -1324 0
-1263 -1325 0
-1263 -1326 0
-1263 -1327 0
-1263 -1328 0
-1263 -1329 0
-1263 -1330 0
-1264 -1265 0
-1264 -1266 0
-1264 -1267 0
-1264 -1268 0
-1264 -1269 0
-1264 -1270 0
-1264 -1271 0
-1264 -1272 0
-1264 -1273 0
-1264 -1274 0
-1264 -1275 0
-1264 -1276 0
-1264 -1277 0
-1264 -1278 0
-1264 -1279 0
-1264 -1280 0
-1264 -1281 0
-1264 -1282 0
-1264 -1283 0
-1264 -1284 0
-1264 -1285 0
-1264 -1286 0
-1264 -1287 0
-1264 -1288 0
-1264 -1289 0
-1264 -1290 0
-1264 -1291 0
-1264 -1292 0
-1264 -1293 0
-1264 -1294 0
-1264 -1295 0
-1264 -1296 0
-1264 -1297 0
-1264 -1298 0
-1264 -1299 0
-1264 -1300 0
-1264 -1301 0
-1264 -1302 0
-1264 -1303 0
-1264 -1304 0
-1264 -1305 0
-1264 -1306 0
-1264 -1307 0
-1264 -1308 0
-1264 -1309 0
-1264 -1310 0
-1264 -1311 0
-1264 -1312 0
-1264 -1313 0
-1264 -1314 0
-1264 -1315 0
-1264 -1316 0
-1264 -1317 0
-1264 -1318 0
-1264 -1319 0
-1264 -1320 0
-1264 -1321 0
-1264 -1322 0
-1264 -1323 0
-1264 -1324 0
-1264 -1325 0
-1264 -1326 0
-1264 -1327 0
-1264 -1328 0
-1264 -1329 0
-1264 -1330 0
-1265 -1266 0
-1265 -1267 0
-1265 -1268 0
-1265 -1269 0
-1265 -1270 0
-1265 -1271 0
-1265 -1272 0
-1265 -1273 0
-1265 -1274 0
-1265 -1275 0
-1265 -1276 0
-1265 -1277 0
-1265 -1278 0
-1265 -1279 0
-1265 -1280 0
-1265 -1281 0
-1265 -1282 0
-1265 -1283 0
-1265 -1284 0
-1265 -1285 0
-1265 -1286 0
-1265 -1287 0
-1265 -1288 0
-1265 -1289 0
-1265 -1290 0
-1265 -1291 0
-1265 -1292 0
-1265 -1293 0
-1265 -1294 0
-1265 -1295 0
-1265 -1296 0
-1265 -1297 0
-1265 -1298 0
-1265 -1299 0
-1265 -1300 0
-1265 -1301 0
-1265 -1302 0
-1265 -1303 0
-1265 -1304 0
-1265 -1305 0
-1265 -1306 0
-1265 -1307 0
-1265 -1308 0
-1265 -1309 0
-1265 -1310 0
-1265 -1311 0
-1265 -1312 0
-1265 -1313 0
-1265 -1314 0
-1265 -1315 0
-1265 -1316 0
-1265 -1317 0
-1265 -1318 0
-1265 -1319 0
-1265 -1320 0
-1265 -1321 0
-1265 -1322 0
-1265 -1323 0
-1265 -1324 0
-1265 -1325 0
-1265 -1326 0
-1265 -1327 0
-1265 -1328 0
-1265 -1329 0
-1265 -1330 0
-1266 -1267 0
-1266 -1268 0
-1266 -1269 0
-1266 -1270 0
-1266 -1271 0
-1266 -1272 0
-1266 -1273 0
-1266 -1274 0
-1266 -1275 0
-1266 -1276 0
-1266 -1277 0
-1266 -1278 0
-1266 -1279 0
-1266 -1280 0
-1266 -1281 0
-1266 -1282 0
-1266 -1283 0
-1266 -1284 0
-1266 -1285 0
-1266 -1286 0
-1266 -1287 0
-1266 -1288 0
-1266 -1289 0
-1266 -1290 0
-1266 -1291 0
-1266 -1292 0
-1266 -1293 0
-1266 -1294 0
-1266 -1295 0
-1266 -1296 0
-1266 -1297 0
-1266 -1298 0
-1266 -1299 0
-1266 -1300 0
-1266 -1301 0
-1266 -1302 0
-1266 -1303 0
-1266 -1304 0
-1266 -1305 0
-1266 -1306 0
-1266 -1307 0
-1266 -1308 0
-1266 -1309 0
-1266 -1310 0
-1266 -1311 0
-1266 -1312 0
-1266 -1313 0
-1266 -1314 0
-1266 -1315 0
-1266 -1316 0
-1266 -1317 0
-1266 -1318 0
-1266 -1319 0
-1266 -1320 0
-1266 -1321 0
-1266 -1322 0
-1266 -1323 0
-1266 -1324 0
-1266 -1325 0
-1266 -1326 0
-1266 -1327 0
-1266 -1328 0
-1266 -1329 0
-1266 -1330 0
-1267 -1268 0
-1267 -1269 0
-1267 -1270 0
-1267 -1271 0
-1267 -1272 0
-1267 -1273 0
-1267 -1274 0
-1267 -1275 0
-1267 -1276 0
-1267 -1277 0
-1267 -1278 0
-1267 -1279 0
-1267 -1280 0
-1267 -1281 0
-1267 -1282 0
-1267 -1283 0
-1267 -1284 0
-1267 -1285 0
-1267 -1286 0
-1267 -1287 0
-1267 -1288 0
-1267 -1289 0
-1267 -1290 0
-1267 -1291 0
-1267 -1292 0
-1267 -1293 0
-1267 -1294 0
-1267 -1295 0
-1267 -1296 0
-1267 -1297 0
-1267 -1298 0
-1267 -1299 0
-1267 -1300 0
-1267 -1301 0
-1267 -1302 0
-1267 -1303 0
-1267 -1304 0
-1267 -1305 0
-1267 -1306 0
-1267 -1307 0
-1267 -1308 0
-1267 -1309 0
-1267 -1310 0
-1267 -1311 0
-1267 -1312 0
-1267 -1313 0
-1267 -1314 0
-1267 -1315 0
-1267 -1316 0
-1267 -1317 0
-1267 -1318 0
-1267 -1319 0
-1267 -1320 0
-1267 -1321 0
-1267 -1322 0
-1267 -1323 0
-1267 -1324 0
-1267 -1325 0
-1267 -1326 0
-1267 -1327 0
-1267 -1328 0
-1267 -1329 0
-1267 -1330 0
-1268 -1269 0
-1268 -1270 0
-1268 -1271 0
-1268 -1272 0
-1268 -1273 0
-1268 -1274 0
-1268 -1275 0
-1268 -1276 0
-1268 -1277 0
-1268 -1278 0
-1268 -1279 0
-1268 -1280 0
-1268 -1281 0
-1268 -1282 0
-1268 -1283 0
-1268 -1284 0
-1268 -1285 0
-1268 -1286 0
-1268 -1287 0
-1268 -1288 0
-1268 -1289 0
-1268 -1290 0
-1268 -1291 0
-1268 -1292 0
-1268 -1293 0
-1268 -1294 0
-1268 -1295 0
-1268 -1296 0
-1268 -1297 0
-1268 -1298 0
-1268 -1299 0
-1268 -1300 0
-1268 -1301 0
-1268 -1302 0
-1268 -1303 0
-1268 -1304 0
-1268 -1305 0
-1268 -1306 0
-1268 -1307 0
-1268 -1308 0
-1268 -1309 0
-1268 -1310 0
-1268 -1311 0
-1268 -1312 0
-1268 -1313 0
-1268 -1314 0
-1268 -1315 0
-1268 -1316 0
-1268 -1317 0
-1268 -1318 0
-1268 -1319 0
-1268 -1320 0
-1268 -1321 0
-1268 -1322 0
-1268 -1323 0
-1268 -1324 0
-1268 -1325 0
-1268 -1326 0
-1268 -1327 0
-1268 -1328 0
-1268 -1329 0
-1268 -1330 0
-1269 -1270 0
-1269 -1271 0
-1269 -1272 0
-1269 -1273 0
-1269 -1274 0
-1269 -1275 0
-1269 -1276 0
-1269 -1277 0
-1269 -1278 0
-1269 -1279 0
-1269 -1280 0
-1269 -1281 0
-1269 -1282 0
-1269 -1283 0
-1269 -1284 0
-1269 -1285 0
-1269 -1286 0
-1269 -1287 0
-1269 -1288 0
-1269 -1289 0
-1269 -1290 0
-1269 -1291 0
-1269 -1292 0
-1269 -1293 0
-1269 -1294 0
-1269 -1295 0
-1269 -1296 0
-1269 -1297 0
-1269 -1298 0
-1269 -1299 0
-1269 -1300 0
-1269 -1301 0
-1269 -1302 0
-1269 -1303 0
-1269 -1304 0
-1269 -1305 0
-1269 -1306 0
-1269 -1307 0
-1269 -1308 0
-1269 -1309 0
-1269 -1310 0
-1269 -1311 0
-1269 -1312 0
-1269 -1313 0
-1269 -1314 0
-1269 -1315 0
-1269 -1316 0
-1269 -1317 0
-1269 -1318 0
-1269 -1319 0
-1269 -1320 0
-1269 -1321 0
-1269 -1322 0
-1269 -1323 0
-1269 -1324 0
-1269 -1325 0
-1269 -1326 0
-1269 -1327 0
-1269 -1328 0
-1269 -1329 0
-1269 -1330 0
-1270 -1271 0
-1270 -1272 0
-1270 -1273 0
-1270 -1274 0
-1270 -1275 0
-1270 -1276 0
-1270 -1277 0
-1270 -1278 0
-1270 -1279 0
-1270 -1280 0
-1270 -1281 0
-1270 -1282 0
-1270 -1283 0
-1270 -1284 0
-1270 -1285 0
-1270 -1286 0
-1270 -1287 0
-1270 -1288 0
-1270 -1289 0
-1270 -1290 0
-1270 -1291 0
-1270 -1292 0
-1270 -1293 0
-1270 -1294 0
-1270 -1295 0
-1270 -1296 0
-1270 -1297 0
-1270 -1298 0
-1270 -1299 0
-1270 -1300 0
-1270 -1301 0
-1270 -1302 0
-1270 -1303 0
-1270 -1304 0
-1270 -1305 0
-1270 -1306 0
-1270 -1307 0
-1270 -1308 0
-1270 -1309 0
-1270 -1310 0
-1270 -1311 0
-1270 -1312 0
-1270 -1313 0
-1270 -1314 0
-1270 -1315 0
-1270 -1316 0
-1270 -1317 0
-1270 -1318 0
-1270 -1319 0
-1270 -1320 0
-1270 -1321 0
-1270 -1322 0
-1270 -1323 0
-1270 -1324 0
-1270 -1325 0
-1270 -1326 0
-1270 -1327 0
-1270 -1328 0
-1270 -1329 0
-1270 -1330 0
-1271 -1272 0
-1271 -1273 0
-1271 -1274 0
-1271 -1275 0
-1271 -1276 0
-1271 -1277 0
-1271 -1278 0
-1271 -1279 0
-1271 -1280 0
-1271 -1281 0
-1271 -1282 0
-1271 -1283 0
-1271 -1284 0
-1271 -1285 0
-1271 -1286 0
-1271 -1287 0
-1271 -1288 0
-1271 -1289 0
-1271 -1290 0
-1271 -1291 0
-1271 -1292 0
-1271 -1293 0
-1271 -1294 0
-1271 -1295 0
-1271 -1296 0
-1271 -1297 0
-1271 -1298 0
-1271 -1299 0
-1271 -1300 0
-1271 -1301 0
-1271 -1302 0
-1271 -1303 0
-1271 -1304 0
-1271 -1305 0
-1271 -1306 0
-1271 -1307 0
-1271 -1308 0
-1271 -1309 0
-1271 -1310 0
-1271 -1311 0
-1271 -1312 0
-1271 -1313 0
-1271 -1314 0
-1271 -1315 0
-1271 -1316 0
-1271 -1317 0
-1271 -1318 0
-1271 -1319 0
-1271 -1320 0
-1271 -1321 0
-1271 -1322 0
-1271 -1323 0
-1271 -1324 0
-1271 -1325 0
-1271 -1326 0
-1271 -1327 0
-1271 -1328 0
-1271 -1329 0
-1271 -1330 0
-1272 -1273 0
-1272 -1274 0
-1272 -1275 0
-1272 -1276 0
-1272 -1277 0
-1272 -1278 0
-1272 -1279 0
-1272 -1280 0
-1272 -1281 0
-1272 -1282 0
-1272 -1283 0
-1272 -1284 0
-1272 -1285 0
-1272 -1286 0
-1272 -1287 0
-1272 -1288 0
-1272 -1289 0
-1272 -1290 0
-1272 -1291 0
-1272 -1292 0
-1272 -1293 0
-1272 -1294 0
-1272 -1295 0
-1272 -1296 0
-1272 -1297 0
-1272 -1298 0
-1272 -1299 0
-1272 -1300 0
-1272 -1301 0
-1272 -1302 0
-1272 -1303 0
-1272 -1304 0
-1272 -1305 0
-1272 -1306 0
-1272 -1307 0
-1272 -1308 0
-1272 -1309 0
-1272 -1310 0
-1272 -1311 0
-1272 -1312 0
-1272 -1313 0
-1272 -1314 0
-1272 -1315 0
-1272 -1316 0
-1272 -1317 0
-1272 -1318 0
-1272 -1319 0
-1272 -1320 0
-1272 -1321 0
-1272 -1322 0
-1272 -1323 0
-1272 -1324 0
-1272 -1325 0
-1272 -1326 0
-1272 -1327 0
-1272 -1328 0
-1272 -1329 0
-1272 -1330 0
-1273 -1274 0
-1273 -1275 0
-1273 -1276 0
-1273 -1277 0
-1273 -1278 0
-1273 -1279 0
-1273 -1280 0
-1273 -1281 0
-1273 -1282 0
-1273 -1283 0
-1273 -1284 0
-1273 -1285 0
-1273 -1286 0
-1273 -1287 0
-1273 -1288 0
-1273 -1289 0
-1273 -1290 0
-1273 -1291 0
-1273 -1292 0
-1273 -1293 0
-1273 -1294 0
-1273 -1295 0
-1273 -1296 0
-1273 -1297 0
-1273 -1298 0
-1273 -1299 0
-1273 -1300 0
-1273 -1301 0
-1273 -1302 0
-1273 -1303 0
-1273 -1304 0
-1273 -1305 0
-1273 -1306 0
-1273 -1307 0
-1273 -1308 0
-1273 -1309 0
-1273 -1310 0
-1273 -1311 0
-1273 -1312 0
-1273 -1313 0
-1273 -1314 0
-1273 -1315 0
-1273 -1316 0
-1273 -1317 0
-1273 -1318 0
-1273 -1319 0
-1273 -1320 0
-1273 -1321 0
-1273 -1322 0
-1273 -1323 0
-1273 -1324 0
-1273 -1325 0
-1273 -1326 0
-1273 -1327 0
-1273 -1328 0
-1273 -1329 0
-1273 -1330 0
-1274 -1275 0
-1274 -1276 0
-1274 -1277 0
-1274 -1278 0
-1274 -1279 0
-1274 -1280 0
-1274 -1281 0
-1274 -1282 0
-1274 -1283 0
-1274 -1284 0
-1274 -1285 0
-1274 -1286 0
-1274 -1287 0
-1274 -1288 0
-1274 -1289 0
-1274 -1290 0
-1274 -1291 0
-1274 -1292 0
-1274 -1293 0
-1274 -1294 0
-1274 -1295 0
-1274 -1296 0
-1274 -1297 0
-1274 -1298 0
-1274 -1299 0
-1274 -1300 0
-1274 -1301 0
-1274 -1302 0
-1274 -1303 0
-1274 -1304 0
-1274 -1305 0
-1274 -1306 0
-1274 -1307 0
-1274 -1308 0
-1274 -1309 0
-1274 -1310 0
-1274 -1311 0
-1274 -1312 0
-1274 -1313 0
-1274 -1314 0
-1274 -1315 0
-1274 -1316 0
-1274 -1317 0
-1274 -1318 0
-1274 -1319 0
-1274 -1320 0
-1274 -1321 0
-1274 -1322 0
-1274 -1323 0
-1274 -1324 0
-1274 -1325 0
-1274 -1326 0
-1274 -1327 0
-1274 -1328 0
-1274 -1329 0
-1274 -1330 0
-1275 -1276 0
-1275 -1277 0
-1275 -1278 0
-1275 -1279 0
-1275 -1280 0
-1275 -1281 0
-1275 -1282 0
-1275 -1283 0
-1275 -1284 0
-1275 -1285 0
-1275 -1286 0
-1275 -1287 0
-1275 -1288 0
-1275 -1289 0
-1275 -1290 0
-1275 -1291 0
-1275 -1292 0
-1275 -1293 0
-1275 -1294 0
-1275 -1295 0
-1275 -1296 0
-1275 -1297 0
-1275 -1298 0
-1275 -1299 0
-1275 -1300 0
-1275 -1301 0
-1275 -1302 0
-1275 -1303 0
-1275 -1304 0
-1275 -1305 0
-1275 -1306 0
-1275 -1307 0
-1275 -1308 0
-1275 -1309 0
-1275 -1310 0
-1275 -1311 0
-1275 -1312 0
-1275 -1313 0
-1275 -1314 0
-1275 -1315 0
-1275 -1316 0
-1275 -1317 0
-1275 -1318 0
-1275 -1319 0
-1275 -1320 0
-1275 -1321 0
-1275 -1322 0
-1275 -1323 0
-1275 -1324 0
-1275 -1325 0
-1275 -1326 0
-1275 -1327 0
-1275 -1328 0
-1275 -1329 0
-1275 -1330 0
-1276 -1277 0
-1276 -1278 0
-1276 -1279 0
-1276 -1280 0
-1276 -1281 0
-1276 -1282 0
-1276 -1283 0
-1276 -1284 0
-1276 -1285 0
-1276 -1286 0
-1276 -1287 0
-1276 -1288 0
-1276 -1289 0
-1276 -1290 0
-1276 -1291 0
-1276 -1292 0
-1276 -1293 0
-1276 -1294 0
-1276 -1295 0
-1276 -1296 0
-1276 -1297 0
-1276 -1298 0
-1276 -1299 0
-1276 -1300 0
-1276 -1301 0
-1276 -1302 0
-1276 -1303 0
-1276 -1304 0
-1276 -1305 0
-1276 -1306 0
-1276 -1307 0
-1276 -1308 0
-1276 -1309 0
-1276 -1310 0
-1276 -1311 0
-1276 -1312 0
-1276 -1313 0
-1276 -1314 0
-1276 -1315 0
-1276 -1316 0
-1276 -1317 0
-1276 -1318 0
-1276 -1319 0
-1276 -1320 0
-1276 -1321 0
-1276 -1322 0
-1276 -1323 0
-1276 -1324 0
-1276 -1325 0
-1276 -1326 0
-1276 -1327 0
-1276 -1328 0
-1276 -1329 0
-1276 -1330 0
-1277 -1278 0
-1277 -1279 0
-1277 -1280 0
-1277 -1281 0
-1277 -1282 0
-1277 -1283 0
-1277 -1284 0
-1277 -1285 0
-1277 -1286 0
-1277 -1287 0
-1277 -1288 0
-1277 -1289 0
-1277 -1290 0
-1277 -1291 0
-1277 -1292 0
-1277 -1293 0
-1277 -1294 0
-1277 -1295 0
-1277 -1296 0
-1277 -1297 0
-1277 -1298 0
-1277 -1299 0
-1277 -1300 0
-1277 -1301 0
-1277 -1302 0
-1277 -1303 0
-1277 -1304 0
-1277 -1305 0
-1277 -1306 0
-1277 -1307 0
-1277 -1308 0
-1277 -1309 0
-1277 -1310 0
-1277 -1311 0
-1277 -1312 0
-1277 -1313 0
-1277 -1314 0
-1277 -1315 0
-1277 -1316 0
-1277 -1317 0
-1277 -1318 0
-1277 -1319 0
-1277 -1320 0
-1277 -1321 0
-1277 -1322 0
-1277 -1323 0
-1277 -1324 0
-1277 -1325 0
-1277 -1326 0
-1277 -1327 0
-1277 -1328 0
-1277 -1329 0
-1277 -1330 0
-1278 -1279 0
-1278 -1280 0
-1278 -1281 0
-1278 -1282 0
-1278 -1283 0
-1278 -1284 0
-1278 -1285 0
-1278 -1286 0
-1278 -1287 0
-1278 -1288 0
-1278 -1289 0
-1278 -1290 0
-1278 -1291 0
-1278 -1292 0
-1278 -1293 0
-1278 -1294 0
-1278 -1295 0
-1278 -1296 0
-1278 -1297 0
-1278 -1298 0
-1278 -1299 0
-1278 -1300 0
-1278 -1301 0
-1278 -1302 0
-1278 -1303 0
-1278 -1304 0
-1278 -1305 0
-1278 -1306 0
-1278 -1307 0
-1278 -1308 0
-1278 -1309 0
-1278 -1310 0
-1278 -1311 0
-1278 -1312 0
-1278 -1313 0
-1278 -1314 0
-1278 -1315 0
-1278 -1316 0
-1278 -1317 0
-1278 -1318 0
-1278 -1319 0
-1278 -1320 0
-1278 -1321 0
-1278 -1322 0
-1278 -1323 0
-1278 -1324 0
-1278 -1325 0
-1278 -1326 0
-1278 -1327 0
-1278 -1328 0
-1278 -1329 0
-1278 -1330 0
-1279 -1280 0
-1279 -1281 0
-1279 -1282 0
-1279 -1283 0
-1279 -1284 0
-1279 -1285 0
-1279 -1286 0
-1279 -1287 0
-1279 -1288 0
-1279 -1289 0
-1279 -1290 0
-1279 -1291 0
-1279 -1292 0
-1279 -1293 0
-1279 -1294 0
-1279 -1295 0
-1279 -1296 0
-1279 -1297 0
-1279 -1298 0
-1279 -1299 0
-1279 -1300 0
-1279 -1301 0
-1279 -1302 0
-1279 -1303 0
-1279 -1304 0
-1279 -1305 0
-1279 -1306 0
-1279 -1307 0
-1279 -1308 0
-1279 -1309 0
-1279 -1310 0
-1279 -1311 0
-1279 -1312 0
-1279 -1313 0
-1279 -1314 0
-1279 -1315 0
-1279 -1316 0
-1279 -1317 0
-1279 -1318 0
-1279 -1319 0
-1279 -1320 0
-1279 -1321 0
-1279 -1322 0
-1279 -1323 0
-1279 -1324 0
-1279 -1325 0
-1279 -1326 0
-1279 -1327 0
-1279 -1328 0
-1279 -1329 0
-1279 -1330 0
-1280 -1281 0
-1280 -1282 0
-1280 -1283 0
-1280 -1284 0
-1280 -1285 0
-1280 -1286 0
-1280 -1287 0
-1280 -1288 0
-1280 -1289 0
-1280 -1290 0
-1280 -1291 0
-1280 -1292 0
-1280 -1293 0
-1280 -1294 0
-1280 -1295 0
-1280 -1296 0
-1280 -1297 0
-1280 -1298 0
-1280 -1299 0
-1280 -1300 0
-1280 -1301 0
-1280 -1302 0
-1280 -1303 0
-1280 -1304 0
-1280 -1305 0
-1280 -1306 0
-1280 -1307 0
-1280 -1308 0
-1280 -1309 0
-1280 -1310 0
-1280 -1311 0
-1280 -1312 0
-1280 -1313 0
-1280 -1314 0
-1280 -1315 0
-1280 -1316 0
-1280 -1317 0
-1280 -1318 0
-1280 -1319 0
-1280 -1320 0
-1280 -1321 0
-1280 -1322 0
-1280 -1323 0
-1280 -1324 0
-1280 -1325 0
-1280 -1326 0
-1280 -1327 0
-1280 -1328 0
-1280 -1329 0
-1280 -1330 0
-1281 -1282 0
-1281 -1283 0
-1281 -1284 0
-1281 -1285 0
-1281 -1286 0
-1281 -1287 0
-1281 -1288 0
-1281 -1289 0
-1281 -1290 0
-1281 -1291 0
-1281 -1292 0
-1281 -1293 0
-1281 -1294 0
-1281 -1295 0
-1281 -1296 0
-1281 -1297 0
-1281 -1298 0
-1281 -1299 0
-1281 -1300 0
-1281 -1301 0
-1281 -1302 0
-1281 -1303 0
-1281 -1304 0
-1281 -1305 0
-1281 -1306 0
-1281 -1307 0
-1281 -1308 0
-1281 -1309 0
-1281 -1310 0
-1281 -1311 0
-1281 -1312 0
-1281 -1313 0
-1281 -1314 0
-1281 -1315 0
-1281 -1316 0
-1281 -1317 0
-1281 -1318 0
-1281 -1319 0
-1281 -1320 0
-1281 -1321 0
-1281 -1322 0
-1281 -1323 0
-1281 -1324 0
-1281 -1325 0
-1281 -1326 0
-1281 -1327 0
-1281 -1328 0
-1281 -1329 0
-1281 -1330 0
-1282 -1283 0
-1282 -1284 0
-1282 -1285 0
-1282 -1286 0
-1282 -1287 0
-1282 -1288 0
-1282 -1289 0
-1282 -1290 0
-1282 -1291 0
-1282 -1292 0
-1282 -1293 0
-1282 -1294 0
-1282 -1295 0
-1282 -1296 0
-1282 -1297 0
-1282 -1298 0
-1282 -1299 0
-1282 -1300 0
-1282 -1301 0
-1282 -1302 0
-1282 -1303 0
-1282 -1304 0
-1282 -1305 0
-1282 -1306 0
-1282 -1307 0
-1282 -1308 0
-1282 -1309 0
-1282 -1310 0
-1282 -1311 0
-1282 -1312 0
-1282 -1313 0
-1282 -1314 0
-1282 -1315 0
-1282 -1316 0
-1282 -1317 0
-1282 -1318 0
-1282 -1319 0
-1282 -1320 0
-1282 -1321 0
-1282 -1322 0
-1282 -1323 0
-1282 -1324 0
-1282 -1325 0
-1282 -1326 0
-1282 -1327 0
-1282 -1328 0
-1282 -1329 0
-1282 -1330 0
-1283 -1284 0
-1283 -1285 0
-1283 -1286 0
-1283 -1287 0
-1283 -1288 0
-1283 -1289 0
-1283 -1290 0
-1283 -1291 0
-1283 -1292 0
-1283 -1293 0
-1283 -1294 0
-1283 -1295 0
-1283 -1296 0
-1283 -1297 0
-1283 -1298 0
-1283 -1299 0
-1283 -1300 0
-1283 -1301 0
-1283 -1302 0
-1283 -1303 0
-1283 -1304 0
-1283 -1305 0
-1283 -1306 0
-1283 -1307 0
-1283 -1308 0
-1283 -1309 0
-1283 -1310 0
-1283 -1311 0
-1283 -1312 0
-1283 -1313 0
-1283 -1314 0
-1283 -1315 0
-1283 -1316 0
-1283 -1317 0
-1283 -1318 0
-1283 -1319 0
-1283 -1320 0
-1283 -1321 0
-1283 -1322 0
-1283 -1323 0
-1283 -1324 0
-1283 -1325 0
-1283 -1326 0
-1283 -1327 0
-1283 -1328 0
-1283 -1329 0
-1283 -1330 0
-1284 -1285 0
-1284 -1286 0
-1284 -1287 0
-1284 -1288 0
-1284 -1289 0
-1284 -1290 0
-1284 -1291 0
-1284 -1292 0
-1284 -1293 0
-1284 -1294 0
-1284 -1295 0
-1284 -1296 0
-1284 -1297 0
-1284 -1298 0
-1284 -1299 0
-1284 -1300 0
-1284 -1301 0
-1284 -1302 0
-1284 -1303 0
-1284 -1304 0
-1284 -1305 0
-1284 -1306 0
-1284 -1307 0
-1284 -1308 0
-1284 -1309 0
-1284 -1310 0
-1284 -1311 0
-1284 -1312 0
-1284 -1313 0
-1284 -1314 0
-1284 -1315 0
-1284 -1316 0
-1284 -1317 0
-1284 -1318 0
-1284 -1319 0
-1284 -1320 0
-1284 -1321 0
-1284 -1322 0
-1284 -1323 0
-1284 -1324 0
-1284 -1325 0
-1284 -1326 0
-1284 -1327 0
-1284 -1328 0
-1284 -1329 0
-1284 -1330 0
-1285 -1286 0
-1285 -1287 0
-1285 -1288 0
-1285 -1289 0
-1285 -1290 0
-1285 -1291 0
-1285 -1292 0
-1285 -1293 0
-1285 -1294 0
-1285 -1295 0
-1285 -1296 0
-1285 -1297 0
-1285 -1298 0
-1285 -1299 0
-1285 -1300 0
-1285 -1301 0
-1285 -1302 0
-1285 -1303 0
-1285 -1304 0
-1285 -1305 0
-1285 -1306 0
-1285 -1307 0
-1285 -1308 0
-1285 -1309 0
-1285 -1310 0
-1285 -1311 0
-1285 -1312 0
-1285 -1313 0
-1285 -1314 0
-1285 -1315 0
-1285 -1316 0
-1285 -1317 0
-1285 -1318 0
-1285 -1319 0
-1285 -1320 0
-1285 -1321 0
-1285 -1322 0
-1285 -1323 0
-1285 -1324 0
-1285 -1325 0
-1285 -1326 0
-1285 -1327 0
-1285 -1328 0
-1285 -1329 0
-1285 -1330 0
-1286 -1287 0
-1286 -1288 0
-1286 -1289 0
-1286 -1290 0
-1286 -1291 0
-1286 -1292 0
-1286 -1293 0
-1286 -1294 0
-1286 -1295 0
-1286 -1296 0
-1286 -1297 0
-1286 -1298 0
-1286 -1299 0
-1286 -1300 0
-1286 -1301 0
-1286 -1302 0
-1286 -1303 0
-1286 -1304 0
-1286 -1305 0
-1286 -1306 0
-1286 -1307 0
-1286 -1308 0
-1286 -1309 0
-1286 -1310 0
-1286 -1311 0
-1286 -1312 0
-1286 -1313 0
-1286 -1314 0
-1286 -1315 0
-1286 -1316 0
-1286 -1317 0
-1286 -1318 0
-1286 -1319 0
-1286 -1320 0
-1286 -1321 0
-1286 -1322 0
-1286 -1323 0
-1286 -1324 0
-1286 -1325 0
-1286 -1326 0
-1286 -1327 0
-1286 -1328 0
-1286 -1329 0
-1286 -1330 0
-1287 -1288 0
-1287 -1289 0
-1287 -1290 0
-1287 -1291 0
-1287 -1292 0
-1287 -1293 0
-1287 -1294 0
-1287 -1295 0
-1287 -1296 0
-1287 -1297 0
-1287 -1298 0
-1287 -1299 0
-1287 -1300 0
-1287 -1301 0
-1287 -1302 0
-1287 -1303 0
-1287 -1304 0
-1287 -1305 0
-1287 -1306 0
-1287 -1307 0
-1287 -1308 0
-1287 -1309 0
-1287 -1310 0
-1287 -1311 0
-1287 -1312 0
-1287 -1313 0
-1287 -1314 0
-1287 -1315 0
-1287 -1316 0
-1287 -1317 0
-1287 -1318 0
-1287 -1319 0
-1287 -1320 0
-1287 -1321 0
-1287 -1322 0
-1287 -1323 0
-1287 -1324 0
-1287 -1325 0
-1287 -1326 0
-1287 -1327 0
-1287 -1328 0
-1287 -1329 0
-1287 -1330 0
-1288 -1289 0
-1288 -1290 0
-1288 -1291 0
-1288 -1292 0
-1288 -1293 0
-1288 -1294 0
-1288 -1295 0
-1288 -1296 0
-1288 -1297 0
-1288 -1298 0
-1288 -1299 0
-1288 -1300 0
-1288 -1301 0
-1288 -1302 0
-1288 -1303 0
-1288 -1304 0
-1288 -1305 0
-1288 -1306 0
-1288 -1307 0
-1288 -1308 0
-1288 -1309 0
-1288 -1310 0
-1288 -1311 0
-1288 -1312 0
-1288 -1313 0
-1288 -1314 0
-1288 -1315 0
-1288 -1316 0
-1288 -1317 0
-1288 -1318 0
-1288 -1319 0
-1288 -1320 0
-1288 -1321 0
-1288 -1322 0
-1288 -1323 0
-1288 -1324 0
-1288 -1325 0
-1288 -1326 0
-1288 -1327 0
-1288 -1328 0
-1288 -1329 0
-1288 -1330 0
-1289 -1290 0
-1289 -1291 0
-1289 -1292 0
-1289 -1293 0
-1289 -1294 0
-1289 -1295 0
-1289 -1296 0
-1289 -1297 0
-1289 -1298 0
-1289 -1299 0
-1289 -1300 0
-1289 -1301 0
-1289 -1302 0
-1289 -1303 0
-1289 -1304 0
-1289 -1305 0
-1289 -1306 0
-1289 -1307 0
-1289 -1308 0
-1289 -1309 0
-1289 -1310 0
-1289 -1311 0
-1289 -1312 0
-1289 -1313 0
-1289 -1314 0
-1289 -1315 0
-1289 -1316 0
-1289 -1317 0
-1289 -1318 0
-1289 -1319 0
-1289 -1320 0
-1289 -1321 0
-1289 -1322 0
-1289 -1323 0
-1289 -1324 0
-1289 -1325 0
-1289 -1326 0
-1289 -1327 0
-1289 -1328 0
-1289 -1329 0
-1289 -1330 0
-1290 -1291 0
-1290 -1292 0
-1290 -1293 0
-1290 -1294 0
-1290 -1295 0
-1290 -1296 0
-1290 -1297 0
-1290 -1298 0
-1290 -1299 0
-1290 -1300 0
-1290 -1301 0
-1290 -1302 0
-1290 -1303 0
-1290 -1304 0
-1290 -1305 0
-1290 -1306 0
-1290 -1307 0
-1290 -1308 0
-1290 -1309 0
-1290 -1310 0
-1290 -1311 0
-1290 -1312 0
-1290 -1313 0
-1290 -1314 0
-1290 -1315 0
-1290 -1316 0
-1290 -1317 0
-1290 -1318 0
-1290 -1319 0
-1290 -1320 0
-1290 -1321 0
-1290 -1322 0
-1290 -1323 0
-1290 -1324 0
-1290 -1325 0
-1290 -1326 0
-1290 -1327 0
-1290 -1328 0
-1290 -1329 0
-1290 -1330 0
-1291 -1292 0
-1291 -1293 0
-1291 -1294 0
-1291 -1295 0
-1291 -1296 0
-1291 -1297 0
-1291 -1298 0
-1291 -1299 0
-1291 -1300 0
-1291 -1301 0
-1291 -1302 0
-1291 -1303 0
-1291 -1304 0
-1291 -1305 0
-1291 -1306 0
-1291 -1307 0
-1291 -1308 0
-1291 -1309 0
-1291 -1310 0
-1291 -1311 0
-1291 -1312 0
-1291 -1313 0
-1291 -1314 0
-1291 -1315 0
-1291 -1316 0
-1291 -1317 0
-1291 -1318 0
-1291 -1319 0
-1291 -1320 0
-1291 -1321 0
-1291 -1322 0
-1291 -1323 0
-1291 -1324 0
-1291 -1325 0
-1291 -1326 0
-1291 -1327 0
-1291 -1328 0
-1291 -1329 0
-1291 -1330 0
-1292 -1293 0
-1292 -1294 0
-1292 -1295 0
-1292 -1296 0
-1292 -1297 0
-1292 -1298 0
-1292 -1299 0
-1292 -1300 0
-1292 -1301 0
-1292 -1302 0
-1292 -1303 0
-1292 -1304 0
-1292 -1305 0
-1292 -1306 0
-1292 -1307 0
-1292 -1308 0
-1292 -1309 0
-1292 -1310 0
-1292 -1311 0
-1292 -1312 0
-1292 -1313 0
-1292 -1314 0
-1292 -1315 0
-1292 -1316 0
-1292 -1317 0
-1292 -1318 0
-1292 -1319 0
-1292 -1320 0
-1292 -1321 0
-1292 -1322 0
-1292 -1323 0
-1292 -1324 0
-1292 -1325 0
-1292 -1326 0
-1292 -1327 0
-1292 -1328 0
-1292 -1329 0
-1292 -1330 0
-1293 -1294 0
-1293 -1295 0
-1293 -1296 0
-1293 -1297 0
-1293 -1298 0
-1293 -1299 0
-1293 -1300 0
-1293 -1301 0
-1293 -1302 0
-1293 -1303 0
-1293 -1304 0
-1293 -1305 0
-1293 -1306 0
-1293 -1307 0
-1293 -1308 0
-1293 -1309 0
-1293 -1310 0
-1293 -1311 0
-1293 -1312 0
-1293 -1313 0
-1293 -1314 0
-1293 -1315 0
-1293 -1316 0
-1293 -1317 0
-1293 -1318 0
-1293 -1319 0
-1293 -1320 0
-1293 -1321 0
-1293 -1322 0
-1293 -1323 0
-1293 -1324 0
-1293 -1325 0
-1293 -1326 0
-1293 -1327 0
-1293 -1328 0
-1293 -1329 0
-1293 -1330 0
-1294 -1295 0
-1294 -1296 0
-1294 -1297 0
-1294 -1298 0
-1294 -1299 0
-1294 -1300 0
-1294 -1301 0
-1294 -1302 0
-1294 -1303 0
-1294 -1304 0
-1294 -1305 0
-1294 -1306 0
-1294 -1307 0
-1294 -1308 0
-1294 -1309 0
-1294 -1310 0
-1294 -1311 0
-1294 -1312 0
-1294 -1313 0
-1294 -1314 0
-1294 -1315 0
-1294 -1316 0
-1294 -1317 0
-1294 -1318 0
-1294 -1319 0
-1294 -1320 0
-1294 -1321 0
-1294 -1322 0
-1294 -1323 0
-1294 -1324 0
-1294 -1325 0
-1294 -1326 0
-1294 -1327 0
-1294 -1328 0
-1294 -1329 0
-1294 -1330 0
-1295 -1296 0
-1295 -1297 0
-1295 -1298 0
-1295 -1299 0
-1295 -1300 0
-1295 -1301 0
-1295 -1302 0
-1295 -1303 0
-1295 -1304 0
-1295 -1305 0
-1295 -1306 0
-1295 -1307 0
-1295 -1308 0
-1295 -1309 0
-1295 -1310 0
-1295 -1311 0
-1295 -1312 0
-1295 -1313 0
-1295 -1314 0
-1295 -1315 0
-1295 -1316 0
-1295 -1317 0
-1295 -1318 0
-1295 -1319 0
-1295 -1320 0
-1295 -1321 0
-1295 -1322 0
-1295 -1323 0
-1295 -1324 0
-1295 -1325 0
-1295 -1326 0
-1295 -1327 0
-1295 -1328 0
-1295 -1329 0
-1295 -1330 0
-1296 -1297 0
-1296 -1298 0
-1296 -1299 0
-1296 -1300 0
-1296 -1301 0
-1296 -1302 0
-1296 -1303 0
-1296 -1304 0
-1296 -1305 0
-1296 -1306 0
-1296 -1307 0
-1296 -1308 0
-1296 -1309 0
-1296 -1310 0
-1296 -1311 0
-1296 -1312 0
-1296 -1313 0
-1296 -1314 0
-1296 -1315 0
-1296 -1316 0
-1296 -1317 0
-1296 -1318 0
-1296 -1319 0
-1296 -1320 0
-1296 -1321 0
-1296 -1322 0
-1296 -1323 0
-1296 -1324 0
-1296 -1325 0
-1296 -1326 0
-1296 -1327 0
-1296 -1328 0
-1296 -1329 0
-1296 -1330 0
-1297 -1298 0
-1297 -1299 0
-1297 -1300 0
-1297 -1301 0
-1297 -1302 0
-1297 -1303 0
-1297 -1304 0
-1297 -1305 0
-1297 -1306 0
-1297 -1307 0
-1297 -1308 0
-1297 -1309 0
-1297 -1310 0
-1297 -1311 0
-1297 -1312 0
-1297 -1313 0
-1297 -1314 0
-1297 -1315 0
-1297 -1316 0
-1297 -1317 0
-1297 -1318 0
-1297 -1319 0
-1297 -1320 0
-1297 -1321 0
-1297 -1322 0
-1297 -1323 0
-1297 -1324 0
-1297 -1325 0
-1297 -1326 0
-1297 -1327 0
-1297 -1328 0
-1297 -1329 0
-1297 -1330 0
-1298 -1299 0
-1298 -1300 0
-1298 -1301 0
-1298 -1302 0
-1298 -1303 0
-1298 -1304 0
-1298 -1305 0
-1298 -1306 0
-1298 -1307 0
-1298 -1308 0
-1298 -1309 0
-1298 -1310 0
-1298 -1311 0
-1298 -1312 0
-1298 -1313 0
-1298 -1314 0
-1298 -1315 0
-1298 -1316 0
-1298 -1317 0
-1298 -1318 0
-1298 -1319 0
-1298 -1320 0
-1298 -1321 0
-1298 -1322 0
-1298 -1323 0
-1298 -1324 0
-1298 -1325 0
-1298 -1326 0
-1298 -1327 0
-1298 -1328 0
-1298 -1329 0
-1298 -1330 0
-1299 -1300 0
-1299 -1301 0
-1299 -1302 0
-1299 -1303 0
-1299 -1304 0
-1299 -1305 0
-1299 -1306 0
-1299 -1307 0
-1299 -1308 0
-1299 -1309 0
-1299 -1310 0
-1299 -1311 0
-1299 -1312 0
-1299 -1313 0
-1299 -1314 0
-1299 -1315 0
-1299 -1316 0
-1299 -1317 0
-1299 -1318 0
-1299 -1319 0
-1299 -1320 0
-1299 -1321 0
-1299 -1322 0
-1299 -1323 0
-1299 -1324 0
-1299 -1325 0
-1299 -1326 0
-1299 -1327 0
-1299 -1328 0
-1299 -1329 0
-1299 -1330 0
-1300 -1301 0
-1300 -1302 0
-1300 -1303 0
-1300 -1304 0
-1300 -1305 0
-1300 -1306 0
-1300 -1307 0
-1300 -1308 0
-1300 -1309 0
-1300 -1310 0
-1300 -1311 0
-1300 -1312 0
-1300 -1313 0
-1300 -1314 0
-1300 -1315 0
-1300 -1316 0
-1300 -1317 0
-1300 -1318 0
-1300 -1319 0
-1300 -1320 0
-1300 -1321 0
-1300 -1322 0
-1300 -1323 0
-1300 -1324 0
-1300 -1325 0
-1300 -1326 0
-1300 -1327 0
-1300 -1328 0
-1300 -1329 0
-1300 -1330 0
-1301 -1302 0
-1301 -1303 0
-1301 -1304 0
-1301 -1305 0
-1301 -1306 0
-1301 -1307 0
-1301 -1308 0
-1301 -1309 0
-1301 -1310 0
-1301 -1311 0
-1301 -1312 0
-1301 -1313 0
-1301 -1314 0
-1301 -1315 0
-1301 -1316 0
-1301 -1317 0
-1301 -1318 0
-1301 -1319 0
-1301 -1320 0
-1301 -1321 0
-1301 -1322 0
-1301 -1323 0
-1301 -1324 0
-1301 -1325 0
-1301 -1326 0
-1301 -1327 0
-1301 -1328 0
-1301 -1329 0
-1301 -1330 0
-1302 -1303 0
-1302 -1304 0
-1302 -1305 0
-1302 -1306 0
-1302 -1307 0
-1302 -1308 0
-1302 -1309 0
-1302 -1310 0
-1302 -1311 0
-1302 -1312 0
-1302 -1313 0
-1302 -1314 0
-1302 -1315 0
-1302 -1316 0
-1302 -1317 0
-1302 -1318 0
-1302 -1319 0
-1302 -1320 0
-1302 -1321 0
-1302 -1322 0
-1302 -1323 0
-1302 -1324 0
-1302 -1325 0
-1302 -1326 0
-1302 -1327 0
-1302 -1328 0
-1302 -1329 0
-1302 -1330 0
-1303 -1304 0
-1303 -1305 0
-1303 -1306 0
-1303 -1307 0
-1303 -1308 0
-1303 -1309 0
-1303 -1310 0
-1303 -1311 0
-1303 -1312 0
-1303 -1313 0
-1303 -1314 0
-1303 -1315 0
-1303 -1316 0
-1303 -1317 0
-1303 -1318 0
-1303 -1319 0
-1303 -1320 0
-1303 -1321 0
-1303 -1322 0
-1303 -1323 0
-1303 -1324 0
-1303 -1325 0
-1303 -1326 0
-1303 -1327 0
-1303 -1328 0
-1303 -1329 0
-1303 -1330 0
-1304 -1305 0
-1304 -1306 0
-1304 -1307 0
-1304 -1308 0
-1304 -1309 0
-1304 -1310 0
-1304 -1311 0
-1304 -1312 0
-1304 -1313 0
-1304 -1314 0
-1304 -1315 0
-1304 -1316 0
-1304 -1317 0
-1304 -1318 0
-1304 -1319 0
-1304 -1320 0
-1304 -1321 0
-1304 -1322 0
-1304 -1323 0
-1304 -1324 0
-1304 -1325 0
-1304 -1326 0
-1304 -1327 0
-1304 -1328 0
-1304 -1329 0
-1304 -1330 0
-1305 -1306 0
-1305 -1307 0
-1305 -1308 0
-1305 -1309 0
-1305 -1310 0
-1305 -1311 0
-1305 -1312 0
-1305 -1313 0
-1305 -1314 0
-1305 -1315 0
-1305 -1316 0
-1305 -1317 0
-1305 -1318 0
-1305 -1319 0
-1305 -1320 0
-1305 -1321 0
-1305 -1322 0
-1305 -1323 0
-1305 -1324 0
-1305 -1325 0
-1305 -1326 0
-1305 -1327 0
-1305 -1328 0
-1305 -1329 0
-1305 -1330 0
-1306 -1307 0
-1306 -1308 0
-1306 -1309 0
-1306 -1310 0
-1306 -1311 0
-1306 -1312 0
-1306 -1313 0
-1306 -1314 0
-1306 -1315 0
-1306 -1316 0
-1306 -1317 0
-1306 -1318 0
-1306 -1319 0
-1306 -1320 0
-1306 -1321 0
-1306 -1322 0
-1306 -1323 0
-1306 -1324 0
-1306 -1325 0
-1306 -1326 0
-1306 -1327 0
-1306 -1328 0
-1306 -1329 0
-1306 -1330 0
-1307 -1308 0
-1307 -1309 0
-1307 -1310 0
-1307 -1311 0
-1307 -1312 0
-1307 -1313 0
-1307 -1314 0
-1307 -1315 0
-1307 -1316 0
-1307 -1317 0
-1307 -1318 0
-1307 -1319 0
-1307 -1320 0
-1307 -1321 0
-1307 -1322 0
-1307 -1323 0
-1307 -1324 0
-1307 -1325 0
-1307 -1326 0
-1307 -1327 0
-1307 -1328 0
-1307 -1329 0
-1307 -1330 0
-1308 -1309 0
-1308 -1310 0
-1308 -1311 0
-1308 -1312 0
-1308 -1313 0
-1308 -1314 0
-1308 -1315 0
-1308 -1316 0
-1308 -1317 0
-1308 -1318 0
-1308 -1319 0
-1308 -1320 0
-1308 -1321 0
-1308 -1322 0
-1308 -1323 0
-1308 -1324 0
-1308 -1325 0
-1308 -1326 0
-1308 -1327 0
-1308 -1328 0
-1308 -1329 0
-1308 -1330 0
-1309 -1310 0
-1309 -1311 0
-1309 -1312 0
-1309 -1313 0
-1309 -1314 0
-1309 -1315 0
-1309 -1316 0
-1309 -1317 0
-1309 -1318 0
-1309 -1319 0
-1309 -1320 0
-1309 -1321 0
-1309 -1322 0
-1309 -1323 0
-1309 -1324 0
-1309 -1325 0
-1309 -1326 0
-1309 -1327 0
-1309 -1328 0
-1309 -1329 0
-1309 -1330 0
-1310 -1311 0
-1310 -1312 0
-1310 -1313 0
-1310 -1314 0
-1310 -1315 0
-1310 -1316 0
-1310 -1317 0
-1310 -1318 0
-1310 -1319 0
-1310 -1320 0
-1310 -1321 0
-1310 -1322 0
-1310 -1323 0
-1310 -1324 0
-1310 -1325 0
-1310 -1326 0
-1310 -1327 0
-1310 -1328 0
-1310 -1329 0
-1310 -1330 0
-1311 -1312 0
-1311 -1313 0
-1311 -1314 0
-1311 -1315 0
-1311 -1316 0
-1311 -1317 0
-1311 -1318 0
-1311 -1319 0
-1311 -1320 0
-1311 -1321 0
-1311 -1322 0
-1311 -1323 0
-1311 -1324 0
-1311 -1325 0
-1311 -1326 0
-1311 -1327 0
-1311 -1328 0
-1311 -1329 0
-1311 -1330 0
-1312 -1313 0
-1312 -1314 0
-1312 -1315 0
-1312 -1316 0
-1312 -1317 0
-1312 -1318 0
-1312 -1319 0
-1312 -1320 0
-1312 -1321 0
-1312 -1322 0
-1312 -1323 0
-1312 -1324 0
-1312 -1325 0
-1312 -1326 0
-1312 -1327 0
-1312 -1328 0
-1312 -1329 0
-1312 -1330 0
-1313 -1314 0
-1313 -1315 0
-1313 -1316 0
-1313 -1317 0
-1313 -1318 0
-1313 -1319 0
-1313 -1320 0
-1313 -1321 0
-1313 -1322 0
-1313 -1323 0
-1313 -1324 0
-1313 -1325 0
-1313 -1326 0
-1313 -1327 0
-1313 -1328 0
-1313 -1329 0
-1313 -1330 0
-1314 -1315 0
-1314 -1316 0
-1314 -1317 0
-1314 -1318 0
-1314 -1319 0
-1314 -1320 0
-1314 -1321 0
-1314 -1322 0
-1314 -1323 0
-1314 -1324 0
-1314 -1325 0
-1314 -1326 0
-1314 -1327 0
-1314 -1328 0
-1314 -1329 0
-1314 -1330 0
-1315 -1316 0
-1315 -1317 0
-1315 -1318 0
-1315 -1319 0
-1315 -1320 0
-1315 -1321 0
-1315 -1322 0
-1315 -1323 0
-1315 -1324 0
-1315 -1325 0
-1315 -1326 0
-1315 -1327 0
-1315 -1328 0
-1315 -1329 0
-1315 -1330 0
-1316 -1317 0
-1316 -1318 0
-1316 -1319 0
-1316 -1320 0
-1316 -1321 0
-1316 -1322 0
-1316 -1323 0
-1316 -1324 0
-1316 -1325 0
-1316 -1326 0
-1316 -1327 0
-1316 -1328 0
-1316 -1329 0
-1316 -1330 0
-1317 -1318 0
-1317 -1319 0
-1317 -1320 0
-1317 -1321 0
-1317 -1322 0
-1317 -1323 0
-1317 -1324 0
-1317 -1325 0
-1317 -1326 0
-1317 -1327 0
-1317 -1328 0
-1317 -1329 0
-1317 -1330 0
-1318 -1319 0
-1318 -1320 0
-1318 -1321 0
-1318 -1322 0
-1318 -1323 0
-1318 -1324 0
-1318 -1325 0
-1318 -1326 0
-1318 -1327 0
-1318 -1328 0
-1318 -1329 0
-1318 -1330 0
-1319 -1320 0
-1319 -1321 0
-1319 -1322 0
-1319 -1323 0
-1319 -1324 0
-1319 -1325 0
-1319 -1326 0
-1319 -1327 0
-1319 -1328 0
-1319 -1329 0
-1319 -1330 0
-1320 -1321 0
-1320 -1322 0
-1320 -1323 0
-1320 -1324 0
-1320 -1325 0
-1320 -1326 0
-1320 -1327 0
-1320 -1328 0
-1320 -1329 0
-1320 -1330 0
-1321 -1322 0
-1321 -1323 0
-1321 -1324 0
-1321 -1325 0
-1321 -1326 0
-1321 -1327 0
-1321 -1328 0
-1321 -1329 0
-1321 -1330 0
-1322 -1323 0
-1322 -1324 0
-1322 -1325 0
-1322 -1326 0
-1322 -1327 0
-1322 -1328 0
-1322 -1329 0
-1322 -1330 0
-1323 -1324 0
-1323 -1325 0
-1323 -1326 0
-1323 -1327 0
-1323 -1328 0
-1323 -1329 0
-1323 -1330 0
-1324 -1325 0
-1324 -1326 0
-1324 -1327 0
-1324 -1328 0
-1324 -1329 0
-1324 -1330 0
-1325 -1326 0
-1325 -1327 0
-1325 -1328 0
-1325 -1329 0
-1325 -1330 0
-1326 -1327 0
-1326 -1328 0
-1326 -1329 0
-1326 -1330 0
-1327 -1328 0
-1327 -1329 0
-1327 -1330 0
-1328 -1329 0
-1328 -1330 0
-1329 -1330 0
-1331 1247 1248 1249 1250 1251 1252 1253 1254 1255 1256 1257 1258 1259 1260 1261 1262 1263 1264 1265 1266 1267 1268 1269 1270 0
-1247 1331 0
-1248 1331 0
-1249 1331 0
-1250 1331 0
-1251 1331 0
-1252 1331 0
-1253 1331 0
-1254 1331 0
-1255 1331 0
-1256 1331 0
-1257 1331 0
-1258 1331 0
-1259 1331 0
-1260 1331 0
-1261 1331 0
-1262 1331 0
-1263 1331 0
-1264 1331 0
-1265 1331 0
-1266 1331 0
-1267 1331 0
-1268 1331 0
-1269 1331 0
-1270 1331 0
1331 -597 746 0
1331 597 -746 0
1331 -598 747 0
1331 598 -747 0
1331 -599 748 0
1331 599 -748 0
1331 -600 749 0
1331 600 -749 0
1331 -601 750 0
1331 601 -750 0
1331 -602 751 0
1331 602 -751 0
1331 -603 752 0
1331 603 -752 0
1331 -604 753 0
1331 604 -753 0
1331 -605 754 0
1331 605 -754 0
1331 -606 755 0
1331 606 -755 0
-1332 1271 1272 1273 1274 1275 1276 1277 1278 1279 1280 1281 1282 1283 1284 1285 1286 1287 1288 1289 1290 1291 1292 1293 1294 0
-1271 1332 0
-1272 1332 0
-1273 1332 0
-1274 1332 0
-1275 1332 0
-1276 1332 0
-1277 1332 0
-1278 1332 0
-1279 1332 0
-1280 1332 0
-1281 1332 0
-1282 1332 0
-1283 1332 0
-1284 1332 0
-1285 1332 0
-1286 1332 0
-1287 1332 0
-1288 1332 0
-1289 1332 0
-1290 1332 0
-1291 1332 0
-1292 1332 0
-1293 1332 0
-1294 1332 0
1332 -607 756 0
1332 607 -756 0
1332 -608 757 0
1332 608 -757 0
1332 -609 758 0
1332 609 -758 0
1332 -610 759 0
1332 610 -759 0
1332 -611 760 0
1332 611 -760 0
1332 -612 761 0
1332 612 -761 0
1332 -613 762 0
1332 613 -762 0
1332 -614 763 0
1332 614 -763 0
1332 -615 764 0
1332 615 -764 0
1332 -616 765 0
1332 616 -765 0
-1333 1295 1296 1297 1298 1299 1300 1301 1302 1303 1304 1305 1306 1307 1308 1309 1310 1311 1312 1313 1314 0
-1295 1333 0
-1296 1333 0
-1297 1333 0
-1298 1333 0
-1299 1333 0
-1300 1333 0
-1301 1333 0
-1302 1333 0
-1303 1333 0
-1304 1333 0
-1305 1333 0
-1306 1333 0
-1307 1333 0
-1308 1333 0
-1309 1333 0
-1310 1333 0
-1311 1333 0
-1312 1333 0
-1313 1333 0
-1314 1333 0
1333 -617 766 0
1333 617 -766 0
1333 -618 767 0
1333 618 -767 0
1333 -619 768 0
1333 619 -768 0
1333 -620 769 0
1333 620 -769 0
1333 -621 770 0
1333 621 -770 0
1333 -622 771 0
1333 622 -771 0
1333 -623 772 0
1333 623 -772 0
1333 -624 773 0
1333 624 -773 0
1333 -625 774 0
1333 625 -774 0
-1334 1315 1316 1317 1318 1319 1320 1321 1322 1323 1324 1325 1326 1327 1328 1329 1330 0
-1315 1334 0
-1316 1334 0
-1317 1334 0
-1318 1334 0
-1319 1334 0
-1320 1334 0
-1321 1334 0
-1322 1334 0
-1323 1334 0
-1324 1334 0
-1325 1334 0
-1326 1334 0
-1327 1334 0
-1328 1334 0
-1329 1334 0
-1330 1334 0
1334 -626 775 0
1334 626 -775 0
1334 -627 776 0
1334 627 -776 0
1334 -628 777 0
1334 628 -777 0
1334 -629 778 0
1334 629 -778 0
1334 -630 779 0
1334 630 -779 0
1334 -631 780 0
1334 631 -780 0
1334 -632 781 0
1334 632 -781 0
1334 -633 782 0
1334 633 -782 0
-1247 742 0
-1247 746 0
-1247 -608 0
-1247 -609 0
-1247 -610 0
-1247 -611 0
-1247 -612 0
-1247 -616 0
-1247 -613 753 0
-1247 -613 -597 -604 0
-1247 -613 -659 0
-1247 -613 -660 0
-1247 -613 -661 0
-1247 -613 -683 0
-1247 -613 -684 0
-1247 -613 -685 0
-1247 -613 -703 0
-1247 -613 -704 0
-1247 -613 -705 0
-1247 -614 754 0
-1247 -614 -597 -605 0
-1247 -614 -660 0
-1247 -614 -661 0
-1247 -614 -684 0
-1247 -614 -685 0
-1247 -614 -704 0
-1247 -614 -705 0
-1247 -615 755 0
-1247 -615 -597 -606 0
-1247 -615 -661 0
-1247 -615 -685 0
-1247 -615 -705 0
-1248 742 0
-1248 747 0
-1248 -607 0
-1248 -609 0
-1248 -610 0
-1248 -611 0
-1248 -612 0
-1248 -616 0
-1248 -613 753 0
-1248 -613 -598 -604 0
-1248 -613 -663 0
-1248 -613 -664 0
-1248 -613 -665 0
-1248 -613 -683 0
-1248 -613 -684 0
-1248 -613 -685 0
-1248 -613 -687 0
-1248 -613 -688 0
-1248 -613 -689 0
-1248 -613 -703 0
-1248 -613 -704 0
-1248 -613 -705 0
-1248 -613 -707 0
-1248 -613 -708 0
-1248 -613 -709 0
-1248 -614 754 0
-1248 -614 -598 -605 0
-1248 -614 -664 0
-1248 -614 -665 0
-1248 -614 -684 0
-1248 -614 -685 0
-1248 -614 -688 0
-1248 -614 -689 0
-1248 -614 -704 0
-1248 -614 -705 0
-1248 -614 -708 0
-1248 -614 -709 0
-1248 -615 755 0
-1248 -615 -598 -606 0
-1248 -615 -665 0
-1248 -615 -685 0
-1248 -615 -689 0
-1248 -615 -705 0
-1248 -615 -709 0
-1249 742 0
-1249 748 0
-1249 -607 0
-1249 -608 0
-1249 -610 0
-1249 -611 0
-1249 -612 0
-1249 -616 0
-1249 -613 753 0
-1249 -613 -599 -604 0
-1249 -613 -667 0
-1249 -613 -668 0
-1249 -613 -669 0
-1249 -613 -687 0
-1249 -613 -688 0
-1249 -613 -689 0
-1249 -613 -691 0
-1249 -613 -692 0
-1249 -613 -693 0
-1249 -613 -703 0
-1249 -613 -704 0
-1249 -613 -705 0
-1249 -613 -707 0
-1249 -613 -708 0
-1249 -613 -709 0
-1249 -613 -711 0
-1249 -613 -712 0
-1249 -613 -713 0
-1249 -614 754 0
-1249 -614 -599 -605 0
-1249 -614 -668 0
-1249 -614 -669 0
-1249 -614 -688 0
-1249 -614 -689 0
-1249 -614 -692 0
-1249 -614 -693 0
-1249 -614 -704 0
-1249 -614 -705 0
-1249 -614 -708 0
-1249 -614 -709 0
-1249 -614 -712 0
-1249 -614 -713 0
-1249 -615 755 0
-1249 -615 -599 -606 0
-1249 -615 -669 0
-1249 -615 -689 0
-1249 -615 -693 0
-1249 -615 -705 0
-1249 -615 -709 0
-1249 -615 -713 0
-1250 742 0
-1250 749 0
-1250 -607 0
-1250 -608 0
-1250 -609 0
-1250 -611 0
-1250 -612 0
-1250 -616 0
-1250 -613 753 0
-1250 -613 -600 -604 0
-1250 -613 -671 0
-1250 -613 -672 0
-1250 -613 -673 0
-1250 -613 -691 0
-1250 -613 -692 0
-1250 -613 -693 0
-1250 -613 -695 0
-1250 -613 -696 0
-1250 -613 -697 0
-1250 -613 -707 0
-1250 -613 -708 0
-1250 -613 -709 0
-1250 -613 -711 0
-1250 -613 -712 0
-1250 -613 -713 0
-1250 -613 -715 0
-1250 -613 -716 0
-1250 -613 -717 0
-1250 -614 754 0
-1250 -614 -600 -605 0
-1250 -614 -672 0
-1250 -614 -673 0
-1250 -614 -692 0
-1250 -614 -693 0
-1250 -614 -696 0
-1250 -614 -697 0
-1250 -614 -708 0
-1250 -614 -709 0
-1250 -614 -712 0
-1250 -614 -713 0
-1250 -614 -716 0
-1250 -614 -717 0
-1250 -615 755 0
-1250 -615 -600 -606 0
-1250 -615 -673 0
-1250 -615 -693 0
-1250 -615 -697 0
-1250 -615 -709 0
-1250 -615 -713 0
-1250 -615 -717 0
-1251 742 0
-1251 750 0
-1251 -607 0
-1251 -608 0
-1251 -609 0
-1251 -610 0
-1251 -612 0
-1251 -616 0
-1251 -613 753 0
-1251 -613 -601 -604 0
-1251 -613 -675 0
-1251 -613 -676 0
-1251 -613 -677 0
-1251 -613 -695 0
-1251 -613 -696 0
-1251 -613 -697 0
-1251 -613 -699 0
-1251 -613 -700 0
-1251 -613 -701 0
-1251 -613 -711 0
-1251 -613 -712 0
-1251 -613 -713 0
-1251 -613 -715 0
-1251 -613 -716 0
-1251 -613 -717 0
-1251 -614 754 0
-1251 -614 -601 -605 0
-1251 -614 -676 0
-1251 -614 -677 0
-1251 -614 -696 0
-1251 -614 -697 0
-1251 -614 -700 0
-1251 -614 -701 0
-1251 -614 -712 0
-1251 -614 -713 0
-1251 -614 -716 0
-1251 -614 -717 0
-1251 -615 755 0
-1251 -615 -601 -606 0
-1251 -615 -677 0
-1251 -615 -697 0
-1251 -615 -701 0
-1251 -615 -713 0
-1251 -615 -717 0
-1252 742 0
-1252 751 0
-1252 -607 0
-1252 -608 0
-1252 -609 0
-1252 -610 0
-1252 -611 0
-1252 -616 0
-1252 -613 753 0
-1252 -613 -602 -604 0
-1252 -613 -679 0
-1252 -613 -680 0
-1252 -613 -681 0
-1252 -613 -699 0
-1252 -613 -700 0
-1252 -613 -701 0
-1252 -613 -715 0
-1252 -613 -716 0
-1252 -613 -717 0
-1252 -614 754 0
-1252 -614 -602 -605 0
-1252 -614 -680 0
-1252 -614 -681 0
-1252 -614 -700 0
-1252 -614 -701 0
-1252 -614 -716 0
-1252 -614 -717 0
-1252 -615 755 0
-1252 -615 -602 -606 0
-1252 -615 -681 0
-1252 -615 -701 0
-1252 -615 -717 0
-1253 742 0
-1253 746 0
-1253 -618 0
-1253 -619 0
-1253 -620 0
-1253 -621 0
-1253 -625 0
-1253 -622 753 0
-1253 -622 -597 -604 0
-1253 -622 -659 0
-1253 -622 -660 0
-1253 -622 -661 0
-1253 -622 -683 0
-1253 -622 -684 0
-1253 -622 -685 0
-1253 -622 -703 0
-1253 -622 -704 0
-1253 -622 -705 0
-1253 -623 754 0
-1253 -623 -597 -605 0
-1253 -623 -660 0
-1253 -623 -661 0
-1253 -623 -684 0
-1253 -623 -685 0
-1253 -623 -704 0
-1253 -623 -705 0
-1253 -624 755 0
-1253 -624 -597 -606 0
-1253 -624 -661 0
-1253 -624 -685 0
-1253 -624 -705 0
-1254 742 0
-1254 747 0
-1254 -619 0
-1254 -620 0
-1254 -621 0
-1254 -625 0
-1254 -622 753 0
-1254 -622 -598 -604 0
-1254 -622 -663 0
-1254 -622 -664 0
-1254 -622 -665 0
-1254 -622 -683 0
-1254 -622 -684 0
-1254 -622 -685 0
-1254 -622 -687 0
-1254 -622 -688 0
-1254 -622 -689 0
-1254 -622 -703 0
-1254 -622 -704 0
-1254 -622 -705 0
-1254 -622 -707 0
-1254 -622 -708 0
-1254 -622 -709 0
-1254 -623 754 0
-1254 -623 -598 -605 0
-1254 -623 -664 0
-1254 -623 -665 0
-1254 -623 -684 0
-1254 -623 -685 0
-1254 -623 -688 0
-1254 -623 -689 0
-1254 -623 -704 0
-1254 -623 -705 0
-1254 -623 -708 0
-1254 -623 -709 0
-1254 -624 755 0
-1254 -624 -598 -606 0
-1254 -624 -665 0
-1254 -624 -685 0
-1254 -624 -689 0
-1254 -624 -705 0
-1254 -624 -709 0
-1255 742 0
-1255 748 0
-1255 -617 0
-1255 -620 0
-1255 -621 0
-1255 -625 0
-1255 -622 753 0
-1255 -622 -599 -604 0
-1255 -622 -667 0
-1255 -622 -668 0
-1255 -622 -669 0
-1255 -622 -687 0
-1255 -622 -688 0
-1255 -622 -689 0
-1255 -622 -691 0
-1255 -622 -692 0
-1255 -622 -693 0
-1255 -622 -703 0
-1255 -622 -704 0
-1255 -622 -705 0
-1255 -622 -707 0
-1255 -622 -708 0
-1255 -622 -709 0
-1255 -622 -711 0
-1255 -622 -712 0
-1255 -622 -713 0
-1255 -623 754 0
-1255 -623 -599 -605 0
-1255 -623 -668 0
-1255 -623 -669 0
-1255 -623 -688 0
-1255 -623 -689 0
-1255 -623 -692 0
-1255 -623 -693 0
-1255 -623 -704 0
-1255 -623 -705 0
-1255 -623 -708 0
-1255 -623 -709 0
-1255 -623 -712 0
-1255 -623 -713 0
-1255 -624 755 0
-1255 -624 -599 -606 0
-1255 -624 -669 0
-1255 -624 -689 0
-1255 -624 -693 0
-1255 -624 -705 0
-1255 -624 -709 0
-1255 -624 -713 0
-1256 742 0
-1256 749 0
-1256 -617 0
-1256 -618 0
-1256 -621 0
-1256 -625 0
-1256 -622 753 0
-1256 -622 -600 -604 0
-1256 -622 -671 0
-1256 -622 -672 0
-1256 -622 -673 0
-1256 -622 -691 0
-1256 -622 -692 0
-1256 -622 -693 0
-1256 -622 -695 0
-1256 -622 -696 0
-1256 -622 -697 0
-1256 -622 -707 0
-1256 -622 -708 0
-1256 -622 -709 0
-1256 -622 -711 0
-1256 -622 -712 0
-1256 -622 -713 0
-1256 -622 -715 0
-1256 -622 -716 0
-1256 -622 -717 0
-1256 -623 754 0
-1256 -623 -600 -605 0
-1256 -623 -672 0
-1256 -623 -673 0
-1256 -623 -692 0
-1256 -623 -693 0
-1256 -623 -696 0
-1256 -623 -697 0
-1256 -623 -708 0
-1256 -623 -709 0
-1256 -623 -712 0
-1256 -623 -713 0
-1256 -623 -716 0
-1256 -623 -717 0
-1256 -624 755 0
-1256 -624 -600 -606 0
-1256 -624 -673 0
-1256 -624 -693 0
-1256 -624 -697 0
-1256 -624 -709 0
-1256 -624 -713 0
-1256 -624 -717 0
-1257 742 0
-1257 750 0
-1257 -617 0
-1257 -618 0
-1257 -619 0
-1257 -625 0
-1257 -622 753 0
-1257 -622 -601 -604 0
-1257 -622 -675 0
-1257 -622 -676 0
-1257 -622 -677 0
-1257 -622 -695 0
-1257 -622 -696 0
-1257 -622 -697 0
-1257 -622 -699 0
-1257 -622 -700 0
-1257 -622 -701 0
-1257 -622 -711 0
-1257 -622 -712 0
-1257 -622 -713 0
-1257 -622 -715 0
-1257 -622 -716 0
-1257 -622 -717 0
-1257 -623 754 0
-1257 -623 -601 -605 0
-1257 -623 -676 0
-1257 -623 -677 0
-1257 -623 -696 0
-1257 -623 -697 0
-1257 -623 -700 0
-1257 -623 -701 0
-1257 -623 -712 0
-1257 -623 -713 0
-1257 -623 -716 0
-1257 -623 -717 0
-1257 -624 755 0
-1257 -624 -601 -606 0
-1257 -624 -677 0
-1257 -624 -697 0
-1257 -624 -701 0
-1257 -624 -713 0
-1257 -624 -717 0
-1258 742 0
-1258 751 0
-1258 -617 0
-1258 -618 0
-1258 -619 0
-1258 -620 0
-1258 -625 0
-1258 -622 753 0
-1258 -622 -602 -604 0
-1258 -622 -679 0
-1258 -622 -680 0
-1258 -622 -681 0
-1258 -622 -699 0
-1258 -622 -700 0
-1258 -622 -701 0
-1258 -622 -715 0
-1258 -622 -716 0
-1258 -622 -717 0
-1258 -623 754 0
-1258 -623 -602 -605 0
-1258 -623 -680 0
-1258 -623 -681 0
-1258 -623 -700 0
-1258 -623 -701 0
-1258 -623 -716 0
-1258 -623 -717 0
-1258 -624 755 0
-1258 -624 -602 -606 0
-1258 -624 -681 0
-1258 -624 -701 0
-1258 -624 -717 0
-1259 742 0
-1259 746 0
-1259 -627 0
-1259 -628 0
-1259 -629 0
-1259 -633 0
-1259 -630 753 0
-1259 -630 -597 -604 0
-1259 -630 -659 0
-1259 -630 -660 0
-1259 -630 -661 0
-1259 -630 -683 0
-1259 -630 -684 0
-1259 -630 -685 0
-1259 -630 -703 0
-1259 -630 -704 0
-1259 -630 -705 0
-1259 -631 754 0
-1259 -631 -597 -605 0
-1259 -631 -660 0
-1259 -631 -661 0
-1259 -631 -684 0
-1259 -631 -685 0
-1259 -631 -704 0
-1259 -631 -705 0
-1259 -632 755 0
-1259 -632 -597 -606 0
-1259 -632 -661 0
-1259 -632 -685 0
-1259 -632 -705 0
-1260 742 0
-1260 747 0
-1260 -628 0
-1260 -629 0
-1260 -633 0
-1260 -630 753 0
-1260 -630 -598 -604 0
-1260 -630 -663 0
-1260 -630 -664 0
-1260 -630 -665 0
-1260 -630 -683 0
-1260 -630 -684 0
-1260 -630 -685 0
-1260 -630 -687 0
-1260 -630 -688 0
-1260 -630 -689 0
-1260 -630 -703 0
-1260 -630 -704 0
-1260 -630 -705 0
-1260 -630 -707 0
-1260 -630 -708 0
-1260 -630 -709 0
-1260 -631 754 0
-1260 -631 -598 -605 0
-1260 -631 -664 0
-1260 -631 -665 0
-1260 -631 -684 0
-1260 -631 -685 0
-1260 -631 -688 0
-1260 -631 -689 0
-1260 -631 -704 0
-1260 -631 -705 0
-1260 -631 -708 0
-1260 -631 -709 0
-1260 -632 755 0
-1260 -632 -598 -606 0
-1260 -632 -665 0
-1260 -632 -685 0
-1260 -632 -689 0
-1260 -632 -705 0
-1260 -632 -709 0
-1261 742 0
-1261 748 0
-1261 -629 0
-1261 -633 0
-1261 -630 753 0
-1261 -630 -599 -604 0
-1261 -630 -667 0
-1261 -630 -668 0
-1261 -630 -669 0
-1261 -630 -687 0
-1261 -630 -688 0
-1261 -630 -689 0
-1261 -630 -691 0
-1261 -630 -692 0
-1261 -630 -693 0
-1261 -630 -703 0
-1261 -630 -704 0
-1261 -630 -705 0
-1261 -630 -707 0
-1261 -630 -708 0
-1261 -630 -709 0
-1261 -630 -711 0
-1261 -630 -712 0
-1261 -630 -713 0
-1261 -631 754 0
-1261 -631 -599 -605 0
-1261 -631 -668 0
-1261 -631 -669 0
-1261 -631 -688 0
-1261 -631 -689 0
-1261 -631 -692 0
-1261 -631 -693 0
-1261 -631 -704 0
-1261 -631 -705 0
-1261 -631 -708 0
-1261 -631 -709 0
-1261 -631 -712 0
-1261 -631 -713 0
-1261 -632 755 0
-1261 -632 -599 -606 0
-1261 -632 -669 0
-1261 -632 -689 0
-1261 -632 -693 0
-1261 -632 -705 0
-1261 -632 -709 0
-1261 -632 -713 0
-1262 742 0
-1262 749 0
-1262 -626 0
-1262 -633 0
-1262 -630 753 0
-1262 -630 -600 -604 0
-1262 -630 -671 0
-1262 -630 -672 0
-1262 -630 -673 0
-1262 -630 -691 0
-1262 -630 -692 0
-1262 -630 -693 0
-1262 -630 -695 0
-1262 -630 -696 0
-1262 -630 -697 0
-1262 -630 -707 0
-1262 -630 -708 0
-1262 -630 -709 0
-1262 -630 -711 0
-1262 -630 -712 0
-1262 -630 -713 0
-1262 -630 -715 0
-1262 -630 -716 0
-1262 -630 -717 0
-1262 -631 754 0
-1262 -631 -600 -605 0
-1262 -631 -672 0
-1262 -631 -673 0
-1262 -631 -692 0
-1262 -631 -693 0
-1262 -631 -696 0
-1262 -631 -697 0
-1262 -631 -708 0
-1262 -631 -709 0
-1262 -631 -712 0
-1262 -631 -713 0
-1262 -631 -716 0
-1262 -631 -717 0
-1262 -632 755 0
-1262 -632 -600 -606 0
-1262 -632 -673 0
-1262 -632 -693 0
-1262 -632 -697 0
-1262 -632 -709 0
-1262 -632 -713 0
-1262 -632 -717 0
-1263 742 0
-1263 750 0
-1263 -626 0
-1263 -627 0
-1263 -633 0
-1263 -630 753 0
-1263 -630 -601 -604 0
-1263 -630 -675 0
-1263 -630 -676 0
-1263 -630 -677 0
-1263 -630 -695 0
-1263 -630 -696 0
-1263 -630 -697 0
-1263 -630 -699 0
-1263 -630 -700 0
-1263 -630 -701 0
-1263 -630 -711 0
-1263 -630 -712 0
-1263 -630 -713 0
-1263 -630 -715 0
-1263 -630 -716 0
-1263 -630 -717 0
-1263 -631 754 0
-1263 -631 -601 -605 0
-1263 -631 -676 0
-1263 -631 -677 0
-1263 -631 -696 0
-1263 -631 -697 0
-1263 -631 -700 0
-1263 -631 -701 0
-1263 -631 -712 0
-1263 -631 -713 0
-1263 -631 -716 0
-1263 -631 -717 0
-1263 -632 755 0
-1263 -632 -601 -606 0
-1263 -632 -677 0
-1263 -632 -697 0
-1263 -632 -701 0
-1263 -632 -713 0
-1263 -632 -717 0
-1264 742 0
-1264 751 0
-1264 -626 0
-1264 -627 0
-1264 -628 0
-1264 -633 0
-1264 -630 753 0
-1264 -630 -602 -604 0
-1264 -630 -679 0
-1264 -630 -680 0
-1264 -630 -681 0
-1264 -630 -699 0
-1264 -630 -700 0
-1264 -630 -701 0
-1264 -630 -715 0
-1264 -630 -716 0
-1264 -630 -717 0
-1264 -631 754 0
-1264 -631 -602 -605 0
-1264 -631 -680 0
-1264 -631 -681 0
-1264 -631 -700 0
-1264 -631 -701 0
-1264 -631 -716 0
-1264 -631 -717 0
-1264 -632 755 0
-1264 -632 -602 -606 0
-1264 -632 -681 0
-1264 -632 -701 0
-1264 -632 -717 0
-1265 742 0
-1265 746 0
-1265 752 0
-1265 -597 -603 0
-1265 -658 0
-1265 -659 0
-1265 -660 0
-1265 -661 0
-1265 -682 0
-1265 -683 0
-1265 -684 0
-1265 -685 0
-1265 -702 0
-1265 -703 0
-1265 -704 0
-1265 -705 0
-1266 742 0
-1266 747 0
-1266 752 0
-1266 -598 -603 0
-1266 -662 0
-1266 -663 0
-1266 -664 0
-1266 -665 0
-1266 -682 0
-1266 -683 0
-1266 -684 0
-1266 -685 0
-1266 -686 0
-1266 -687 0
-1266 -688 0
-1266 -689 0
-1266 -702 0
-1266 -703 0
-1266 -704 0
-1266 -705 0
-1266 -706 0
-1266 -707 0
-1266 -708 0
-1266 -709 0
-1267 742 0
-1267 748 0
-1267 752 0
-1267 -599 -603 0
-1267 -666 0
-1267 -667 0
-1267 -668 0
-1267 -669 0
-1267 -686 0
-1267 -687 0
-1267 -688 0
-1267 -689 0
-1267 -690 0
-1267 -691 0
-1267 -692 0
-1267 -693 0
-1267 -702 0
-1267 -703 0
-1267 -704 0
-1267 -705 0
-1267 -706 0
-1267 -707 0
-1267 -708 0
-1267 -709 0
-1267 -710 0
-1267 -711 0
-1267 -712 0
-1267 -713 0
-1268 742 0
-1268 749 0
-1268 752 0
-1268 -600 -603 0
-1268 -670 0
-1268 -671 0
-1268 -672 0
-1268 -673 0
-1268 -690 0
-1268 -691 0
-1268 -692 0
-1268 -693 0
-1268 -694 0
-1268 -695 0
-1268 -696 0
-1268 -697 0
-1268 -706 0
-1268 -707 0
-1268 -708 0
-1268 -709 0
-1268 -710 0
-1268 -711 0
-1268 -712 0
-1268 -713 0
-1268 -714 0
-1268 -715 0
-1268 -716 0
-1268 -717 0
-1269 742 0
-1269 750 0
-1269 752 0
-1269 -601 -603 0
-1269 -674 0
-1269 -675 0
-1269 -676 0
-1269 -677 0
-1269 -694 0
-1269 -695 0
-1269 -696 0
-1269 -697 0
-1269 -698 0
-1269 -699 0
-1269 -700 0
-1269 -701 0
-1269 -710 0
-1269 -711 0
-1269 -712 0
-1269 -713 0
-1269 -714 0
-1269 -715 0
-1269 -716 0
-1269 -717 0
-1270 742 0
-1270 751 0
-1270 752 0
-1270 -602 -603 0
-1270 -678 0
-1270 -679 0
-1270 -680 0
-1270 -681 0
-1270 -698 0
-1270 -699 0
-1270 -700 0
-1270 -701 0
-1270 -714 0
-1270 -715 0
-1270 -716 0
-1270 -717 0
-1271 743 0
-1271 756 0
-1271 -598 0
-1271 -599 0
-1271 -600 0
-1271 -601 0
-1271 -602 0
-1271 -606 0
-1271 -603 763 0
-1271 -603 -607 -614 0
-1271 -603 -635 0
-1271 -603 -636 0
-1271 -603 -637 0
-1271 -603 -683 0
-1271 -603 -684 0
-1271 -603 -685 0
-1271 -603 -703 0
-1271 -603 -704 0
-1271 -603 -705 0
-1271 -604 764 0
-1271 -604 -607 -615 0
-1271 -604 -636 0
-1271 -604 -637 0
-1271 -604 -684 0
-1271 -604 -685 0
-1271 -604 -704 0
-1271 -604 -705 0
-1271 -605 765 0
-1271 -605 -607 -616 0
-1271 -605 -637 0
-1271 -605 -685 0
-1271 -605 -705 0
-1272 743 0
-1272 757 0
-1272 -597 0
-1272 -599 0
-1272 -600 0
-1272 -601 0
-1272 -602 0
-1272 -606 0
-1272 -603 763 0
-1272 -603 -608 -614 0
-1272 -603 -639 0
-1272 -603 -640 0
-1272 -603 -641 0
-1272 -603 -683 0
-1272 -603 -684 0
-1272 -603 -685 0
-1272 -603 -687 0
-1272 -603 -688 0
-1272 -603 -689 0
-1272 -603 -703 0
-1272 -603 -704 0
-1272 -603 -705 0
-1272 -603 -707 0
-1272 -603 -708 0
-1272 -603 -709 0
-1272 -604 764 0
-1272 -604 -608 -615 0
-1272 -604 -640 0
-1272 -604 -641 0
-1272 -604 -684 0
-1272 -604 -685 0
-1272 -604 -688 0
-1272 -604 -689 0
-1272 -604 -704 0
-1272 -604 -705 0
-1272 -604 -708 0
-1272 -604 -709 0
-1272 -605 765 0
-1272 -605 -608 -616 0
-1272 -605 -641 0
-1272 -605 -685 0
-1272 -605 -689 0
-1272 -605 -705 0
-1272 -605 -709 0
-1273 743 0
-1273 758 0
-1273 -597 0
-1273 -598 0
-1273 -600 0
-1273 -601 0
-1273 -602 0
-1273 -606 0
-1273 -603 763 0
-1273 -603 -609 -614 0
-1273 -603 -643 0
-1273 -603 -644 0
-1273 -603 -645 0
-1273 -603 -687 0
-1273 -603 -688 0
-1273 -603 -689 0
-1273 -603 -691 0
-1273 -603 -692 0
-1273 -603 -693 0
-1273 -603 -703 0
-1273 -603 -704 0
-1273 -603 -705 0
-1273 -603 -707 0
-1273 -603 -708 0
-1273 -603 -709 0
-1273 -603 -711 0
-1273 -603 -712 0
-1273 -603 -713 0
-1273 -604 764 0
-1273 -604 -609 -615 0
-1273 -604 -644 0
-1273 -604 -645 0
-1273 -604 -688 0
-1273 -604 -689 0
-1273 -604 -692 0
-1273 -604 -693 0
-1273 -604 -704 0
-1273 -604 -705 0
-1273 -604 -708 0
-1273 -604 -709 0
-1273 -604 -712 0
-1273 -604 -713 0
-1273 -605 765 0
-1273 -605 -609 -616 0
-1273 -605 -645 0
-1273 -605 -689 0
-1273 -605 -693 0
-1273 -605 -705 0
-1273 -605 -709 0
-1273 -605 -713 0
-1274 743 0
-1274 759 0
-1274 -597 0
-1274 -598 0
-1274 -599 0
-1274 -601 0
-1274 -602 0
-1274 -606 0
-1274 -603 763 0
-1274 -603 -610 -614 0
-1274 -603 -647 0
-1274 -603 -648 0
-1274 -603 -649 0
-1274 -603 -691 0
-1274 -603 -692 0
-1274 -603 -693 0
-1274 -603 -695 0
-1274 -603 -696 0
-1274 -603 -697 0
-1274 -603 -707 0
-1274 -603 -708 0
-1274 -603 -709 0
-1274 -603 -711 0
-1274 -603 -712 0
-1274 -603 -713 0
-1274 -603 -715 0
-1274 -603 -716 0
-1274 -603 -717 0
-1274 -604 764 0
-1274 -604 -610 -615 0
-1274 -604 -648 0
-1274 -604 -649 0
-1274 -604 -692 0
-1274 -604 -693 0
-1274 -604 -696 0
-1274 -604 -697 0
-1274 -604 -708 0
-1274 -604 -709 0
-1274 -604 -712 0
-1274 -604 -713 0
-1274 -604 -716 0
-1274 -604 -717 0
-1274 -605 765 0
-1274 -605 -610 -616 0
-1274 -605 -649 0
-1274 -605 -693 0
-1274 -605 -697 0
-1274 -605 -709 0
-1274 -605 -713 0
-1274 -605 -717 0
-1275 743 0
-1275 760 0
-1275 -597 0
-1275 -598 0
-1275 -599 0
-1275 -600 0
-1275 -602 0
-1275 -606 0
-1275 -603 763 0
-1275 -603 -611 -614 0
-1275 -603 -651 0
-1275 -603 -652 0
-1275 -603 -653 0
-1275 -603 -695 0
-1275 -603 -696 0
-1275 -603 -697 0
-1275 -603 -699 0
-1275 -603 -700 0
-1275 -603 -701 0
-1275 -603 -711 0
-1275 -603 -712 0
-1275 -603 -713 0
-1275 -603 -715 0
-1275 -603 -716 0
-1275 -603 -717 0
-1275 -604 764 0
-1275 -604 -611 -615 0
-1275 -604 -652 0
-1275 -604 -653 0
-1275 -604 -696 0
-1275 -604 -697 0
-1275 -604 -700 0
-1275 -604 -701 0
-1275 -604 -712 0
-1275 -604 -713 0
-1275 -604 -716 0
-1275 -604 -717 0
-1275 -605 765 0
-1275 -605 -611 -616 0
-1275 -605 -653 0
-1275 -605 -697 0
-1275 -605 -701 0
-1275 -605 -713 0
-1275 -605 -717 0
-1276 743 0
-1276 761 0
-1276 -597 0
-1276 -598 0
-1276 -599 0
-1276 -600 0
-1276 -601 0
-1276 -606 0
-1276 -603 763 0
-1276 -603 -612 -614 0
-1276 -603 -655 0
-1276 -603 -656 0
-1276 -603 -657 0
-1276 -603 -699 0
-1276 -603 -700 0
-1276 -603 -701 0
-1276 -603 -715 0
-1276 -603 -716 0
-1276 -603 -717 0
-1276 -604 764 0
-1276 -604 -612 -615 0
-1276 -604 -656 0
-1276 -604 -657 0
-1276 -604 -700 0
-1276 -604 -701 0
-1276 -604 -716 0
-1276 -604 -717 0
-1276 -605 765 0
-1276 -605 -612 -616 0
-1276 -605 -657 0
-1276 -605 -701 0
-1276 -605 -717 0
-1277 743 0
-1277 756 0
-1277 -618 0
-1277 -619 0
-1277 -620 0
-1277 -621 0
-1277 -625 0
-1277 -622 763 0
-1277 -622 -607 -614 0
-1277 -622 -635 0
-1277 -622 -636 0
-1277 -622 -637 0
-1277 -622 -683 0
-1277 -622 -684 0
-1277 -622 -685 0
-1277 -622 -703 0
-1277 -622 -704 0
-1277 -622 -705 0
-1277 -623 764 0
-1277 -623 -607 -615 0
-1277 -623 -636 0
-1277 -623 -637 0
-1277 -623 -684 0
-1277 -623 -685 0
-1277 -623 -704 0
-1277 -623 -705 0
-1277 -624 765 0
-1277 -624 -607 -616 0
-1277 -624 -637 0
-1277 -624 -685 0
-1277 -624 -705 0
-1278 743 0
-1278 757 0
-1278 -619 0
-1278 -620 0
-1278 -621 0
-1278 -625 0
-1278 -622 763 0
-1278 -622 -608 -614 0
-1278 -622 -639 0
-1278 -622 -640 0
-1278 -622 -641 0
-1278 -622 -683 0
-1278 -622 -684 0
-1278 -622 -685 0
-1278 -622 -687 0
-1278 -622 -688 0
-1278 -622 -689 0
-1278 -622 -703 0
-1278 -622 -704 0
-1278 -622 -705 0
-1278 -622 -707 0
-1278 -622 -708 0
-1278 -622 -709 0
-1278 -623 764 0
-1278 -623 -608 -615 0
-1278 -623 -640 0
-1278 -623 -641 0
-1278 -623 -684 0
-1278 -623 -685 0
-1278 -623 -688 0
-1278 -623 -689 0
-1278 -623 -704 0
-1278 -623 -705 0
-1278 -623 -708 0
-1278 -623 -709 0
-1278 -624 765 0
-1278 -624 -608 -616 0
-1278 -624 -641 0
-1278 -624 -685 0
-1278 -624 -689 0
-1278 -624 -705 0
-1278 -624 -709 0
-1279 743 0
-1279 758 0
-1279 -617 0
-1279 -620 0
-1279 -621 0
-1279 -625 0
-1279 -622 763 0
-1279 -622 -609 -614 0
-1279 -622 -643 0
-1279 -622 -644 0
-1279 -622 -645 0
-1279 -622 -687 0
-1279 -622 -688 0
-1279 -622 -689 0
-1279 -622 -691 0
-1279 -622 -692 0
-1279 -622 -693 0
-1279 -622 -703 0
-1279 -622 -704 0
-1279 -622 -705 0
-1279 -622 -707 0
-1279 -622 -708 0
-1279 -622 -709 0
-1279 -622 -711 0
-1279 -622 -712 0
-1279 -622 -713 0
-1279 -623 764 0
-1279 -623 -609 -615 0
-1279 -623 -644 0
-1279 -623 -645 0
-1279 -623 -688 0
-1279 -623 -689 0
-1279 -623 -692 0
-1279 -623 -693 0
-1279 -623 -704 0
-1279 -623 -705 0
-1279 -623 -708 0
-1279 -623 -709 0
-1279 -623 -712 0
-1279 -623 -713 0
-1279 -624 765 0
-1279 -624 -609 -616 0
-1279 -624 -645 0
-1279 -624 -689 0
-1279 -624 -693 0
-1279 -624 -705 0
-1279 -624 -709 0
-1279 -624 -713 0
-1280 743 0
-1280 759 0
-1280 -617 0
-1280 -618 0
-1280 -621 0
-1280 -625 0
-1280 -622 763 0
-1280 -622 -610 -614 0
-1280 -622 -647 0
-1280 -622 -648 0
-1280 -622 -649 0
-1280 -622 -691 0
-1280 -622 -692 0
-1280 -622 -693 0
-1280 -622 -695 0
-1280 -622 -696 0
-1280 -622 -697 0
-1280 -622 -707 0
-1280 -622 -708 0
-1280 -622 -709 0
-1280 -622 -711 0
-1280 -622 -712 0
-1280 -622 -713 0
-1280 -622 -715 0
-1280 -622 -716 0
-1280 -622 -717 0
-1280 -623 764 0
-1280 -623 -610 -615 0
-1280 -623 -648 0
-1280 -623 -649 0
-1280 -623 -692 0
-1280 -623 -693 0
-1280 -623 -696 0
-1280 -623 -697 0
-1280 -623 -708 0
-1280 -623 -709 0
-1280 -623 -712 0
-1280 -623 -713 0
-1280 -623 -716 0
-1280 -623 -717 0
-1280 -624 765 0
-1280 -624 -610 -616 0
-1280 -624 -649 0
-1280 -624 -693 0
-1280 -624 -697 0
-1280 -624 -709 0
-1280 -624 -713 0
-1280 -624 -717 0
-1281 743 0
-1281 760 0
-1281 -617 0
-1281 -618 0
-1281 -619 0
-1281 -625 0
-1281 -622 763 0
-1281 -622 -611 -614 0
-1281 -622 -651 0
-1281 -622 -652 0
-1281 -622 -653 0
-1281 -622 -695 0
-1281 -622 -696 0
-1281 -622 -697 0
-1281 -622 -699 0
-1281 -622 -700 0
-1281 -622 -701 0
-1281 -622 -711 0
-1281 -622 -712 0
-1281 -622 -713 0
-1281 -622 -715 0
-1281 -622 -716 0
-1281 -622 -717 0
-1281 -623 764 0
-1281 -623 -611 -615 0
-1281 -623 -652 0
-1281 -623 -653 0
-1281 -623 -696 0
-1281 -623 -697 0
-1281 -623 -700 0
-1281 -623 -701 0
-1281 -623 -712 0
-1281 -623 -713 0
-1281 -623 -716 0
-1281 -623 -717 0
-1281 -624 765 0
-1281 -624 -611 -616 0
-1281 -624 -653 0
-1281 -624 -697 0
-1281 -624 -701 0
-1281 -624 -713 0
-1281 -624 -717 0
-1282 743 0
-1282 761 0
-1282 -617 0
-1282 -618 0
-1282 -619 0
-1282 -620 0
-1282 -625 0
-1282 -622 763 0
-1282 -622 -612 -614 0
-1282 -622 -655 0
-1282 -622 -656 0
-1282 -622 -657 0
-1282 -622 -699 0
-1282 -622 -700 0
-1282 -622 -701 0
-1282 -622 -715 0
-1282 -622 -716 0
-1282 -622 -717 0
-1282 -623 764 0
-1282 -623 -612 -615 0
-1282 -623 -656 0
-1282 -623 -657 0
-1282 -623 -700 0
-1282 -623 -701 0
-1282 -623 -716 0
-1282 -623 -717 0
-1282 -624 765 0
-1282 -624 -612 -616 0
-1282 -624 -657 0
-1282 -624 -701 0
-1282 -624 -717 0
-1283 743 0
-1283 756 0
-1283 -627 0
-1283 -628 0
-1283 -629 0
-1283 -633 0
-1283 -630 763 0
-1283 -630 -607 -614 0
-1283 -630 -635 0
-1283 -630 -636 0
-1283 -630 -637 0
-1283 -630 -683 0
-1283 -630 -684 0
-1283 -630 -685 0
-1283 -630 -703 0
-1283 -630 -704 0
-1283 -630 -705 0
-1283 -631 764 0
-1283 -631 -607 -615 0
-1283 -631 -636 0
-1283 -631 -637 0
-1283 -631 -684 0
-1283 -631 -685 0
-1283 -631 -704 0
-1283 -631 -705 0
-1283 -632 765 0
-1283 -632 -607 -616 0
-1283 -632 -637 0
-1283 -632 -685 0
-1283 -632 -705 0
-1284 743 0
-1284 757 0
-1284 -628 0
-1284 -629 0
-1284 -633 0
-1284 -630 763 0
-1284 -630 -608 -614 0
-1284 -630 -639 0
-1284 -630 -640 0
-1284 -630 -641 0
-1284 -630 -683 0
-1284 -630 -684 0
-1284 -630 -685 0
-1284 -630 -687 0
-1284 -630 -688 0
-1284 -630 -689 0
-1284 -630 -703 0
-1284 -630 -704 0
-1284 -630 -705 0
-1284 -630 -707 0
-1284 -630 -708 0
-1284 -630 -709 0
-1284 -631 764 0
-1284 -631 -608 -615 0
-1284 -631 -640 0
-1284 -631 -641 0
-1284 -631 -684 0
-1284 -631 -685 0
-1284 -631 -688 0
-1284 -631 -689 0
-1284 -631 -704 0
-1284 -631 -705 0
-1284 -631 -708 0
-1284 -631 -709 0
-1284 -632 765 0
-1284 -632 -608 -616 0
-1284 -632 -641 0
-1284 -632 -685 0
-1284 -632 -689 0
-1284 -632 -705 0
-1284 -632 -709 0
-1285 743 0
-1285 758 0
-1285 -629 0
-1285 -633 0
-1285 -630 763 0
-1285 -630 -609 -614 0
-1285 -630 -643 0
-1285 -630 -644 0
-1285 -630 -645 0
-1285 -630 -687 0
-1285 -630 -688 0
-1285 -630 -689 0
-1285 -630 -691 0
-1285 -630 -692 0
-1285 -630 -693 0
-1285 -630 -703 0
-1285 -630 -704 0
-1285 -630 -705 0
-1285 -630 -707 0
-1285 -630 -708 0
-1285 -630 -709 0
-1285 -630 -711 0
-1285 -630 -712 0
-1285 -630 -713 0
-1285 -631 764 0
-1285 -631 -609 -615 0
-1285 -631 -644 0
-1285 -631 -645 0
-1285 -631 -688 0
-1285 -631 -689 0
-1285 -631 -692 0
-1285 -631 -693 0
-1285 -631 -704 0
-1285 -631 -705 0
-1285 -631 -708 0
-1285 -631 -709 0
-1285 -631 -712 0
-1285 -631 -713 0
-1285 -632 765 0
-1285 -632 -609 -616 0
-1285 -632 -645 0
-1285 -632 -689 0
-1285 -632 -693 0
-1285 -632 -705 0
-1285 -632 -709 0
-1285 -632 -713 0
-1286 743 0
-1286 759 0
-1286 -626 0
-1286 -633 0
-1286 -630 763 0
-1286 -630 -610 -614 0
-1286 -630 -647 0
-1286 -630 -648 0
-1286 -630 -649 0
-1286 -630 -691 0
-1286 -630 -692 0
-1286 -630 -693 0
-1286 -630 -695 0
-1286 -630 -696 0
-1286 -630 -697 0
-1286 -630 -707 0
-1286 -630 -708 0
-1286 -630 -709 0
-1286 -630 -711 0
-1286 -630 -712 0
-1286 -630 -713 0
-1286 -630 -715 0
-1286 -630 -716 0
-1286 -630 -717 0
-1286 -631 764 0
-1286 -631 -610 -615 0
-1286 -631 -648 0
-1286 -631 -649 0
-1286 -631 -692 0
-1286 -631 -693 0
-1286 -631 -696 0
-1286 -631 -697 0
-1286 -631 -708 0
-1286 -631 -709 0
-1286 -631 -712 0
-1286 -631 -713 0
-1286 -631 -716 0
-1286 -631 -717 0
-1286 -632 765 0
-1286 -632 -610 -616 0
-1286 -632 -649 0
-1286 -632 -693 0
-1286 -632 -697 0
-1286 -632 -709 0
-1286 -632 -713 0
-1286 -632 -717 0
-1287 743 0
-1287 760 0
-1287 -626 0
-1287 -627 0
-1287 -633 0
-1287 -630 763 0
-1287 -630 -611 -614 0
-1287 -630 -651 0
-1287 -630 -652 0
-1287 -630 -653 0
-1287 -630 -695 0
-1287 -630 -696 0
-1287 -630 -697 0
-1287 -630 -699 0
-1287 -630 -700 0
-1287 -630 -701 0
-1287 -630 -711 0
-1287 -630 -712 0
-1287 -630 -713 0
-1287 -630 -715 0
-1287 -630 -716 0
-1287 -630 -717 0
-1287 -631 764 0
-1287 -631 -611 -615 0
-1287 -631 -652 0
-1287 -631 -653 0
-1287 -631 -696 0
-1287 -631 -697 0
-1287 -631 -700 0
-1287 -631 -701 0
-1287 -631 -712 0
-1287 -631 -713 0
-1287 -631 -716 0
-1287 -631 -717 0
-1287 -632 765 0
-1287 -632 -611 -616 0
-1287 -632 -653 0
-1287 -632 -697 0
-1287 -632 -701 0
-1287 -632 -713 0
-1287 -632 -717 0
-1288 743 0
-1288 761 0
-1288 -626 0
-1288 -627 0
-1288 -628 0
-1288 -633 0
-1288 -630 763 0
-1288 -630 -612 -614 0
-1288 -630 -655 0
-1288 -630 -656 0
-1288 -630 -657 0
-1288 -630 -699 0
-1288 -630 -700 0
-1288 -630 -701 0
-1288 -630 -715 0
-1288 -630 -716 0
-1288 -630 -717 0
-1288 -631 764 0
-1288 -631 -612 -615 0
-1288 -631 -656 0
-1288 -631 -657 0
-1288 -631 -700 0
-1288 -631 -701 0
-1288 -631 -716 0
-1288 -631 -717 0
-1288 -632 765 0
-1288 -632 -612 -616 0
-1288 -632 -657 0
-1288 -632 -701 0
-1288 -632 -717 0
-1289 743 0
-1289 756 0
-1289 762 0
-1289 -607 -613 0
-1289 -634 0
-1289 -635 0
-1289 -636 0
-1289 -637 0
-1289 -682 0
-1289 -683 0
-1289 -684 0
-1289 -685 0
-1289 -702 0
-1289 -703 0
-1289 -704 0
-1289 -705 0
-1290 743 0
-1290 757 0
-1290 762 0
-1290 -608 -613 0
-1290 -638 0
-1290 -639 0
-1290 -640 0
-1290 -641 0
-1290 -682 0
-1290 -683 0
-1290 -684 0
-1290 -685 0
-1290 -686 0
-1290 -687 0
-1290 -688 0
-1290 -689 0
-1290 -702 0
-1290 -703 0
-1290 -704 0
-1290 -705 0
-1290 -706 0
-1290 -707 0
-1290 -708 0
-1290 -709 0
-1291 743 0
-1291 758 0
-1291 762 0
-1291 -609 -613 0
-1291 -642 0
-1291 -643 0
-1291 -644 0
-1291 -645 0
-1291 -686 0
-1291 -687 0
-1291 -688 0
-1291 -689 0
-1291 -690 0
-1291 -691 0
-1291 -692 0
-1291 -693 0
-1291 -702 0
-1291 -703 0
-1291 -704 0
-1291 -705 0
-1291 -706 0
-1291 -707 0
-1291 -708 0
-1291 -709 0
-1291 -710 0
-1291 -711 0
-1291 -712 0
-1291 -713 0
-1292 743 0
-1292 759 0
-1292 762 0
-1292 -610 -613 0
-1292 -646 0
-1292 -647 0
-1292 -648 0
-1292 -649 0
-1292 -690 0
-1292 -691 0
-1292 -692 0
-1292 -693 0
-1292 -694 0
-1292 -695 0
-1292 -696 0
-1292 -697 0
-1292 -706 0
-1292 -707 0
-1292 -708 0
-1292 -709 0
-1292 -710 0
-1292 -711 0
-1292 -712 0
-1292 -713 0
-1292 -714 0
-1292 -715 0
-1292 -716 0
-1292 -717 0
-1293 743 0
-1293 760 0
-1293 762 0
-1293 -611 -613 0
-1293 -650 0
-1293 -651 0
-1293 -652 0
-1293 -653 0
-1293 -694 0
-1293 -695 0
-1293 -696 0
-1293 -697 0
-1293 -698 0
-1293 -699 0
-1293 -700 0
-1293 -701 0
-1293 -710 0
-1293 -711 0
-1293 -712 0
-1293 -713 0
-1293 -714 0
-1293 -715 0
-1293 -716 0
-1293 -717 0
-1294 743 0
-1294 761 0
-1294 762 0
-1294 -612 -613 0
-1294 -654 0
-1294 -655 0
-1294 -656 0
-1294 -657 0
-1294 -698 0
-1294 -699 0
-1294 -700 0
-1294 -701 0
-1294 -714 0
-1294 -715 0
-1294 -716 0
-1294 -717 0
-1295 744 0
-1295 766 0
-1295 -599 0
-1295 -600 0
-1295 -601 0
-1295 -602 0
-1295 -606 0
-1295 -603 772 0
-1295 -603 -617 -623 0
-1295 -603 -635 0
-1295 -603 -636 0
-1295 -603 -637 0
-1295 -603 -639 0
-1295 -603 -640 0
-1295 -603 -641 0
-1295 -603 -659 0
-1295 -603 -660 0
-1295 -603 -661 0
-1295 -603 -663 0
-1295 -603 -664 0
-1295 -603 -665 0
-1295 -603 -703 0
-1295 -603 -704 0
-1295 -603 -705 0
-1295 -603 -707 0
-1295 -603 -708 0
-1295 -603 -709 0
-1295 -604 773 0
-1295 -604 -617 -624 0
-1295 -604 -636 0
-1295 -604 -637 0
-1295 -604 -640 0
-1295 -604 -641 0
-1295 -604 -660 0
-1295 -604 -661 0
-1295 -604 -664 0
-1295 -604 -665 0
-1295 -604 -704 0
-1295 -604 -705 0
-1295 -604 -708 0
-1295 -604 -709 0
-1295 -605 774 0
-1295 -605 -617 -625 0
-1295 -605 -637 0
-1295 -605 -641 0
-1295 -605 -661 0
-1295 -605 -665 0
-1295 -605 -705 0
-1295 -605 -709 0
-1296 744 0
-1296 767 0
-1296 -597 0
-1296 -600 0
-1296 -601 0
-1296 -602 0
-1296 -606 0
-1296 -603 772 0
-1296 -603 -618 -623 0
-1296 -603 -639 0
-1296 -603 -640 0
-1296 -603 -641 0
-1296 -603 -643 0
-1296 -603 -644 0
-1296 -603 -645 0
-1296 -603 -663 0
-1296 -603 -664 0
-1296 -603 -665 0
-1296 -603 -667 0
-1296 -603 -668 0
-1296 -603 -669 0
-1296 -603 -703 0
-1296 -603 -704 0
-1296 -603 -705 0
-1296 -603 -707 0
-1296 -603 -708 0
-1296 -603 -709 0
-1296 -603 -711 0
-1296 -603 -712 0
-1296 -603 -713 0
-1296 -604 773 0
-1296 -604 -618 -624 0
-1296 -604 -640 0
-1296 -604 -641 0
-1296 -604 -644 0
-1296 -604 -645 0
-1296 -604 -664 0
-1296 -604 -665 0
-1296 -604 -668 0
-1296 -604 -669 0
-1296 -604 -704 0
-1296 -604 -705 0
-1296 -604 -708 0
-1296 -604 -709 0
-1296 -604 -712 0
-1296 -604 -713 0
-1296 -605 774 0
-1296 -605 -618 -625 0
-1296 -605 -641 0
-1296 -605 -645 0
-1296 -605 -665 0
-1296 -605 -669 0
-1296 -605 -705 0
-1296 -605 -709 0
-1296 -605 -713 0
-1297 744 0
-1297 768 0
-1297 -597 0
-1297 -598 0
-1297 -601 0
-1297 -602 0
-1297 -606 0
-1297 -603 772 0
-1297 -603 -619 -623 0
-1297 -603 -643 0
-1297 -603 -644 0
-1297 -603 -645 0
-1297 -603 -647 0
-1297 -603 -648 0
-1297 -603 -649 0
-1297 -603 -667 0
-1297 -603 -668 0
-1297 -603 -669 0
-1297 -603 -671 0
-1297 -603 -672 0
-1297 -603 -673 0
-1297 -603 -703 0
-1297 -603 -704 0
-1297 -603 -705 0
-1297 -603 -707 0
-1297 -603 -708 0
-1297 -603 -709 0
-1297 -603 -711 0
-1297 -603 -712 0
-1297 -603 -713 0
-1297 -603 -715 0
-1297 -603 -716 0
-1297 -603 -717 0
-1297 -604 773 0
-1297 -604 -619 -624 0
-1297 -604 -644 0
-1297 -604 -645 0
-1297 -604 -648 0
-1297 -604 -649 0
-1297 -604 -668 0
-1297 -604 -669 0
-1297 -604 -672 0
-1297 -604 -673 0
-1297 -604 -704 0
-1297 -604 -705 0
-1297 -604 -708 0
-1297 -604 -709 0
-1297 -604 -712 0
-1297 -604 -713 0
-1297 -604 -716 0
-1297 -604 -717 0
-1297 -605 774 0
-1297 -605 -619 -625 0
-1297 -605 -645 0
-1297 -605 -649 0
-1297 -605 -669 0
-1297 -605 -673 0
-1297 -605 -705 0
-1297 -605 -709 0
-1297 -605 -713 0
-1297 -605 -717 0
-1298 744 0
-1298 769 0
-1298 -597 0
-1298 -598 0
-1298 -599 0
-1298 -602 0
-1298 -606 0
-1298 -603 772 0
-1298 -603 -620 -623 0
-1298 -603 -647 0
-1298 -603 -648 0
-1298 -603 -649 0
-1298 -603 -651 0
-1298 -603 -652 0
-1298 -603 -653 0
-1298 -603 -671 0
-1298 -603 -672 0
-1298 -603 -673 0
-1298 -603 -675 0
-1298 -603 -676 0
-1298 -603 -677 0
-1298 -603 -707 0
-1298 -603 -708 0
-1298 -603 -709 0
-1298 -603 -711 0
-1298 -603 -712 0
-1298 -603 -713 0
-1298 -603 -715 0
-1298 -603 -716 0
-1298 -603 -717 0
-1298 -604 773 0
-1298 -604 -620 -624 0
-1298 -604 -648 0
-1298 -604 -649 0
-1298 -604 -652 0
-1298 -604 -653 0
-1298 -604 -672 0
-1298 -604 -673 0
-1298 -604 -676 0
-1298 -604 -677 0
-1298 -604 -708 0
-1298 -604 -709 0
-1298 -604 -712 0
-1298 -604 -713 0
-1298 -604 -716 0
-1298 -604 -717 0
-1298 -605 774 0
-1298 -605 -620 -625 0
-1298 -605 -649 0
-1298 -605 -653 0
-1298 -605 -673 0
-1298 -605 -677 0
-1298 -605 -709 0
-1298 -605 -713 0
-1298 -605 -717 0
-1299 744 0
-1299 770 0
-1299 -597 0
-1299 -598 0
-1299 -599 0
-1299 -600 0
-1299 -606 0
-1299 -603 772 0
-1299 -603 -621 -623 0
-1299 -603 -651 0
-1299 -603 -652 0
-1299 -603 -653 0
-1299 -603 -655 0
-1299 -603 -656 0
-1299 -603 -657 0
-1299 -603 -675 0
-1299 -603 -676 0
-1299 -603 -677 0
-1299 -603 -679 0
-1299 -603 -680 0
-1299 -603 -681 0
-1299 -603 -711 0
-1299 -603 -712 0
-1299 -603 -713 0
-1299 -603 -715 0
-1299 -603 -716 0
-1299 -603 -717 0
-1299 -604 773 0
-1299 -604 -621 -624 0
-1299 -604 -652 0
-1299 -604 -653 0
-1299 -604 -656 0
-1299 -604 -657 0
-1299 -604 -676 0
-1299 -604 -677 0
-1299 -604 -680 0
-1299 -604 -681 0
-1299 -604 -712 0
-1299 -604 -713 0
-1299 -604 -716 0
-1299 -604 -717 0
-1299 -605 774 0
-1299 -605 -621 -625 0
-1299 -605 -653 0
-1299 -605 -657 0
-1299 -605 -677 0
-1299 -605 -681 0
-1299 -605 -713 0
-1299 -605 -717 0
-1300 744 0
-1300 766 0
-1300 -609 0
-1300 -610 0
-1300 -611 0
-1300 -612 0
-1300 -616 0
-1300 -613 772 0
-1300 -613 -617 -623 0
-1300 -613 -635 0
-1300 -613 -636 0
-1300 -613 -637 0
-1300 -613 -639 0
-1300 -613 -640 0
-1300 -613 -641 0
-1300 -613 -659 0
-1300 -613 -660 0
-1300 -613 -661 0
-1300 -613 -663 0
-1300 -613 -664 0
-1300 -613 -665 0
-1300 -613 -703 0
-1300 -613 -704 0
-1300 -613 -705 0
-1300 -613 -707 0
-1300 -613 -708 0
-1300 -613 -709 0
-1300 -614 773 0
-1300 -614 -617 -624 0
-1300 -614 -636 0
-1300 -614 -637 0
-1300 -614 -640 0
-1300 -614 -641 0
-1300 -614 -660 0
-1300 -614 -661 0
-1300 -614 -664 0
-1300 -614 -665 0
-1300 -614 -704 0
-1300 -614 -705 0
-1300 -614 -708 0
-1300 -614 -709 0
-1300 -615 774 0
-1300 -615 -617 -625 0
-1300 -615 -637 0
-1300 -615 -641 0
-1300 -615 -661 0
-1300 -615 -665 0
-1300 -615 -705 0
-1300 -615 -709 0
-1301 744 0
-1301 767 0
-1301 -607 0
-1301 -610 0
-1301 -611 0
-1301 -612 0
-1301 -616 0
-1301 -613 772 0
-1301 -613 -618 -623 0
-1301 -613 -639 0
-1301 -613 -640 0
-1301 -613 -641 0
-1301 -613 -643 0
-1301 -613 -644 0
-1301 -613 -645 0
-1301 -613 -663 0
-1301 -613 -664 0
-1301 -613 -665 0
-1301 -613 -667 0
-1301 -613 -668 0
-1301 -613 -669 0
-1301 -613 -703 0
-1301 -613 -704 0
-1301 -613 -705 0
-1301 -613 -707 0
-1301 -613 -708 0
-1301 -613 -709 0
-1301 -613 -711 0
-1301 -613 -712 0
-1301 -613 -713 0
-1301 -614 773 0
-1301 -614 -618 -624 0
-1301 -614 -640 0
-1301 -614 -641 0
-1301 -614 -644 0
-1301 -614 -645 0
-1301 -614 -664 0
-1301 -614 -665 0
-1301 -614 -668 0
-1301 -614 -669 0
-1301 -614 -704 0
-1301 -614 -705 0
-1301 -614 -708 0
-1301 -614 -709 0
-1301 -614 -712 0
-1301 -614 -713 0
-1301 -615 774 0
-1301 -615 -618 -625 0
-1301 -615 -641 0
-1301 -615 -645 0
-1301 -615 -665 0
-1301 -615 -669 0
-1301 -615 -705 0
-1301 -615 -709 0
-1301 -615 -713 0
-1302 744 0
-1302 768 0
-1302 -607 0
-1302 -608 0
-1302 -611 0
-1302 -612 0
-1302 -616 0
-1302 -613 772 0
-1302 -613 -619 -623 0
-1302 -613 -643 0
-1302 -613 -644 0
-1302 -613 -645 0
-1302 -613 -647 0
-1302 -613 -648 0
-1302 -613 -649 0
-1302 -613 -667 0
-1302 -613 -668 0
-1302 -613 -669 0
-1302 -613 -671 0
-1302 -613 -672 0
-1302 -613 -673 0
-1302 -613 -703 0
-1302 -613 -704 0
-1302 -613 -705 0
-1302 -613 -707 0
-1302 -613 -708 0
-1302 -613 -709 0
-1302 -613 -711 0
-1302 -613 -712 0
-1302 -613 -713 0
-1302 -613 -715 0
-1302 -613 -716 0
-1302 -613 -717 0
-1302 -614 773 0
-1302 -614 -619 -624 0
-1302 -614 -644 0
-1302 -614 -645 0
-1302 -614 -648 0
-1302 -614 -649 0
-1302 -614 -668 0
-1302 -614 -669 0
-1302 -614 -672 0
-1302 -614 -673 0
-1302 -614 -704 0
-1302 -614 -705 0
-1302 -614 -708 0
-1302 -614 -709 0
-1302 -614 -712 0
-1302 -614 -713 0
-1302 -614 -716 0
-1302 -614 -717 0
-1302 -615 774 0
-1302 -615 -619 -625 0
-1302 -615 -645 0
-1302 -615 -649 0
-1302 -615 -669 0
-1302 -615 -673 0
-1302 -615 -705 0
-1302 -615 -709 0
-1302 -615 -713 0
-1302 -615 -717 0
-1303 744 0
-1303 769 0
-1303 -607 0
-1303 -608 0
-1303 -609 0
-1303 -612 0
-1303 -616 0
-1303 -613 772 0
-1303 -613 -620 -623 0
-1303 -613 -647 0
-1303 -613 -648 0
-1303 -613 -649 0
-1303 -613 -651 0
-1303 -613 -652 0
-1303 -613 -653 0
-1303 -613 -671 0
-1303 -613 -672 0
-1303 -613 -673 0
-1303 -613 -675 0
-1303 -613 -676 0
-1303 -613 -677 0
-1303 -613 -707 0
-1303 -613 -708 0
-1303 -613 -709 0
-1303 -613 -711 0
-1303 -613 -712 0
-1303 -613 -713 0
-1303 -613 -715 0
-1303 -613 -716 0
-1303 -613 -717 0
-1303 -614 773 0
-1303 -614 -620 -624 0
-1303 -614 -648 0
-1303 -614 -649 0
-1303 -614 -652 0
-1303 -614 -653 0
-1303 -614 -672 0
-1303 -614 -673 0
-1303 -614 -676 0
-1303 -614 -677 0
-1303 -614 -708 0
-1303 -614 -709 0
-1303 -614 -712 0
-1303 -614 -713 0
-1303 -614 -716 0
-1303 -614 -717 0
-1303 -615 774 0
-1303 -615 -620 -625 0
-1303 -615 -649 0
-1303 -615 -653 0
-1303 -615 -673 0
-1303 -615 -677 0
-1303 -615 -709 0
-1303 -615 -713 0
-1303 -615 -717 0
-1304 744 0
-1304 770 0
-1304 -607 0
-1304 -608 0
-1304 -609 0
-1304 -610 0
-1304 -616 0
-1304 -613 772 0
-1304 -613 -621 -623 0
-1304 -613 -651 0
-1304 -613 -652 0
-1304 -613 -653 0
-1304 -613 -655 0
-1304 -613 -656 0
-1304 -613 -657 0
-1304 -613 -675 0
-1304 -613 -676 0
-1304 -613 -677 0
-1304 -613 -679 0
-1304 -613 -680 0
-1304 -613 -681 0
-1304 -613 -711 0
-1304 -613 -712 0
-1304 -613 -713 0
-1304 -613 -715 0
-1304 -613 -716 0
-1304 -613 -717 0
-1304 -614 773 0
-1304 -614 -621 -624 0
-1304 -614 -652 0
-1304 -614 -653 0
-1304 -614 -656 0
-1304 -614 -657 0
-1304 -614 -676 0
-1304 -614 -677 0
-1304 -614 -680 0
-1304 -614 -681 0
-1304 -614 -712 0
-1304 -614 -713 0
-1304 -614 -716 0
-1304 -614 -717 0
-1304 -615 774 0
-1304 -615 -621 -625 0
-1304 -615 -653 0
-1304 -615 -657 0
-1304 -615 -677 0
-1304 -615 -681 0
-1304 -615 -713 0
-1304 -615 -717 0
-1305 744 0
-1305 766 0
-1305 -628 0
-1305 -629 0
-1305 -633 0
-1305 -630 772 0
-1305 -630 -617 -623 0
-1305 -630 -635 0
-1305 -630 -636 0
-1305 -630 -637 0
-1305 -630 -639 0
-1305 -630 -640 0
-1305 -630 -641 0
-1305 -630 -659 0
-1305 -630 -660 0
-1305 -630 -661 0
-1305 -630 -663 0
-1305 -630 -664 0
-1305 -630 -665 0
-1305 -630 -703 0
-1305 -630 -704 0
-1305 -630 -705 0
-1305 -630 -707 0
-1305 -630 -708 0
-1305 -630 -709 0
-1305 -631 773 0
-1305 -631 -617 -624 0
-1305 -631 -636 0
-1305 -631 -637 0
-1305 -631 -640 0
-1305 -631 -641 0
-1305 -631 -660 0
-1305 -631 -661 0
-1305 -631 -664 0
-1305 -631 -665 0
-1305 -631 -704 0
-1305 -631 -705 0
-1305 -631 -708 0
-1305 -631 -709 0
-1305 -632 774 0
-1305 -632 -617 -625 0
-1305 -632 -637 0
-1305 -632 -641 0
-1305 -632 -661 0
-1305 -632 -665 0
-1305 -632 -705 0
-1305 -632 -709 0
-1306 744 0
-1306 767 0
-1306 -629 0
-1306 -633 0
-1306 -630 772 0
-1306 -630 -618 -623 0
-1306 -630 -639 0
-1306 -630 -640 0
-1306 -630 -641 0
-1306 -630 -643 0
-1306 -630 -644 0
-1306 -630 -645 0
-1306 -630 -663 0
-1306 -630 -664 0
-1306 -630 -665 0
-1306 -630 -667 0
-1306 -630 -668 0
-1306 -630 -669 0
-1306 -630 -703 0
-1306 -630 -704 0
-1306 -630 -705 0
-1306 -630 -707 0
-1306 -630 -708 0
-1306 -630 -709 0
-1306 -630 -711 0
-1306 -630 -712 0
-1306 -630 -713 0
-1306 -631 773 0
-1306 -631 -618 -624 0
-1306 -631 -640 0
-1306 -631 -641 0
-1306 -631 -644 0
-1306 -631 -645 0
-1306 -631 -664 0
-1306 -631 -665 0
-1306 -631 -668 0
-1306 -631 -669 0
-1306 -631 -704 0
-1306 -631 -705 0
-1306 -631 -708 0
-1306 -631 -709 0
-1306 -631 -712 0
-1306 -631 -713 0
-1306 -632 774 0
-1306 -632 -618 -625 0
-1306 -632 -641 0
-1306 -632 -645 0
-1306 -632 -665 0
-1306 -632 -669 0
-1306 -632 -705 0
-1306 -632 -709 0
-1306 -632 -713 0
-1307 744 0
-1307 768 0
-1307 -633 0
-1307 -630 772 0
-1307 -630 -619 -623 0
-1307 -630 -643 0
-1307 -630 -644 0
-1307 -630 -645 0
-1307 -630 -647 0
-1307 -630 -648 0
-1307 -630 -649 0
-1307 -630 -667 0
-1307 -630 -668 0
-1307 -630 -669 0
-1307 -630 -671 0
-1307 -630 -672 0
-1307 -630 -673 0
-1307 -630 -703 0
-1307 -630 -704 0
-1307 -630 -705 0
-1307 -630 -707 0
-1307 -630 -708 0
-1307 -630 -709 0
-1307 -630 -711 0
-1307 -630 -712 0
-1307 -630 -713 0
-1307 -630 -715 0
-1307 -630 -716 0
-1307 -630 -717 0
-1307 -631 773 0
-1307 -631 -619 -624 0
-1307 -631 -644 0
-1307 -631 -645 0
-1307 -631 -648 0
-1307 -631 -649 0
-1307 -631 -668 0
-1307 -631 -669 0
-1307 -631 -672 0
-1307 -631 -673 0
-1307 -631 -704 0
-1307 -631 -705 0
-1307 -631 -708 0
-1307 -631 -709 0
-1307 -631 -712 0
-1307 -631 -713 0
-1307 -631 -716 0
-1307 -631 -717 0
-1307 -632 774 0
-1307 -632 -619 -625 0
-1307 -632 -645 0
-1307 -632 -649 0
-1307 -632 -669 0
-1307 -632 -673 0
-1307 -632 -705 0
-1307 -632 -709 0
-1307 -632 -713 0
-1307 -632 -717 0
-1308 744 0
-1308 769 0
-1308 -626 0
-1308 -633 0
-1308 -630 772 0
-1308 -630 -620 -623 0
-1308 -630 -647 0
-1308 -630 -648 0
-1308 -630 -649 0
-1308 -630 -651 0
-1308 -630 -652 0
-1308 -630 -653 0
-1308 -630 -671 0
-1308 -630 -672 0
-1308 -630 -673 0
-1308 -630 -675 0
-1308 -630 -676 0
-1308 -630 -677 0
-1308 -630 -707 0
-1308 -630 -708 0
-1308 -630 -709 0
-1308 -630 -711 0
-1308 -630 -712 0
-1308 -630 -713 0
-1308 -630 -715 0
-1308 -630 -716 0
-1308 -630 -717 0
-1308 -631 773 0
-1308 -631 -620 -624 0
-1308 -631 -648 0
-1308 -631 -649 0
-1308 -631 -652 0
-1308 -631 -653 0
-1308 -631 -672 0
-1308 -631 -673 0
-1308 -631 -676 0
-1308 -631 -677 0
-1308 -631 -708 0
-1308 -631 -709 0
-1308 -631 -712 0
-1308 -631 -713 0
-1308 -631 -716 0
-1308 -631 -717 0
-1308 -632 774 0
-1308 -632 -620 -625 0
-1308 -632 -649 0
-1308 -632 -653 0
-1308 -632 -673 0
-1308 -632 -677 0
-1308 -632 -709 0
-1308 -632 -713 0
-1308 -632 -717 0
-1309 744 0
-1309 770 0
-1309 -626 0
-1309 -627 0
-1309 -633 0
-1309 -630 772 0
-1309 -630 -621 -623 0
-1309 -630 -651 0
-1309 -630 -652 0
-1309 -630 -653 0
-1309 -630 -655 0
-1309 -630 -656 0
-1309 -630 -657 0
-1309 -630 -675 0
-1309 -630 -676 0
-1309 -630 -677 0
-1309 -630 -679 0
-1309 -630 -680 0
-1309 -630 -681 0
-1309 -630 -711 0
-1309 -630 -712 0
-1309 -630 -713 0
-1309 -630 -715 0
-1309 -630 -716 0
-1309 -630 -717 0
-1309 -631 773 0
-1309 -631 -621 -624 0
-1309 -631 -652 0
-1309 -631 -653 0
-1309 -631 -656 0
-1309 -631 -657 0
-1309 -631 -676 0
-1309 -631 -677 0
-1309 -631 -680 0
-1309 -631 -681 0
-1309 -631 -712 0
-1309 -631 -713 0
-1309 -631 -716 0
-1309 -631 -717 0
-1309 -632 774 0
-1309 -632 -621 -625 0
-1309 -632 -653 0
-1309 -632 -657 0
-1309 -632 -677 0
-1309 -632 -681 0
-1309 -632 -713 0
-1309 -632 -717 0
-1310 744 0
-1310 766 0
-1310 771 0
-1310 -617 -622 0
-1310 -634 0
-1310 -635 0
-1310 -636 0
-1310 -637 0
-1310 -638 0
-1310 -639 0
-1310 -640 0
-1310 -641 0
-1310 -658 0
-1310 -659 0
-1310 -660 0
-1310 -661 0
-1310 -662 0
-1310 -663 0
-1310 -664 0
-1310 -665 0
-1310 -702 0
-1310 -703 0
-1310 -704 0
-1310 -705 0
-1310 -706 0
-1310 -707 0
-1310 -708 0
-1310 -709 0
-1311 744 0
-1311 767 0
-1311 771 0
-1311 -618 -622 0
-1311 -638 0
-1311 -639 0
-1311 -640 0
-1311 -641 0
-1311 -642 0
-1311 -643 0
-1311 -644 0
-1311 -645 0
-1311 -662 0
-1311 -663 0
-1311 -664 0
-1311 -665 0
-1311 -666 0
-1311 -667 0
-1311 -668 0
-1311 -669 0
-1311 -702 0
-1311 -703 0
-1311 -704 0
-1311 -705 0
-1311 -706 0
-1311 -707 0
-1311 -708 0
-1311 -709 0
-1311 -710 0
-1311 -711 0
-1311 -712 0
-1311 -713 0
-1312 744 0
-1312 768 0
-1312 771 0
-1312 -619 -622 0
-1312 -642 0
-1312 -643 0
-1312 -644 0
-1312 -645 0
-1312 -646 0
-1312 -647 0
-1312 -648 0
-1312 -649 0
-1312 -666 0
-1312 -667 0
-1312 -668 0
-1312 -669 0
-1312 -670 0
-1312 -671 0
-1312 -672 0
-1312 -673 0
-1312 -702 0
-1312 -703 0
-1312 -704 0
-1312 -705 0
-1312 -706 0
-1312 -707 0
-1312 -708 0
-1312 -709 0
-1312 -710 0
-1312 -711 0
-1312 -712 0
-1312 -713 0
-1312 -714 0
-1312 -715 0
-1312 -716 0
-1312 -717 0
-1313 744 0
-1313 769 0
-1313 771 0
-1313 -620 -622 0
-1313 -646 0
-1313 -647 0
-1313 -648 0
-1313 -649 0
-1313 -650 0
-1313 -651 0
-1313 -652 0
-1313 -653 0
-1313 -670 0
-1313 -671 0
-1313 -672 0
-1313 -673 0
-1313 -674 0
-1313 -675 0
-1313 -676 0
-1313 -677 0
-1313 -706 0
-1313 -707 0
-1313 -708 0
-1313 -709 0
-1313 -710 0
-1313 -711 0
-1313 -712 0
-1313 -713 0
-1313 -714 0
-1313 -715 0
-1313 -716 0
-1313 -717 0
-1314 744 0
-1314 770 0
-1314 771 0
-1314 -621 -622 0
-1314 -650 0
-1314 -651 0
-1314 -652 0
-1314 -653 0
-1314 -654 0
-1314 -655 0
-1314 -656 0
-1314 -657 0
-1314 -674 0
-1314 -675 0
-1314 -676 0
-1314 -677 0
-1314 -678 0
-1314 -679 0
-1314 -680 0
-1314 -681 0
-1314 -710 0
-1314 -711 0
-1314 -712 0
-1314 -713 0
-1314 -714 0
-1314 -715 0
-1314 -716 0
-1314 -717 0
-1315 745 0
-1315 775 0
-1315 -600 0
-1315 -601 0
-1315 -602 0
-1315 -606 0
-1315 -603 780 0
-1315 -603 -626 -631 0
-1315 -603 -635 0
-1315 -603 -636 0
-1315 -603 -637 0
-1315 -603 -639 0
-1315 -603 -640 0
-1315 -603 -641 0
-1315 -603 -643 0
-1315 -603 -644 0
-1315 -603 -645 0
-1315 -603 -659 0
-1315 -603 -660 0
-1315 -603 -661 0
-1315 -603 -663 0
-1315 -603 -664 0
-1315 -603 -665 0
-1315 -603 -667 0
-1315 -603 -668 0
-1315 -603 -669 0
-1315 -603 -683 0
-1315 -603 -684 0
-1315 -603 -685 0
-1315 -603 -687 0
-1315 -603 -688 0
-1315 -603 -689 0
-1315 -603 -691 0
-1315 -603 -692 0
-1315 -603 -693 0
-1315 -604 781 0
-1315 -604 -626 -632 0
-1315 -604 -636 0
-1315 -604 -637 0
-1315 -604 -640 0
-1315 -604 -641 0
-1315 -604 -644 0
-1315 -604 -645 0
-1315 -604 -660 0
-1315 -604 -661 0
-1315 -604 -664 0
-1315 -604 -665 0
-1315 -604 -668 0
-1315 -604 -669 0
-1315 -604 -684 0
-1315 -604 -685 0
-1315 -604 -688 0
-1315 -604 -689 0
-1315 -604 -692 0
-1315 -604 -693 0
-1315 -605 782 0
-1315 -605 -626 -633 0
-1315 -605 -637 0
-1315 -605 -641 0
-1315 -605 -645 0
-1315 -605 -661 0
-1315 -605 -665 0
-1315 -605 -669 0
-1315 -605 -685 0
-1315 -605 -689 0
-1315 -605 -693 0
-1316 745 0
-1316 776 0
-1316 -597 0
-1316 -601 0
-1316 -602 0
-1316 -606 0
-1316 -603 780 0
-1316 -603 -627 -631 0
-1316 -603 -639 0
-1316 -603 -640 0
-1316 -603 -641 0
-1316 -603 -643 0
-1316 -603 -644 0
-1316 -603 -645 0
-1316 -603 -647 0
-1316 -603 -648 0
-1316 -603 -649 0
-1316 -603 -663 0
-1316 -603 -664 0
-1316 -603 -665 0
-1316 -603 -667 0
-1316 -603 -668 0
-1316 -603 -669 0
-1316 -603 -671 0
-1316 -603 -672 0
-1316 -603 -673 0
-1316 -603 -683 0
-1316 -603 -684 0
-1316 -603 -685 0
-1316 -603 -687 0
-1316 -603 -688 0
-1316 -603 -689 0
-1316 -603 -691 0
-1316 -603 -692 0
-1316 -603 -693 0
-1316 -603 -695 0
-1316 -603 -696 0
-1316 -603 -697 0
-1316 -604 781 0
-1316 -604 -627 -632 0
-1316 -604 -640 0
-1316 -604 -641 0
-1316 -604 -644 0
-1316 -604 -645 0
-1316 -604 -648 0
-1316 -604 -649 0
-1316 -604 -664 0
-1316 -604 -665 0
-1316 -604 -668 0
-1316 -604 -669 0
-1316 -604 -672 0
-1316 -604 -673 0
-1316 -604 -684 0
-1316 -604 -685 0
-1316 -604 -688 0
-1316 -604 -689 0
-1316 -604 -692 0
-1316 -604 -693 0
-1316 -604 -696 0
-1316 -604 -697 0
-1316 -605 782 0
-1316 -605 -627 -633 0
-1316 -605 -641 0
-1316 -605 -645 0
-1316 -605 -649 0
-1316 -605 -665 0
-1316 -605 -669 0
-1316 -605 -673 0
-1316 -605 -685 0
-1316 -605 -689 0
-1316 -605 -693 0
-1316 -605 -697 0
-1317 745 0
-1317 777 0
-1317 -597 0
-1317 -598 0
-1317 -602 0
-1317 -606 0
-1317 -603 780 0
-1317 -603 -628 -631 0
-1317 -603 -643 0
-1317 -603 -644 0
-1317 -603 -645 0
-1317 -603 -647 0
-1317 -603 -648 0
-1317 -603 -649 0
-1317 -603 -651 0
-1317 -603 -652 0
-1317 -603 -653 0
-1317 -603 -667 0
-1317 -603 -668 0
-1317 -603 -669 0
-1317 -603 -671 0
-1317 -603 -672 0
-1317 -603 -673 0
-1317 -603 -675 0
-1317 -603 -676 0
-1317 -603 -677 0
-1317 -603 -687 0
-1317 -603 -688 0
-1317 -603 -689 0
-1317 -603 -691 0
-1317 -603 -692 0
-1317 -603 -693 0
-1317 -603 -695 0
-1317 -603 -696 0
-1317 -603 -697 0
-1317 -603 -699 0
-1317 -603 -700 0
-1317 -603 -701 0
-1317 -604 781 0
-1317 -604 -628 -632 0
-1317 -604 -644 0
-1317 -604 -645 0
-1317 -604 -648 0
-1317 -604 -649 0
-1317 -604 -652 0
-1317 -604 -653 0
-1317 -604 -668 0
-1317 -604 -669 0
-1317 -604 -672 0
-1317 -604 -673 0
-1317 -604 -676 0
-1317 -604 -677 0
-1317 -604 -688 0
-1317 -604 -689 0
-1317 -604 -692 0
-1317 -604 -693 0
-1317 -604 -696 0
-1317 -604 -697 0
-1317 -604 -700 0
-1317 -604 -701 0
-1317 -605 782 0
-1317 -605 -628 -633 0
-1317 -605 -645 0
-1317 -605 -649 0
-1317 -605 -653 0
-1317 -605 -669 0
-1317 -605 -673 0
-1317 -605 -677 0
-1317 -605 -689 0
-1317 -605 -693 0
-1317 -605 -697 0
-1317 -605 -701 0
-1318 745 0
-1318 778 0
-1318 -597 0
-1318 -598 0
-1318 -599 0
-1318 -606 0
-1318 -603 780 0
-1318 -603 -629 -631 0
-1318 -603 -647 0
-1318 -603 -648 0
-1318 -603 -649 0
-1318 -603 -651 0
-1318 -603 -652 0
-1318 -603 -653 0
-1318 -603 -655 0
-1318 -603 -656 0
-1318 -603 -657 0
-1318 -603 -671 0
-1318 -603 -672 0
-1318 -603 -673 0
-1318 -603 -675 0
-1318 -603 -676 0
-1318 -603 -677 0
-1318 -603 -679 0
-1318 -603 -680 0
-1318 -603 -681 0
-1318 -603 -691 0
-1318 -603 -692 0
-1318 -603 -693 0
-1318 -603 -695 0
-1318 -603 -696 0
-1318 -603 -697 0
-1318 -603 -699 0
-1318 -603 -700 0
-1318 -603 -701 0
-1318 -604 781 0
-1318 -604 -629 -632 0
-1318 -604 -648 0
-1318 -604 -649 0
-1318 -604 -652 0
-1318 -604 -653 0
-1318 -604 -656 0
-1318 -604 -657 0
-1318 -604 -672 0
-1318 -604 -673 0
-1318 -604 -676 0
-1318 -604 -677 0
-1318 -604 -680 0
-1318 -604 -681 0
-1318 -604 -692 0
-1318 -604 -693 0
-1318 -604 -696 0
-1318 -604 -697 0
-1318 -604 -700 0
-1318 -604 -701 0
-1318 -605 782 0
-1318 -605 -629 -633 0
-1318 -605 -649 0
-1318 -605 -653 0
-1318 -605 -657 0
-1318 -605 -673 0
-1318 -605 -677 0
-1318 -605 -681 0
-1318 -605 -693 0
-1318 -605 -697 0
-1318 -605 -701 0
-1319 745 0
-1319 775 0
-1319 -610 0
-1319 -611 0
-1319 -612 0
-1319 -616 0
-1319 -613 780 0
-1319 -613 -626 -631 0
-1319 -613 -635 0
-1319 -613 -636 0
-1319 -613 -637 0
-1319 -613 -639 0
-1319 -613 -640 0
-1319 -613 -641 0
-1319 -613 -643 0
-1319 -613 -644 0
-1319 -613 -645 0
-1319 -613 -659 0
-1319 -613 -660 0
-1319 -613 -661 0
-1319 -613 -663 0
-1319 -613 -664 0
-1319 -613 -665 0
-1319 -613 -667 0
-1319 -613 -668 0
-1319 -613 -669 0
-1319 -613 -683 0
-1319 -613 -684 0
-1319 -613 -685 0
-1319 -613 -687 0
-1319 -613 -688 0
-1319 -613 -689 0
-1319 -613 -691 0
-1319 -613 -692 0
-1319 -613 -693 0
-1319 -614 781 0
-1319 -614 -626 -632 0
-1319 -614 -636 0
-1319 -614 -637 0
-1319 -614 -640 0
-1319 -614 -641 0
-1319 -614 -644 0
-1319 -614 -645 0
-1319 -614 -660 0
-1319 -614 -661 0
-1319 -614 -664 0
-1319 -614 -665 0
-1319 -614 -668 0
-1319 -614 -669 0
-1319 -614 -684 0
-1319 -614 -685 0
-1319 -614 -688 0
-1319 -614 -689 0
-1319 -614 -692 0
-1319 -614 -693 0
-1319 -615 782 0
-1319 -615 -626 -633 0
-1319 -615 -637 0
-1319 -615 -641 0
-1319 -615 -645 0
-1319 -615 -661 0
-1319 -615 -665 0
-1319 -615 -669 0
-1319 -615 -685 0
-1319 -615 -689 0
-1319 -615 -693 0
-1320 745 0
-1320 776 0
-1320 -607 0
-1320 -611 0
-1320 -612 0
-1320 -616 0
-1320 -613 780 0
-1320 -613 -627 -631 0
-1320 -613 -639 0
-1320 -613 -640 0
-1320 -613 -641 0
-1320 -613 -643 0
-1320 -613 -644 0
-1320 -613 -645 0
-1320 -613 -647 0
-1320 -613 -648 0
-1320 -613 -649 0
-1320 -613 -663 0
-1320 -613 -664 0
-1320 -613 -665 0
-1320 -613 -667 0
-1320 -613 -668 0
-1320 -613 -669 0
-1320 -613 -671 0
-1320 -613 -672 0
-1320 -613 -673 0
-1320 -613 -683 0
-1320 -613 -684 0
-1320 -613 -685 0
-1320 -613 -687 0
-1320 -613 -688 0
-1320 -613 -689 0
-1320 -613 -691 0
-1320 -613 -692 0
-1320 -613 -693 0
-1320 -613 -695 0
-1320 -613 -696 0
-1320 -613 -697 0
-1320 -614 781 0
-1320 -614 -627 -632 0
-1320 -614 -640 0
-1320 -614 -641 0
-1320 -614 -644 0
-1320 -614 -645 0
-1320 -614 -648 0
-1320 -614 -649 0
-1320 -614 -664 0
-1320 -614 -665 0
-1320 -614 -668 0
-1320 -614 -669 0
-1320 -614 -672 0
-1320 -614 -673 0
-1320 -614 -684 0
-1320 -614 -685 0
-1320 -614 -688 0
-1320 -614 -689 0
-1320 -614 -692 0
-1320 -614 -693 0
-1320 -614 -696 0
-1320 -614 -697 0
-1320 -615 782 0
-1320 -615 -627 -633 0
-1320 -615 -641 0
-1320 -615 -645 0
-1320 -615 -649 0
-1320 -615 -665 0
-1320 -615 -669 0
-1320 -615 -673 0
-1320 -615 -685 0
-1320 -615 -689 0
-1320 -615 -693 0
-1320 -615 -697 0
-1321 745 0
-1321 777 0
-1321 -607 0
-1321 -608 0
-1321 -612 0
-1321 -616 0
-1321 -613 780 0
-1321 -613 -628 -631 0
-1321 -613 -643 0
-1321 -613 -644 0
-1321 -613 -645 0
-1321 -613 -647 0
-1321 -613 -648 0
-1321 -613 -649 0
-1321 -613 -651 0
-1321 -613 -652 0
-1321 -613 -653 0
-1321 -613 -667 0
-1321 -613 -668 0
-1321 -613 -669 0
-1321 -613 -671 0
-1321 -613 -672 0
-1321 -613 -673 0
-1321 -613 -675 0
-1321 -613 -676 0
-1321 -613 -677 0
-1321 -613 -687 0
-1321 -613 -688 0
-1321 -613 -689 0
-1321 -613 -691 0
-1321 -613 -692 0
-1321 -613 -693 0
-1321 -613 -695 0
-1321 -613 -696 0
-1321 -613 -697 0
-1321 -613 -699 0
-1321 -613 -700 0
-1321 -613 -701 0
-1321 -614 781 0
-1321 -614 -628 -632 0
-1321 -614 -644 0
-1321 -614 -645 0
-1321 -614 -648 0
-1321 -614 -649 0
-1321 -614 -652 0
-1321 -614 -653 0
-1321 -614 -668 0
-1321 -614 -669 0
-1321 -614 -672 0
-1321 -614 -673 0
-1321 -614 -676 0
-1321 -614 -677 0
-1321 -614 -688 0
-1321 -614 -689 0
-1321 -614 -692 0
-1321 -614 -693 0
-1321 -614 -696 0
-1321 -614 -697 0
-1321 -614 -700 0
-1321 -614 -701 0
-1321 -615 782 0
-1321 -615 -628 -633 0
-1321 -615 -645 0
-1321 -615 -649 0
-1321 -615 -653 0
-1321 -615 -669 0
-1321 -615 -673 0
-1321 -615 -677 0
-1321 -615 -689 0
-1321 -615 -693 0
-1321 -615 -697 0
-1321 -615 -701 0
-1322 745 0
-1322 778 0
-1322 -607 0
-1322 -608 0
-1322 -609 0
-1322 -616 0
-1322 -613 780 0
-1322 -613 -629 -631 0
-1322 -613 -647 0
-1322 -613 -648 0
-1322 -613 -649 0
-1322 -613 -651 0
-1322 -613 -652 0
-1322 -613 -653 0
-1322 -613 -655 0
-1322 -613 -656 0
-1322 -613 -657 0
-1322 -613 -671 0
-1322 -613 -672 0
-1322 -613 -673 0
-1322 -613 -675 0
-1322 -613 -676 0
-1322 -613 -677 0
-1322 -613 -679 0
-1322 -613 -680 0
-1322 -613 -681 0
-1322 -613 -691 0
-1322 -613 -692 0
-1322 -613 -693 0
-1322 -613 -695 0
-1322 -613 -696 0
-1322 -613 -697 0
-1322 -613 -699 0
-1322 -613 -700 0
-1322 -613 -701 0
-1322 -614 781 0
-1322 -614 -629 -632 0
-1322 -614 -648 0
-1322 -614 -649 0
-1322 -614 -652 0
-1322 -614 -653 0
-1322 -614 -656 0
-1322 -614 -657 0
-1322 -614 -672 0
-1322 -614 -673 0
-1322 -614 -676 0
-1322 -614 -677 0
-1322 -614 -680 0
-1322 -614 -681 0
-1322 -614 -692 0
-1322 -614 -693 0
-1322 -614 -696 0
-1322 -614 -697 0
-1322 -614 -700 0
-1322 -614 -701 0
-1322 -615 782 0
-1322 -615 -629 -633 0
-1322 -615 -649 0
-1322 -615 -653 0
-1322 -615 -657 0
-1322 -615 -673 0
-1322 -615 -677 0
-1322 -615 -681 0
-1322 -615 -693 0
-1322 -615 -697 0
-1322 -615 -701 0
-1323 745 0
-1323 775 0
-1323 -620 0
-1323 -621 0
-1323 -625 0
-1323 -622 780 0
-1323 -622 -626 -631 0
-1323 -622 -635 0
-1323 -622 -636 0
-1323 -622 -637 0
-1323 -622 -639 0
-1323 -622 -640 0
-1323 -622 -641 0
-1323 -622 -643 0
-1323 -622 -644 0
-1323 -622 -645 0
-1323 -622 -659 0
-1323 -622 -660 0
-1323 -622 -661 0
-1323 -622 -663 0
-1323 -622 -664 0
-1323 -622 -665 0
-1323 -622 -667 0
-1323 -622 -668 0
-1323 -622 -669 0
-1323 -622 -683 0
-1323 -622 -684 0
-1323 -622 -685 0
-1323 -622 -687 0
-1323 -622 -688 0
-1323 -622 -689 0
-1323 -622 -691 0
-1323 -622 -692 0
-1323 -622 -693 0
-1323 -623 781 0
-1323 -623 -626 -632 0
-1323 -623 -636 0
-1323 -623 -637 0
-1323 -623 -640 0
-1323 -623 -641 0
-1323 -623 -644 0
-1323 -623 -645 0
-1323 -623 -660 0
-1323 -623 -661 0
-1323 -623 -664 0
-1323 -623 -665 0
-1323 -623 -668 0
-1323 -623 -669 0
-1323 -623 -684 0
-1323 -623 -685 0
-1323 -623 -688 0
-1323 -623 -689 0
-1323 -623 -692 0
-1323 -623 -693 0
-1323 -624 782 0
-1323 -624 -626 -633 0
-1323 -624 -637 0
-1323 -624 -641 0
-1323 -624 -645 0
-1323 -624 -661 0
-1323 -624 -665 0
-1323 -624 -669 0
-1323 -624 -685 0
-1323 -624 -689 0
-1323 -624 -693 0
-1324 745 0
-1324 776 0
-1324 -621 0
-1324 -625 0
-1324 -622 780 0
-1324 -622 -627 -631 0
-1324 -622 -639 0
-1324 -622 -640 0
-1324 -622 -641 0
-1324 -622 -643 0
-1324 -622 -644 0
-1324 -622 -645 0
-1324 -622 -647 0
-1324 -622 -648 0
-1324 -622 -649 0
-1324 -622 -663 0
-1324 -622 -664 0
-1324 -622 -665 0
-1324 -622 -667 0
-1324 -622 -668 0
-1324 -622 -669 0
-1324 -622 -671 0
-1324 -622 -672 0
-1324 -622 -673 0
-1324 -622 -683 0
-1324 -622 -684 0
-1324 -622 -685 0
-1324 -622 -687 0
-1324 -622 -688 0
-1324 -622 -689 0
-1324 -622 -691 0
-1324 -622 -692 0
-1324 -622 -693 0
-1324 -622 -695 0
-1324 -622 -696 0
-1324 -622 -697 0
-1324 -623 781 0
-1324 -623 -627 -632 0
-1324 -623 -640 0
-1324 -623 -641 0
-1324 -623 -644 0
-1324 -623 -645 0
-1324 -623 -648 0
-1324 -623 -649 0
-1324 -623 -664 0
-1324 -623 -665 0
-1324 -623 -668 0
-1324 -623 -669 0
-1324 -623 -672 0
-1324 -623 -673 0
-1324 -623 -684 0
-1324 -623 -685 0
-1324 -623 -688 0
-1324 -623 -689 0
-1324 -623 -692 0
-1324 -623 -693 0
-1324 -623 -696 0
-1324 -623 -697 0
-1324 -624 782 0
-1324 -624 -627 -633 0
-1324 -624 -641 0
-1324 -624 -645 0
-1324 -624 -649 0
-1324 -624 -665 0
-1324 -624 -669 0
-1324 -624 -673 0
-1324 -624 -685 0
-1324 -624 -689 0
-1324 -624 -693 0
-1324 -624 -697 0
-1325 745 0
-1325 777 0
-1325 -617 0
-1325 -625 0
-1325 -622 780 0
-1325 -622 -628 -631 0
-1325 -622 -643 0
-1325 -622 -644 0
-1325 -622 -645 0
-1325 -622 -647 0
-1325 -622 -648 0
-1325 -622 -649 0
-1325 -622 -651 0
-1325 -622 -652 0
-1325 -622 -653 0
-1325 -622 -667 0
-1325 -622 -668 0
-1325 -622 -669 0
-1325 -622 -671 0
-1325 -622 -672 0
-1325 -622 -673 0
-1325 -622 -675 0
-1325 -622 -676 0
-1325 -622 -677 0
-1325 -622 -687 0
-1325 -622 -688 0
-1325 -622 -689 0
-1325 -622 -691 0
-1325 -622 -692 0
-1325 -622 -693 0
-1325 -622 -695 0
-1325 -622 -696 0
-1325 -622 -697 0
-1325 -622 -699 0
-1325 -622 -700 0
-1325 -622 -701 0
-1325 -623 781 0
-1325 -623 -628 -632 0
-1325 -623 -644 0
-1325 -623 -645 0
-1325 -623 -648 0
-1325 -623 -649 0
-1325 -623 -652 0
-1325 -623 -653 0
-1325 -623 -668 0
-1325 -623 -669 0
-1325 -623 -672 0
-1325 -623 -673 0
-1325 -623 -676 0
-1325 -623 -677 0
-1325 -623 -688 0
-1325 -623 -689 0
-1325 -623 -692 0
-1325 -623 -693 0
-1325 -623 -696 0
-1325 -623 -697 0
-1325 -623 -700 0
-1325 -623 -701 0
-1325 -624 782 0
-1325 -624 -628 -633 0
-1325 -624 -645 0
-1325 -624 -649 0
-1325 -624 -653 0
-1325 -624 -669 0
-1325 -624 -673 0
-1325 -624 -677 0
-1325 -624 -689 0
-1325 -624 -693 0
-1325 -624 -697 0
-1325 -624 -701 0
-1326 745 0
-1326 778 0
-1326 -617 0
-1326 -618 0
-1326 -625 0
-1326 -622 780 0
-1326 -622 -629 -631 0
-1326 -622 -647 0
-1326 -622 -648 0
-1326 -622 -649 0
-1326 -622 -651 0
-1326 -622 -652 0
-1326 -622 -653 0
-1326 -622 -655 0
-1326 -622 -656 0
-1326 -622 -657 0
-1326 -622 -671 0
-1326 -622 -672 0
-1326 -622 -673 0
-1326 -622 -675 0
-1326 -622 -676 0
-1326 -622 -677 0
-1326 -622 -679 0
-1326 -622 -680 0
-1326 -622 -681 0
-1326 -622 -691 0
-1326 -622 -692 0
-1326 -622 -693 0
-1326 -622 -695 0
-1326 -622 -696 0
-1326 -622 -697 0
-1326 -622 -699 0
-1326 -622 -700 0
-1326 -622 -701 0
-1326 -623 781 0
-1326 -623 -629 -632 0
-1326 -623 -648 0
-1326 -623 -649 0
-1326 -623 -652 0
-1326 -623 -653 0
-1326 -623 -656 0
-1326 -623 -657 0
-1326 -623 -672 0
-1326 -623 -673 0
-1326 -623 -676 0
-1326 -623 -677 0
-1326 -623 -680 0
-1326 -623 -681 0
-1326 -623 -692 0
-1326 -623 -693 0
-1326 -623 -696 0
-1326 -623 -697 0
-1326 -623 -700 0
-1326 -623 -701 0
-1326 -624 782 0
-1326 -624 -629 -633 0
-1326 -624 -649 0
-1326 -624 -653 0
-1326 -624 -657 0
-1326 -624 -673 0
-1326 -624 -677 0
-1326 -624 -681 0
-1326 -624 -693 0
-1326 -624 -697 0
-1326 -624 -701 0
-1327 745 0
-1327 775 0
-1327 779 0
-1327 -626 -630 0
-1327 -634 0
-1327 -635 0
-1327 -636 0
-1327 -637 0
-1327 -638 0
-1327 -639 0
-1327 -640 0
-1327 -641 0
-1327 -642 0
-1327 -643 0
-1327 -644 0
-1327 -645 0
-1327 -658 0
-1327 -659 0
-1327 -660 0
-1327 -661 0
-1327 -662 0
-1327 -663 0
-1327 -664 0
-1327 -665 0
-1327 -666 0
-1327 -667 0
-1327 -668 0
-1327 -669 0
-1327 -682 0
-1327 -683 0
-1327 -684 0
-1327 -685 0
-1327 -686 0
-1327 -687 0
-1327 -688 0
-1327 -689 0
-1327 -690 0
-1327 -691 0
-1327 -692 0
-1327 -693 0
-1328 745 0
-1328 776 0
-1328 779 0
-1328 -627 -630 0
-1328 -638 0
-1328 -639 0
-1328 -640 0
-1328 -641 0
-1328 -642 0
-1328 -643 0
-1328 -644 0
-1328 -645 0
-1328 -646 0
-1328 -647 0
-1328 -648 0
-1328 -649 0
-1328 -662 0
-1328 -663 0
-1328 -664 0
-1328 -665 0
-1328 -666 0
-1328 -667 0
-1328 -668 0
-1328 -669 0
-1328 -670 0
-1328 -671 0
-1328 -672 0
-1328 -673 0
-1328 -682 0
-1328 -683 0
-1328 -684 0
-1328 -685 0
-1328 -686 0
-1328 -687 0
-1328 -688 0
-1328 -689 0
-1328 -690 0
-1328 -691 0
-1328 -692 0
-1328 -693 0
-1328 -694 0
-1328 -695 0
-1328 -696 0
-1328 -697 0
-1329 745 0
-1329 777 0
-1329 779 0
-1329 -628 -630 0
-1329 -642 0
-1329 -643 0
-1329 -644 0
-1329 -645 0
-1329 -646 0
-1329 -647 0
-1329 -648 0
-1329 -649 0
-1329 -650 0
-1329 -651 0
-1329 -652 0
-1329 -653 0
-1329 -666 0
-1329 -667 0
-1329 -668 0
-1329 -669 0
-1329 -670 0
-1329 -671 0
-1329 -672 0
-1329 -673 0
-1329 -674 0
-1329 -675 0
-1329 -676 0
-1329 -677 0
-1329 -686 0
-1329 -687 0
-1329 -688 0
-1329 -689 0
-1329 -690 0
-1329 -691 0
-1329 -692 0
-1329 -693 0
-1329 -694 0
-1329 -695 0
-1329 -696 0
-1329 -697 0
-1329 -698 0
-1329 -699 0
-1329 -700 0
-1329 -701 0
-1330 745 0
-1330 778 0
-1330 779 0
-1330 -629 -630 0
-1330 -646 0
-1330 -647 0
-1330 -648 0
-1330 -649 0
-1330 -650 0
-1330 -651 0
-1330 -652 0
-1330 -653 0
-1330 -654 0
-1330 -655 0
-1330 -656 0
-1330 -657 0
-1330 -670 0
-1330 -671 0
-1330 -672 0
-1330 -673 0
-1330 -674 0
-1330 -675 0
-1330 -676 0
-1330 -677 0
-1330 -678 0
-1330 -679 0
-1330 -680 0
-1330 -681 0
-1330 -690 0
-1330 -691 0
-1330 -692 0
-1330 -693 0
-1330 -694 0
-1330 -695 0
-1330 -696 0
-1330 -697 0
-1330 -698 0
-1330 -699 0
-1330 -700 0
-1330 -701 0
