p cnf 623 19703
1 2 3 4 5 6 0
-1 -2 0
-1 -3 0
-1 -4 0
-1 -5 0
-1 -6 0
-2 -3 0
-2 -4 0
-2 -5 0
-2 -6 0
-3 -4 0
-3 -5 0
-3 -6 0
-4 -5 0
-4 -6 0
-5 -6 0
7 8 9 10 0
-7 -8 0
-7 -9 0
-7 -10 0
-8 -9 0
-8 -10 0
-9 -10 0
11 12 13 14 15 16 0
-11 -12 0
-11 -13 0
-11 -14 0
-11 -15 0
-11 -16 0
-12 -13 0
-12 -14 0
-12 -15 0
-12 -16 0
-13 -14 0
-13 -15 0
-13 -16 0
-14 -15 0
-14 -16 0
-15 -16 0
17 18 19 20 0
-17 -18 0
-17 -19 0
-17 -20 0
-18 -19 0
-18 -20 0
-19 -20 0
21 22 23 24 25 0
-21 -22 0
-21 -23 0
-21 -24 0
-21 -25 0
-22 -23 0
-22 -24 0
-22 -25 0
-23 -24 0
-23 -25 0
-24 -25 0
26 27 28 29 0
-26 -27 0
-26 -28 0
-26 -29 0
-27 -28 0
-27 -29 0
-28 -29 0
30 31 32 33 0
-30 -31 0
-30 -32 0
-30 -33 0
-31 -32 0
-31 -33 0
-32 -33 0
34 35 36 37 0
-34 -35 0
-34 -36 0
-34 -37 0
-35 -36 0
-35 -37 0
-36 -37 0
-38 1 0
-38 7 0
-1 -7 38 0
-39 1 0
-39 8 0
-1 -8 39 0
-40 1 0
-40 9 0
-1 -9 40 0
-41 1 0
-41 10 0
-1 -10 41 0
-42 2 0
-42 7 0
-2 -7 42 0
-43 2 0
-43 8 0
-2 -8 43 0
-44 2 0
-44 9 0
-2 -9 44 0
-45 2 0
-45 10 0
-2 -10 45 0
-46 3 0
-46 7 0
-3 -7 46 0
-47 3 0
-47 8 0
-3 -8 47 0
-48 3 0
-48 9 0
-3 -9 48 0
-49 3 0
-49 10 0
-3 -10 49 0
-50 4 0
-50 7 0
-4 -7 50 0
-51 4 0
-51 8 0
-4 -8 51 0
-52 4 0
-52 9 0
-4 -9 52 0
-53 4 0
-53 10 0
-4 -10 53 0
-54 5 0
-54 7 0
-5 -7 54 0
-55 5 0
-55 8 0
-5 -8 55 0
-56 5 0
-56 9 0
-5 -9 56 0
-57 5 0
-57 10 0
-5 -10 57 0
-58 6 0
-58 7 0
-6 -7 58 0
-59 6 0
-59 8 0
-6 -8 59 0
-60 6 0
-60 9 0
-6 -9 60 0
-61 6 0
-61 10 0
-6 -10 61 0
-62 11 0
-62 17 0
-11 -17 62 0
-63 11 0
-63 18 0
-11 -18 63 0
-64 11 0
-64 19 0
-11 -19 64 0
-65 11 0
-65 20 0
-11 -20 65 0
-66 12 0
-66 17 0
-12 -17 66 0
-67 12 0
-67 18 0
-12 -18 67 0
-68 12 0
-68 19 0
-12 -19 68 0
-69 12 0
-69 20 0
-12 -20 69 0
-70 13 0
-70 17 0
-13 -17 70 0
-71 13 0
-71 18 0
-13 -18 71 0
-72 13 0
-72 19 0
-13 -19 72 0
-73 13 0
-73 20 0
-13 -20 73 0
-74 14 0
-74 17 0
-14 -17 74 0
-75 14 0
-75 18 0
-14 -18 75 0
-76 14 0
-76 19 0
-14 -19 76 0
-77 14 0
-77 20 0
-14 -20 77 0
-78 15 0
-78 17 0
-15 -17 78 0
-79 15 0
-79 18 0
-15 -18 79 0
-80 15 0
-80 19 0
-15 -19 80 0
-81 15 0
-81 20 0
-15 -20 81 0
-82 16 0
-82 17 0
-16 -17 82 0
-83 16 0
-83 18 0
-16 -18 83 0
-84 16 0
-84 19 0
-16 -19 84 0
-85 16 0
-85 20 0
-16 -20 85 0
-86 21 0
-86 26 0
-21 -26 86 0
-87 21 0
-87 27 0
-21 -27 87 0
-88 21 0
-88 28 0
-21 -28 88 0
-89 21 0
-89 29 0
-21 -29 89 0
-90 22 0
-90 26 0
-22 -26 90 0
-91 22 0
-91 27 0
-22 -27 91 0
-92 22 0
-92 28 0
-22 -28 92 0
-93 22 0
-93 29 0
-22 -29 93 0
-94 23 0
-94 26 0
-23 -26 94 0
-95 23 0
-95 27 0
-23 -27 95 0
-96 23 0
-96 28 0
-23 -28 96 0
-97 23 0
-97 29 0
-23 -29 97 0
-98 24 0
-98 26 0
-24 -26 98 0
-99 24 0
-99 27 0
-24 -27 99 0
-100 24 0
-100 28 0
-24 -28 100 0
-101 24 0
-101 29 0
-24 -29 101 0
-102 25 0
-102 26 0
-25 -26 102 0
-103 25 0
-103 27 0
-25 -27 103 0
-104 25 0
-104 28 0
-25 -28 104 0
-105 25 0
-105 29 0
-25 -29 105 0
-106 30 0
-106 34 0
-30 -34 106 0
-107 30 0
-107 35 0
-30 -35 107 0
-108 30 0
-108 36 0
-30 -36 108 0
-109 30 0
-109 37 0
-30 -37 109 0
-110 31 0
-110 34 0
-31 -34 110 0
-111 31 0
-111 35 0
-31 -35 111 0
-112 31 0
-112 36 0
-31 -36 112 0
-113 31 0
-113 37 0
-31 -37 113 0
-114 32 0
-114 34 0
-32 -34 114 0
-115 32 0
-115 35 0
-32 -35 115 0
-116 32 0
-116 36 0
-32 -36 116 0
-117 32 0
-117 37 0
-32 -37 117 0
-118 33 0
-118 34 0
-33 -34 118 0
-119 33 0
-119 35 0
-33 -35 119 0
-120 33 0
-120 36 0
-33 -36 120 0
-121 33 0
-121 37 0
-33 -37 121 0
-122 38 62 86 106 0
-38 122 0
-62 122 0
-86 122 0
-106 122 0
-123 39 63 87 107 0
-39 123 0
-63 123 0
-87 123 0
-107 123 0
-124 40 64 88 108 0
-40 124 0
-64 124 0
-88 124 0
-108 124 0
-125 41 65 89 109 0
-41 125 0
-65 125 0
-89 125 0
-109 125 0
-126 42 66 86 90 106 110 0
-42 126 0
-66 126 0
-86 126 0
-90 126 0
-106 126 0
-110 126 0
-127 43 67 87 91 107 111 0
-43 127 0
-67 127 0
-87 127 0
-91 127 0
-107 127 0
-111 127 0
-128 44 68 88 92 108 112 0
-44 128 0
-68 128 0
-88 128 0
-92 128 0
-108 128 0
-112 128 0
-129 45 69 89 93 109 113 0
-45 129 0
-69 129 0
-89 129 0
-93 129 0
-109 129 0
-113 129 0
-130 46 70 90 94 106 110 114 0
-46 130 0
-70 130 0
-90 130 0
-94 130 0
-106 130 0
-110 130 0
-114 130 0
-131 47 71 91 95 107 111 115 0
-47 131 0
-71 131 0
-91 131 0
-95 131 0
-107 131 0
-111 131 0
-115 131 0
-132 48 72 92 96 108 112 116 0
-48 132 0
-72 132 0
-92 132 0
-96 132 0
-108 132 0
-112 132 0
-116 132 0
-133 49 73 93 97 109 113 117 0
-49 133 0
-73 133 0
-93 133 0
-97 133 0
-109 133 0
-113 133 0
-117 133 0
-134 50 74 94 98 110 114 118 0
-50 134 0
-74 134 0
-94 134 0
-98 134 0
-110 134 0
-114 134 0
-118 134 0
-135 51 75 95 99 111 115 119 0
-51 135 0
-75 135 0
-95 135 0
-99 135 0
-111 135 0
-115 135 0
-119 135 0
-136 52 76 96 100 112 116 120 0
-52 136 0
-76 136 0
-96 136 0
-100 136 0
-112 136 0
-116 136 0
-120 136 0
-137 53 77 97 101 113 117 121 0
-53 137 0
-77 137 0
-97 137 0
-101 137 0
-113 137 0
-117 137 0
-121 137 0
-138 54 78 98 102 114 118 0
-54 138 0
-78 138 0
-98 138 0
-102 138 0
-114 138 0
-118 138 0
-139 55 79 99 103 115 119 0
-55 139 0
-79 139 0
-99 139 0
-103 139 0
-115 139 0
-119 139 0
-140 56 80 100 104 116 120 0
-56 140 0
-80 140 0
-100 140 0
-104 140 0
-116 140 0
-120 140 0
-141 57 81 101 105 117 121 0
-57 141 0
-81 141 0
-101 141 0
-105 141 0
-117 141 0
-121 141 0
-142 58 82 102 118 0
-58 142 0
-82 142 0
-102 142 0
-118 142 0
-143 59 83 103 119 0
-59 143 0
-83 143 0
-103 143 0
-119 143 0
-144 60 84 104 120 0
-60 144 0
-84 144 0
-104 144 0
-120 144 0
-145 61 85 105 121 0
-61 145 0
-85 145 0
-105 145 0
-121 145 0
-38 -62 0
-38 -86 0
-38 -106 0
-39 -63 0
-39 -87 0
-39 -107 0
-40 -64 0
-40 -88 0
-40 -108 0
-41 -65 0
-41 -89 0
-41 -109 0
-42 -66 0
-42 -86 0
-42 -90 0
-42 -106 0
-42 -110 0
-43 -67 0
-43 -87 0
-43 -91 0
-43 -107 0
-43 -111 0
-44 -68 0
-44 -88 0
-44 -92 0
-44 -108 0
-44 -112 0
-45 -69 0
-45 -89 0
-45 -93 0
-45 -109 0
-45 -113 0
-46 -70 0
-46 -90 0
-46 -94 0
-46 -106 0
-46 -110 0
-46 -114 0
-47 -71 0
-47 -91 0
-47 -95 0
-47 -107 0
-47 -111 0
-47 -115 0
-48 -72 0
-48 -92 0
-48 -96 0
-48 -108 0
-48 -112 0
-48 -116 0
-49 -73 0
-49 -93 0
-49 -97 0
-49 -109 0
-49 -113 0
-49 -117 0
-50 -74 0
-50 -94 0
-50 -98 0
-50 -110 0
-50 -114 0
-50 -118 0
-51 -75 0
-51 -95 0
-51 -99 0
-51 -111 0
-51 -115 0
-51 -119 0
-52 -76 0
-52 -96 0
-52 -100 0
-52 -112 0
-52 -116 0
-52 -120 0
-53 -77 0
-53 -97 0
-53 -101 0
-53 -113 0
-53 -117 0
-53 -121 0
-54 -78 0
-54 -98 0
-54 -102 0
-54 -114 0
-54 -118 0
-55 -79 0
-55 -99 0
-55 -103 0
-55 -115 0
-55 -119 0
-56 -80 0
-56 -100 0
-56 -104 0
-56 -116 0
-56 -120 0
-57 -81 0
-57 -101 0
-57 -105 0
-57 -117 0
-57 -121 0
-58 -82 0
-58 -102 0
-58 -118 0
-59 -83 0
-59 -103 0
-59 -119 0
-60 -84 0
-60 -104 0
-60 -120 0
-61 -85 0
-61 -105 0
-61 -121 0
-62 -86 0
-62 -106 0
-63 -87 0
-63 -107 0
-64 -88 0
-64 -108 0
-65 -89 0
-65 -109 0
-66 -86 0
-66 -90 0
-66 -106 0
-66 -110 0
-67 -87 0
-67 -91 0
-67 -107 0
-67 -111 0
-68 -88 0
-68 -92 0
-68 -108 0
-68 -112 0
-69 -89 0
-69 -93 0
-69 -109 0
-69 -113 0
-70 -90 0
-70 -94 0
-70 -106 0
-70 -110 0
-70 -114 0
-71 -91 0
-71 -95 0
-71 -107 0
-71 -111 0
-71 -115 0
-72 -92 0
-72 -96 0
-72 -108 0
-72 -112 0
-72 -116 0
-73 -93 0
-73 -97 0
-73 -109 0
-73 -113 0
-73 -117 0
-74 -94 0
-74 -98 0
-74 -110 0
-74 -114 0
-74 -118 0
-75 -95 0
-75 -99 0
-75 -111 0
-75 -115 0
-75 -119 0
-76 -96 0
-76 -100 0
-76 -112 0
-76 -116 0
-76 -120 0
-77 -97 0
-77 -101 0
-77 -113 0
-77 -117 0
-77 -121 0
-78 -98 0
-78 -102 0
-78 -114 0
-78 -118 0
-79 -99 0
-79 -103 0
-79 -115 0
-79 -119 0
-80 -100 0
-80 -104 0
-80 -116 0
-80 -120 0
-81 -101 0
-81 -105 0
-81 -117 0
-81 -121 0
-82 -102 0
-82 -118 0
-83 -103 0
-83 -119 0
-84 -104 0
-84 -120 0
-85 -105 0
-85 -121 0
-86 -106 0
-86 -110 0
-87 -107 0
-87 -111 0
-88 -108 0
-88 -112 0
-89 -109 0
-89 -113 0
-90 -106 0
-90 -110 0
-90 -114 0
-91 -107 0
-91 -111 0
-91 -115 0
-92 -108 0
-92 -112 0
-92 -116 0
-93 -109 0
-93 -113 0
-93 -117 0
-94 -106 0
-94 -110 0
-94 -114 0
-94 -118 0
-95 -107 0
-95 -111 0
-95 -115 0
-95 -119 0
-96 -108 0
-96 -112 0
-96 -116 0
-96 -120 0
-97 -109 0
-97 -113 0
-97 -117 0
-97 -121 0
-98 -110 0
-98 -114 0
-98 -118 0
-99 -111 0
-99 -115 0
-99 -119 0
-100 -112 0
-100 -116 0
-100 -120 0
-101 -113 0
-101 -117 0
-101 -121 0
-102 -114 0
-102 -118 0
-103 -115 0
-103 -119 0
-104 -116 0
-104 -120 0
-105 -117 0
-105 -121 0
-38 146 63 64 65 87 88 89 107 108 109 0
-38 -146 -63 0
-38 -146 -64 0
-38 -146 -65 0
-38 -146 -87 0
-38 -146 -88 0
-38 -146 -89 0
-38 -146 -107 0
-38 -146 -108 0
-38 -146 -109 0
-39 122 0
-39 146 64 65 88 89 108 109 0
-39 -146 -64 0
-39 -146 -65 0
-39 -146 -88 0
-39 -146 -89 0
-39 -146 -108 0
-39 -146 -109 0
-40 123 0
-40 146 65 89 109 0
-40 -146 -65 0
-40 -146 -89 0
-40 -146 -109 0
-41 124 0
-41 146 0
-42 146 67 68 69 87 88 89 91 92 93 107 108 109 111 112 113 0
-42 -146 -67 0
-42 -146 -68 0
-42 -146 -69 0
-42 -146 -87 0
-42 -146 -88 0
-42 -146 -89 0
-42 -146 -91 0
-42 -146 -92 0
-42 -146 -93 0
-42 -146 -107 0
-42 -146 -108 0
-42 -146 -109 0
-42 -146 -111 0
-42 -146 -112 0
-42 -146 -113 0
-43 126 0
-43 146 68 69 88 89 92 93 108 109 112 113 0
-43 -146 -68 0
-43 -146 -69 0
-43 -146 -88 0
-43 -146 -89 0
-43 -146 -92 0
-43 -146 -93 0
-43 -146 -108 0
-43 -146 -109 0
-43 -146 -112 0
-43 -146 -113 0
-44 127 0
-44 146 69 89 93 109 113 0
-44 -146 -69 0
-44 -146 -89 0
-44 -146 -93 0
-44 -146 -109 0
-44 -146 -113 0
-45 128 0
-45 146 0
-46 146 71 72 73 91 92 93 95 96 97 107 108 109 111 112 113 115 116 117 0
-46 -146 -71 0
-46 -146 -72 0
-46 -146 -73 0
-46 -146 -91 0
-46 -146 -92 0
-46 -146 -93 0
-46 -146 -95 0
-46 -146 -96 0
-46 -146 -97 0
-46 -146 -107 0
-46 -146 -108 0
-46 -146 -109 0
-46 -146 -111 0
-46 -146 -112 0
-46 -146 -113 0
-46 -146 -115 0
-46 -146 -116 0
-46 -146 -117 0
-47 130 0
-47 146 72 73 92 93 96 97 108 109 112 113 116 117 0
-47 -146 -72 0
-47 -146 -73 0
-47 -146 -92 0
-47 -146 -93 0
-47 -146 -96 0
-47 -146 -97 0
-47 -146 -108 0
-47 -146 -109 0
-47 -146 -112 0
-47 -146 -113 0
-47 -146 -116 0
-47 -146 -117 0
-48 131 0
-48 146 73 93 97 109 113 117 0
-48 -146 -73 0
-48 -146 -93 0
-48 -146 -97 0
-48 -146 -109 0
-48 -146 -113 0
-48 -146 -117 0
-49 132 0
-49 146 0
-50 146 75 76 77 95 96 97 99 100 101 111 112 113 115 116 117 119 120 121 0
-50 -146 -75 0
-50 -146 -76 0
-50 -146 -77 0
-50 -146 -95 0
-50 -146 -96 0
-50 -146 -97 0
-50 -146 -99 0
-50 -146 -100 0
-50 -146 -101 0
-50 -146 -111 0
-50 -146 -112 0
-50 -146 -113 0
-50 -146 -115 0
-50 -146 -116 0
-50 -146 -117 0
-50 -146 -119 0
-50 -146 -120 0
-50 -146 -121 0
-51 134 0
-51 146 76 77 96 97 100 101 112 113 116 117 120 121 0
-51 -146 -76 0
-51 -146 -77 0
-51 -146 -96 0
-51 -146 -97 0
-51 -146 -100 0
-51 -146 -101 0
-51 -146 -112 0
-51 -146 -113 0
-51 -146 -116 0
-51 -146 -117 0
-51 -146 -120 0
-51 -146 -121 0
-52 135 0
-52 146 77 97 101 113 117 121 0
-52 -146 -77 0
-52 -146 -97 0
-52 -146 -101 0
-52 -146 -113 0
-52 -146 -117 0
-52 -146 -121 0
-53 136 0
-53 146 0
-54 146 79 80 81 99 100 101 103 104 105 115 116 117 119 120 121 0
-54 -146 -79 0
-54 -146 -80 0
-54 -146 -81 0
-54 -146 -99 0
-54 -146 -100 0
-54 -146 -101 0
-54 -146 -103 0
-54 -146 -104 0
-54 -146 -105 0
-54 -146 -115 0
-54 -146 -116 0
-54 -146 -117 0
-54 -146 -119 0
-54 -146 -120 0
-54 -146 -121 0
-55 138 0
-55 146 80 81 100 101 104 105 116 117 120 121 0
-55 -146 -80 0
-55 -146 -81 0
-55 -146 -100 0
-55 -146 -101 0
-55 -146 -104 0
-55 -146 -105 0
-55 -146 -116 0
-55 -146 -117 0
-55 -146 -120 0
-55 -146 -121 0
-56 139 0
-56 146 81 101 105 117 121 0
-56 -146 -81 0
-56 -146 -101 0
-56 -146 -105 0
-56 -146 -117 0
-56 -146 -121 0
-57 140 0
-57 146 0
-58 146 83 84 85 103 104 105 119 120 121 0
-58 -146 -83 0
-58 -146 -84 0
-58 -146 -85 0
-58 -146 -103 0
-58 -146 -104 0
-58 -146 -105 0
-58 -146 -119 0
-58 -146 -120 0
-58 -146 -121 0
-59 142 0
-59 146 84 85 104 105 120 121 0
-59 -146 -84 0
-59 -146 -85 0
-59 -146 -104 0
-59 -146 -105 0
-59 -146 -120 0
-59 -146 -121 0
-60 143 0
-60 146 85 105 121 0
-60 -146 -85 0
-60 -146 -105 0
-60 -146 -121 0
-61 144 0
-61 146 0
-62 147 39 40 41 87 88 89 107 108 109 0
-62 -147 -39 0
-62 -147 -40 0
-62 -147 -41 0
-62 -147 -87 0
-62 -147 -88 0
-62 -147 -89 0
-62 -147 -107 0
-62 -147 -108 0
-62 -147 -109 0
-63 122 0
-63 147 40 41 88 89 108 109 0
-63 -147 -40 0
-63 -147 -41 0
-63 -147 -88 0
-63 -147 -89 0
-63 -147 -108 0
-63 -147 -109 0
-64 123 0
-64 147 41 89 109 0
-64 -147 -41 0
-64 -147 -89 0
-64 -147 -109 0
-65 124 0
-65 147 0
-66 147 43 44 45 87 88 89 91 92 93 107 108 109 111 112 113 0
-66 -147 -43 0
-66 -147 -44 0
-66 -147 -45 0
-66 -147 -87 0
-66 -147 -88 0
-66 -147 -89 0
-66 -147 -91 0
-66 -147 -92 0
-66 -147 -93 0
-66 -147 -107 0
-66 -147 -108 0
-66 -147 -109 0
-66 -147 -111 0
-66 -147 -112 0
-66 -147 -113 0
-67 126 0
-67 147 44 45 88 89 92 93 108 109 112 113 0
-67 -147 -44 0
-67 -147 -45 0
-67 -147 -88 0
-67 -147 -89 0
-67 -147 -92 0
-67 -147 -93 0
-67 -147 -108 0
-67 -147 -109 0
-67 -147 -112 0
-67 -147 -113 0
-68 127 0
-68 147 45 89 93 109 113 0
-68 -147 -45 0
-68 -147 -89 0
-68 -147 -93 0
-68 -147 -109 0
-68 -147 -113 0
-69 128 0
-69 147 0
-70 147 47 48 49 91 92 93 95 96 97 107 108 109 111 112 113 115 116 117 0
-70 -147 -47 0
-70 -147 -48 0
-70 -147 -49 0
-70 -147 -91 0
-70 -147 -92 0
-70 -147 -93 0
-70 -147 -95 0
-70 -147 -96 0
-70 -147 -97 0
-70 -147 -107 0
-70 -147 -108 0
-70 -147 -109 0
-70 -147 -111 0
-70 -147 -112 0
-70 -147 -113 0
-70 -147 -115 0
-70 -147 -116 0
-70 -147 -117 0
-71 130 0
-71 147 48 49 92 93 96 97 108 109 112 113 116 117 0
-71 -147 -48 0
-71 -147 -49 0
-71 -147 -92 0
-71 -147 -93 0
-71 -147 -96 0
-71 -147 -97 0
-71 -147 -108 0
-71 -147 -109 0
-71 -147 -112 0
-71 -147 -113 0
-71 -147 -116 0
-71 -147 -117 0
-72 131 0
-72 147 49 93 97 109 113 117 0
-72 -147 -49 0
-72 -147 -93 0
-72 -147 -97 0
-72 -147 -109 0
-72 -147 -113 0
-72 -147 -117 0
-73 132 0
-73 147 0
-74 147 51 52 53 95 96 97 99 100 101 111 112 113 115 116 117 119 120 121 0
-74 -147 -51 0
-74 -147 -52 0
-74 -147 -53 0
-74 -147 -95 0
-74 -147 -96 0
-74 -147 -97 0
-74 -147 -99 0
-74 -147 -100 0
-74 -147 -101 0
-74 -147 -111 0
-74 -147 -112 0
-74 -147 -113 0
-74 -147 -115 0
-74 -147 -116 0
-74 -147 -117 0
-74 -147 -119 0
-74 -147 -120 0
-74 -147 -121 0
-75 134 0
-75 147 52 53 96 97 100 101 112 113 116 117 120 121 0
-75 -147 -52 0
-75 -147 -53 0
-75 -147 -96 0
-75 -147 -97 0
-75 -147 -100 0
-75 -147 -101 0
-75 -147 -112 0
-75 -147 -113 0
-75 -147 -116 0
-75 -147 -117 0
-75 -147 -120 0
-75 -147 -121 0
-76 135 0
-76 147 53 97 101 113 117 121 0
-76 -147 -53 0
-76 -147 -97 0
-76 -147 -101 0
-76 -147 -113 0
-76 -147 -117 0
-76 -147 -121 0
-77 136 0
-77 147 0
-78 147 55 56 57 99 100 101 103 104 105 115 116 117 119 120 121 0
-78 -147 -55 0
-78 -147 -56 0
-78 -147 -57 0
-78 -147 -99 0
-78 -147 -100 0
-78 -147 -101 0
-78 -147 -103 0
-78 -147 -104 0
-78 -147 -105 0
-78 -147 -115 0
-78 -147 -116 0
-78 -147 -117 0
-78 -147 -119 0
-78 -147 -120 0
-78 -147 -121 0
-79 138 0
-79 147 56 57 100 101 104 105 116 117 120 121 0
-79 -147 -56 0
-79 -147 -57 0
-79 -147 -100 0
-79 -147 -101 0
-79 -147 -104 0
-79 -147 -105 0
-79 -147 -116 0
-79 -147 -117 0
-79 -147 -120 0
-79 -147 -121 0
-80 139 0
-80 147 57 101 105 117 121 0
-80 -147 -57 0
-80 -147 -101 0
-80 -147 -105 0
-80 -147 -117 0
-80 -147 -121 0
-81 140 0
-81 147 0
-82 147 59 60 61 103 104 105 119 120 121 0
-82 -147 -59 0
-82 -147 -60 0
-82 -147 -61 0
-82 -147 -103 0
-82 -147 -104 0
-82 -147 -105 0
-82 -147 -119 0
-82 -147 -120 0
-82 -147 -121 0
-83 142 0
-83 147 60 61 104 105 120 121 0
-83 -147 -60 0
-83 -147 -61 0
-83 -147 -104 0
-83 -147 -105 0
-83 -147 -120 0
-83 -147 -121 0
-84 143 0
-84 147 61 105 121 0
-84 -147 -61 0
-84 -147 -105 0
-84 -147 -121 0
-85 144 0
-85 147 0
-86 148 39 40 41 43 44 45 63 64 65 67 68 69 107 108 109 111 112 113 0
-86 -148 -39 0
-86 -148 -40 0
-86 -148 -41 0
-86 -148 -43 0
-86 -148 -44 0
-86 -148 -45 0
-86 -148 -63 0
-86 -148 -64 0
-86 -148 -65 0
-86 -148 -67 0
-86 -148 -68 0
-86 -148 -69 0
-86 -148 -107 0
-86 -148 -108 0
-86 -148 -109 0
-86 -148 -111 0
-86 -148 -112 0
-86 -148 -113 0
-87 122 126 0
-87 148 40 41 44 45 64 65 68 69 108 109 112 113 0
-87 -148 -40 0
-87 -148 -41 0
-87 -148 -44 0
-87 -148 -45 0
-87 -148 -64 0
-87 -148 -65 0
-87 -148 -68 0
-87 -148 -69 0
-87 -148 -108 0
-87 -148 -109 0
-87 -148 -112 0
-87 -148 -113 0
-88 123 127 0
-88 148 41 45 65 69 109 113 0
-88 -148 -41 0
-88 -148 -45 0
-88 -148 -65 0
-88 -148 -69 0
-88 -148 -109 0
-88 -148 -113 0
-89 124 128 0
-89 148 0
-90 148 43 44 45 47 48 49 67 68 69 71 72 73 107 108 109 111 112 113 115 116 117 0
-90 -148 -43 0
-90 -148 -44 0
-90 -148 -45 0
-90 -148 -47 0
-90 -148 -48 0
-90 -148 -49 0
-90 -148 -67 0
-90 -148 -68 0
-90 -148 -69 0
-90 -148 -71 0
-90 -148 -72 0
-90 -148 -73 0
-90 -148 -107 0
-90 -148 -108 0
-90 -148 -109 0
-90 -148 -111 0
-90 -148 -112 0
-90 -148 -113 0
-90 -148 -115 0
-90 -148 -116 0
-90 -148 -117 0
-91 126 130 0
-91 148 44 45 48 49 68 69 72 73 108 109 112 113 116 117 0
-91 -148 -44 0
-91 -148 -45 0
-91 -148 -48 0
-91 -148 -49 0
-91 -148 -68 0
-91 -148 -69 0
-91 -148 -72 0
-91 -148 -73 0
-91 -148 -108 0
-91 -148 -109 0
-91 -148 -112 0
-91 -148 -113 0
-91 -148 -116 0
-91 -148 -117 0
-92 127 131 0
-92 148 45 49 69 73 109 113 117 0
-92 -148 -45 0
-92 -148 -49 0
-92 -148 -69 0
-92 -148 -73 0
-92 -148 -109 0
-92 -148 -113 0
-92 -148 -117 0
-93 128 132 0
-93 148 0
-94 148 47 48 49 51 52 53 71 72 73 75 76 77 107 108 109 111 112 113 115 116 117 119 120 121 0
-94 -148 -47 0
-94 -148 -48 0
-94 -148 -49 0
-94 -148 -51 0
-94 -148 -52 0
-94 -148 -53 0
-94 -148 -71 0
-94 -148 -72 0
-94 -148 -73 0
-94 -148 -75 0
-94 -148 -76 0
-94 -148 -77 0
-94 -148 -107 0
-94 -148 -108 0
-94 -148 -109 0
-94 -148 -111 0
-94 -148 -112 0
-94 -148 -113 0
-94 -148 -115 0
-94 -148 -116 0
-94 -148 -117 0
-94 -148 -119 0
-94 -148 -120 0
-94 -148 -121 0
-95 130 134 0
-95 148 48 49 52 53 72 73 76 77 108 109 112 113 116 117 120 121 0
-95 -148 -48 0
-95 -148 -49 0
-95 -148 -52 0
-95 -148 -53 0
-95 -148 -72 0
-95 -148 -73 0
-95 -148 -76 0
-95 -148 -77 0
-95 -148 -108 0
-95 -148 -109 0
-95 -148 -112 0
-95 -148 -113 0
-95 -148 -116 0
-95 -148 -117 0
-95 -148 -120 0
-95 -148 -121 0
-96 131 135 0
-96 148 49 53 73 77 109 113 117 121 0
-96 -148 -49 0
-96 -148 -53 0
-96 -148 -73 0
-96 -148 -77 0
-96 -148 -109 0
-96 -148 -113 0
-96 -148 -117 0
-96 -148 -121 0
-97 132 136 0
-97 148 0
-98 148 51 52 53 55 56 57 75 76 77 79 80 81 111 112 113 115 116 117 119 120 121 0
-98 -148 -51 0
-98 -148 -52 0
-98 -148 -53 0
-98 -148 -55 0
-98 -148 -56 0
-98 -148 -57 0
-98 -148 -75 0
-98 -148 -76 0
-98 -148 -77 0
-98 -148 -79 0
-98 -148 -80 0
-98 -148 -81 0
-98 -148 -111 0
-98 -148 -112 0
-98 -148 -113 0
-98 -148 -115 0
-98 -148 -116 0
-98 -148 -117 0
-98 -148 -119 0
-98 -148 -120 0
-98 -148 -121 0
-99 134 138 0
-99 148 52 53 56 57 76 77 80 81 112 113 116 117 120 121 0
-99 -148 -52 0
-99 -148 -53 0
-99 -148 -56 0
-99 -148 -57 0
-99 -148 -76 0
-99 -148 -77 0
-99 -148 -80 0
-99 -148 -81 0
-99 -148 -112 0
-99 -148 -113 0
-99 -148 -116 0
-99 -148 -117 0
-99 -148 -120 0
-99 -148 -121 0
-100 135 139 0
-100 148 53 57 77 81 113 117 121 0
-100 -148 -53 0
-100 -148 -57 0
-100 -148 -77 0
-100 -148 -81 0
-100 -148 -113 0
-100 -148 -117 0
-100 -148 -121 0
-101 136 140 0
-101 148 0
-102 148 55 56 57 59 60 61 79 80 81 83 84 85 115 116 117 119 120 121 0
-102 -148 -55 0
-102 -148 -56 0
-102 -148 -57 0
-102 -148 -59 0
-102 -148 -60 0
-102 -148 -61 0
-102 -148 -79 0
-102 -148 -80 0
-102 -148 -81 0
-102 -148 -83 0
-102 -148 -84 0
-102 -148 -85 0
-102 -148 -115 0
-102 -148 -116 0
-102 -148 -117 0
-102 -148 -119 0
-102 -148 -120 0
-102 -148 -121 0
-103 138 142 0
-103 148 56 57 60 61 80 81 84 85 116 117 120 121 0
-103 -148 -56 0
-103 -148 -57 0
-103 -148 -60 0
-103 -148 -61 0
-103 -148 -80 0
-103 -148 -81 0
-103 -148 -84 0
-103 -148 -85 0
-103 -148 -116 0
-103 -148 -117 0
-103 -148 -120 0
-103 -148 -121 0
-104 139 143 0
-104 148 57 61 81 85 117 121 0
-104 -148 -57 0
-104 -148 -61 0
-104 -148 -81 0
-104 -148 -85 0
-104 -148 -117 0
-104 -148 -121 0
-105 140 144 0
-105 148 0
-106 149 39 40 41 43 44 45 47 48 49 63 64 65 67 68 69 71 72 73 87 88 89 91 92 93 95 96 97 0
-106 -149 -39 0
-106 -149 -40 0
-106 -149 -41 0
-106 -149 -43 0
-106 -149 -44 0
-106 -149 -45 0
-106 -149 -47 0
-106 -149 -48 0
-106 -149 -49 0
-106 -149 -63 0
-106 -149 -64 0
-106 -149 -65 0
-106 -149 -67 0
-106 -149 -68 0
-106 -149 -69 0
-106 -149 -71 0
-106 -149 -72 0
-106 -149 -73 0
-106 -149 -87 0
-106 -149 -88 0
-106 -149 -89 0
-106 -149 -91 0
-106 -149 -92 0
-106 -149 -93 0
-106 -149 -95 0
-106 -149 -96 0
-106 -149 -97 0
-107 122 126 0
-107 122 130 0
-107 126 130 0
-107 149 40 41 44 45 48 49 64 65 68 69 72 73 88 89 92 93 96 97 0
-107 -149 -40 0
-107 -149 -41 0
-107 -149 -44 0
-107 -149 -45 0
-107 -149 -48 0
-107 -149 -49 0
-107 -149 -64 0
-107 -149 -65 0
-107 -149 -68 0
-107 -149 -69 0
-107 -149 -72 0
-107 -149 -73 0
-107 -149 -88 0
-107 -149 -89 0
-107 -149 -92 0
-107 -149 -93 0
-107 -149 -96 0
-107 -149 -97 0
-108 123 127 0
-108 123 131 0
-108 127 131 0
-108 149 41 45 49 65 69 73 89 93 97 0
-108 -149 -41 0
-108 -149 -45 0
-108 -149 -49 0
-108 -149 -65 0
-108 -149 -69 0
-108 -149 -73 0
-108 -149 -89 0
-108 -149 -93 0
-108 -149 -97 0
-109 124 128 0
-109 124 132 0
-109 128 132 0
-109 149 0
-110 149 43 44 45 47 48 49 51 52 53 67 68 69 71 72 73 75 76 77 87 88 89 91 92 93 95 96 97 99 100 101 0
-110 -149 -43 0
-110 -149 -44 0
-110 -149 -45 0
-110 -149 -47 0
-110 -149 -48 0
-110 -149 -49 0
-110 -149 -51 0
-110 -149 -52 0
-110 -149 -53 0
-110 -149 -67 0
-110 -149 -68 0
-110 -149 -69 0
-110 -149 -71 0
-110 -149 -72 0
-110 -149 -73 0
-110 -149 -75 0
-110 -149 -76 0
-110 -149 -77 0
-110 -149 -87 0
-110 -149 -88 0
-110 -149 -89 0
-110 -149 -91 0
-110 -149 -92 0
-110 -149 -93 0
-110 -149 -95 0
-110 -149 -96 0
-110 -149 -97 0
-110 -149 -99 0
-110 -149 -100 0
-110 -149 -101 0
-111 126 130 0
-111 126 134 0
-111 130 134 0
-111 149 44 45 48 49 52 53 68 69 72 73 76 77 88 89 92 93 96 97 100 101 0
-111 -149 -44 0
-111 -149 -45 0
-111 -149 -48 0
-111 -149 -49 0
-111 -149 -52 0
-111 -149 -53 0
-111 -149 -68 0
-111 -149 -69 0
-111 -149 -72 0
-111 -149 -73 0
-111 -149 -76 0
-111 -149 -77 0
-111 -149 -88 0
-111 -149 -89 0
-111 -149 -92 0
-111 -149 -93 0
-111 -149 -96 0
-111 -149 -97 0
-111 -149 -100 0
-111 -149 -101 0
-112 127 131 0
-112 127 135 0
-112 131 135 0
-112 149 45 49 53 69 73 77 89 93 97 101 0
-112 -149 -45 0
-112 -149 -49 0
-112 -149 -53 0
-112 -149 -69 0
-112 -149 -73 0
-112 -149 -77 0
-112 -149 -89 0
-112 -149 -93 0
-112 -149 -97 0
-112 -149 -101 0
-113 128 132 0
-113 128 136 0
-113 132 136 0
-113 149 0
-114 149 47 48 49 51 52 53 55 56 57 71 72 73 75 76 77 79 80 81 91 92 93 95 96 97 99 100 101 103 104 105 0
-114 -149 -47 0
-114 -149 -48 0
-114 -149 -49 0
-114 -149 -51 0
-114 -149 -52 0
-114 -149 -53 0
-114 -149 -55 0
-114 -149 -56 0
-114 -149 -57 0
-114 -149 -71 0
-114 -149 -72 0
-114 -149 -73 0
-114 -149 -75 0
-114 -149 -76 0
-114 -149 -77 0
-114 -149 -79 0
-114 -149 -80 0
-114 -149 -81 0
-114 -149 -91 0
-114 -149 -92 0
-114 -149 -93 0
-114 -149 -95 0
-114 -149 -96 0
-114 -149 -97 0
-114 -149 -99 0
-114 -149 -100 0
-114 -149 -101 0
-114 -149 -103 0
-114 -149 -104 0
-114 -149 -105 0
-115 130 134 0
-115 130 138 0
-115 134 138 0
-115 149 48 49 52 53 56 57 72 73 76 77 80 81 92 93 96 97 100 101 104 105 0
-115 -149 -48 0
-115 -149 -49 0
-115 -149 -52 0
-115 -149 -53 0
-115 -149 -56 0
-115 -149 -57 0
-115 -149 -72 0
-115 -149 -73 0
-115 -149 -76 0
-115 -149 -77 0
-115 -149 -80 0
-115 -149 -81 0
-115 -149 -92 0
-115 -149 -93 0
-115 -149 -96 0
-115 -149 -97 0
-115 -149 -100 0
-115 -149 -101 0
-115 -149 -104 0
-115 -149 -105 0
-116 131 135 0
-116 131 139 0
-116 135 139 0
-116 149 49 53 57 73 77 81 93 97 101 105 0
-116 -149 -49 0
-116 -149 -53 0
-116 -149 -57 0
-116 -149 -73 0
-116 -149 -77 0
-116 -149 -81 0
-116 -149 -93 0
-116 -149 -97 0
-116 -149 -101 0
-116 -149 -105 0
-117 132 136 0
-117 132 140 0
-117 136 140 0
-117 149 0
-118 149 51 52 53 55 56 57 59 60 61 75 76 77 79 80 81 83 84 85 95 96 97 99 100 101 103 104 105 0
-118 -149 -51 0
-118 -149 -52 0
-118 -149 -53 0
-118 -149 -55 0
-118 -149 -56 0
-118 -149 -57 0
-118 -149 -59 0
-118 -149 -60 0
-118 -149 -61 0
-118 -149 -75 0
-118 -149 -76 0
-118 -149 -77 0
-118 -149 -79 0
-118 -149 -80 0
-118 -149 -81 0
-118 -149 -83 0
-118 -149 -84 0
-118 -149 -85 0
-118 -149 -95 0
-118 -149 -96 0
-118 -149 -97 0
-118 -149 -99 0
-118 -149 -100 0
-118 -149 -101 0
-118 -149 -103 0
-118 -149 -104 0
-118 -149 -105 0
-119 134 138 0
-119 134 142 0
-119 138 142 0
-119 149 52 53 56 57 60 61 76 77 80 81 84 85 96 97 100 101 104 105 0
-119 -149 -52 0
-119 -149 -53 0
-119 -149 -56 0
-119 -149 -57 0
-119 -149 -60 0
-119 -149 -61 0
-119 -149 -76 0
-119 -149 -77 0
-119 -149 -80 0
-119 -149 -81 0
-119 -149 -84 0
-119 -149 -85 0
-119 -149 -96 0
-119 -149 -97 0
-119 -149 -100 0
-119 -149 -101 0
-119 -149 -104 0
-119 -149 -105 0
-120 135 139 0
-120 135 143 0
-120 139 143 0
-120 149 53 57 61 77 81 85 97 101 105 0
-120 -149 -53 0
-120 -149 -57 0
-120 -149 -61 0
-120 -149 -77 0
-120 -149 -81 0
-120 -149 -85 0
-120 -149 -97 0
-120 -149 -101 0
-120 -149 -105 0
-121 136 140 0
-121 136 144 0
-121 140 144 0
-121 149 0
150 151 152 153 154 155 0
-150 -151 0
-150 -152 0
-150 -153 0
-150 -154 0
-150 -155 0
-151 -152 0
-151 -153 0
-151 -154 0
-151 -155 0
-152 -153 0
-152 -154 0
-152 -155 0
-153 -154 0
-153 -155 0
-154 -155 0
156 157 158 159 0
-156 -157 0
-156 -158 0
-156 -159 0
-157 -158 0
-157 -159 0
-158 -159 0
160 161 162 163 164 165 0
-160 -161 0
-160 -162 0
-160 -163 0
-160 -164 0
-160 -165 0
-161 -162 0
-161 -163 0
-161 -164 0
-161 -165 0
-162 -163 0
-162 -164 0
-162 -165 0
-163 -164 0
-163 -165 0
-164 -165 0
166 167 168 169 0
-166 -167 0
-166 -168 0
-166 -169 0
-167 -168 0
-167 -169 0
-168 -169 0
170 171 172 173 174 0
-170 -171 0
-170 -172 0
-170 -173 0
-170 -174 0
-171 -172 0
-171 -173 0
-171 -174 0
-172 -173 0
-172 -174 0
-173 -174 0
175 176 177 178 0
-175 -176 0
-175 -177 0
-175 -178 0
-176 -177 0
-176 -178 0
-177 -178 0
179 180 181 182 0
-179 -180 0
-179 -181 0
-179 -182 0
-180 -181 0
-180 -182 0
-181 -182 0
183 184 185 186 0
-183 -184 0
-183 -185 0
-183 -186 0
-184 -185 0
-184 -186 0
-185 -186 0
-187 150 0
-187 156 0
-150 -156 187 0
-188 150 0
-188 157 0
-150 -157 188 0
-189 150 0
-189 158 0
-150 -158 189 0
-190 150 0
-190 159 0
-150 -159 190 0
-191 151 0
-191 156 0
-151 -156 191 0
-192 151 0
-192 157 0
-151 -157 192 0
-193 151 0
-193 158 0
-151 -158 193 0
-194 151 0
-194 159 0
-151 -159 194 0
-195 152 0
-195 156 0
-152 -156 195 0
-196 152 0
-196 157 0
-152 -157 196 0
-197 152 0
-197 158 0
-152 -158 197 0
-198 152 0
-198 159 0
-152 -159 198 0
-199 153 0
-199 156 0
-153 -156 199 0
-200 153 0
-200 157 0
-153 -157 200 0
-201 153 0
-201 158 0
-153 -158 201 0
-202 153 0
-202 159 0
-153 -159 202 0
-203 154 0
-203 156 0
-154 -156 203 0
-204 154 0
-204 157 0
-154 -157 204 0
-205 154 0
-205 158 0
-154 -158 205 0
-206 154 0
-206 159 0
-154 -159 206 0
-207 155 0
-207 156 0
-155 -156 207 0
-208 155 0
-208 157 0
-155 -157 208 0
-209 155 0
-209 158 0
-155 -158 209 0
-210 155 0
-210 159 0
-155 -159 210 0
-211 160 0
-211 166 0
-160 -166 211 0
-212 160 0
-212 167 0
-160 -167 212 0
-213 160 0
-213 168 0
-160 -168 213 0
-214 160 0
-214 169 0
-160 -169 214 0
-215 161 0
-215 166 0
-161 -166 215 0
-216 161 0
-216 167 0
-161 -167 216 0
-217 161 0
-217 168 0
-161 -168 217 0
-218 161 0
-218 169 0
-161 -169 218 0
-219 162 0
-219 166 0
-162 -166 219 0
-220 162 0
-220 167 0
-162 -167 220 0
-221 162 0
-221 168 0
-162 -168 221 0
-222 162 0
-222 169 0
-162 -169 222 0
-223 163 0
-223 166 0
-163 -166 223 0
-224 163 0
-224 167 0
-163 -167 224 0
-225 163 0
-225 168 0
-163 -168 225 0
-226 163 0
-226 169 0
-163 -169 226 0
-227 164 0
-227 166 0
-164 -166 227 0
-228 164 0
-228 167 0
-164 -167 228 0
-229 164 0
-229 168 0
-164 -168 229 0
-230 164 0
-230 169 0
-164 -169 230 0
-231 165 0
-231 166 0
-165 -166 231 0
-232 165 0
-232 167 0
-165 -167 232 0
-233 165 0
-233 168 0
-165 -168 233 0
-234 165 0
-234 169 0
-165 -169 234 0
-235 170 0
-235 175 0
-170 -175 235 0
-236 170 0
-236 176 0
-170 -176 236 0
-237 170 0
-237 177 0
-170 -177 237 0
-238 170 0
-238 178 0
-170 -178 238 0
-239 171 0
-239 175 0
-171 -175 239 0
-240 171 0
-240 176 0
-171 -176 240 0
-241 171 0
-241 177 0
-171 -177 241 0
-242 171 0
-242 178 0
-171 -178 242 0
-243 172 0
-243 175 0
-172 -175 243 0
-244 172 0
-244 176 0
-172 -176 244 0
-245 172 0
-245 177 0
-172 -177 245 0
-246 172 0
-246 178 0
-172 -178 246 0
-247 173 0
-247 175 0
-173 -175 247 0
-248 173 0
-248 176 0
-173 -176 248 0
-249 173 0
-249 177 0
-173 -177 249 0
-250 173 0
-250 178 0
-173 -178 250 0
-251 174 0
-251 175 0
-174 -175 251 0
-252 174 0
-252 176 0
-174 -176 252 0
-253 174 0
-253 177 0
-174 -177 253 0
-254 174 0
-254 178 0
-174 -178 254 0
-255 179 0
-255 183 0
-179 -183 255 0
-256 179 0
-256 184 0
-179 -184 256 0
-257 179 0
-257 185 0
-179 -185 257 0
-258 179 0
-258 186 0
-179 -186 258 0
-259 180 0
-259 183 0
-180 -183 259 0
-260 180 0
-260 184 0
-180 -184 260 0
-261 180 0
-261 185 0
-180 -185 261 0
-262 180 0
-262 186 0
-180 -186 262 0
-263 181 0
-263 183 0
-181 -183 263 0
-264 181 0
-264 184 0
-181 -184 264 0
-265 181 0
-265 185 0
-181 -185 265 0
-266 181 0
-266 186 0
-181 -186 266 0
-267 182 0
-267 183 0
-182 -183 267 0
-268 182 0
-268 184 0
-182 -184 268 0
-269 182 0
-269 185 0
-182 -185 269 0
-270 182 0
-270 186 0
-182 -186 270 0
-271 187 211 235 255 0
-187 271 0
-211 271 0
-235 271 0
-255 271 0
-272 188 212 236 256 0
-188 272 0
-212 272 0
-236 272 0
-256 272 0
-273 189 213 237 257 0
-189 273 0
-213 273 0
-237 273 0
-257 273 0
-274 190 214 238 258 0
-190 274 0
-214 274 0
-238 274 0
-258 274 0
-275 191 215 235 239 255 259 0
-191 275 0
-215 275 0
-235 275 0
-239 275 0
-255 275 0
-259 275 0
-276 192 216 236 240 256 260 0
-192 276 0
-216 276 0
-236 276 0
-240 276 0
-256 276 0
-260 276 0
-277 193 217 237 241 257 261 0
-193 277 0
-217 277 0
-237 277 0
-241 277 0
-257 277 0
-261 277 0
-278 194 218 238 242 258 262 0
-194 278 0
-218 278 0
-238 278 0
-242 278 0
-258 278 0
-262 278 0
-279 195 219 239 243 255 259 263 0
-195 279 0
-219 279 0
-239 279 0
-243 279 0
-255 279 0
-259 279 0
-263 279 0
-280 196 220 240 244 256 260 264 0
-196 280 0
-220 280 0
-240 280 0
-244 280 0
-256 280 0
-260 280 0
-264 280 0
-281 197 221 241 245 257 261 265 0
-197 281 0
-221 281 0
-241 281 0
-245 281 0
-257 281 0
-261 281 0
-265 281 0
-282 198 222 242 246 258 262 266 0
-198 282 0
-222 282 0
-242 282 0
-246 282 0
-258 282 0
-262 282 0
-266 282 0
-283 199 223 243 247 259 263 267 0
-199 283 0
-223 283 0
-243 283 0
-247 283 0
-259 283 0
-263 283 0
-267 283 0
-284 200 224 244 248 260 264 268 0
-200 284 0
-224 284 0
-244 284 0
-248 284 0
-260 284 0
-264 284 0
-268 284 0
-285 201 225 245 249 261 265 269 0
-201 285 0
-225 285 0
-245 285 0
-249 285 0
-261 285 0
-265 285 0
-269 285 0
-286 202 226 246 250 262 266 270 0
-202 286 0
-226 286 0
-246 286 0
-250 286 0
-262 286 0
-266 286 0
-270 286 0
-287 203 227 247 251 263 267 0
-203 287 0
-227 287 0
-247 287 0
-251 287 0
-263 287 0
-267 287 0
-288 204 228 248 252 264 268 0
-204 288 0
-228 288 0
-248 288 0
-252 288 0
-264 288 0
-268 288 0
-289 205 229 249 253 265 269 0
-205 289 0
-229 289 0
-249 289 0
-253 289 0
-265 289 0
-269 289 0
-290 206 230 250 254 266 270 0
-206 290 0
-230 290 0
-250 290 0
-254 290 0
-266 290 0
-270 290 0
-291 207 231 251 267 0
-207 291 0
-231 291 0
-251 291 0
-267 291 0
-292 208 232 252 268 0
-208 292 0
-232 292 0
-252 292 0
-268 292 0
-293 209 233 253 269 0
-209 293 0
-233 293 0
-253 293 0
-269 293 0
-294 210 234 254 270 0
-210 294 0
-234 294 0
-254 294 0
-270 294 0
-187 -211 0
-187 -235 0
-187 -255 0
-188 -212 0
-188 -236 0
-188 -256 0
-189 -213 0
-189 -237 0
-189 -257 0
-190 -214 0
-190 -238 0
-190 -258 0
-191 -215 0
-191 -235 0
-191 -239 0
-191 -255 0
-191 -259 0
-192 -216 0
-192 -236 0
-192 -240 0
-192 -256 0
-192 -260 0
-193 -217 0
-193 -237 0
-193 -241 0
-193 -257 0
-193 -261 0
-194 -218 0
-194 -238 0
-194 -242 0
-194 -258 0
-194 -262 0
-195 -219 0
-195 -239 0
-195 -243 0
-195 -255 0
-195 -259 0
-195 -263 0
-196 -220 0
-196 -240 0
-196 -244 0
-196 -256 0
-196 -260 0
-196 -264 0
-197 -221 0
-197 -241 0
-197 -245 0
-197 -257 0
-197 -261 0
-197 -265 0
-198 -222 0
-198 -242 0
-198 -246 0
-198 -258 0
-198 -262 0
-198 -266 0
-199 -223 0
-199 -243 0
-199 -247 0
-199 -259 0
-199 -263 0
-199 -267 0
-200 -224 0
-200 -244 0
-200 -248 0
-200 -260 0
-200 -264 0
-200 -268 0
-201 -225 0
-201 -245 0
-201 -249 0
-201 -261 0
-201 -265 0
-201 -269 0
-202 -226 0
-202 -246 0
-202 -250 0
-202 -262 0
-202 -266 0
-202 -270 0
-203 -227 0
-203 -247 0
-203 -251 0
-203 -263 0
-203 -267 0
-204 -228 0
-204 -248 0
-204 -252 0
-204 -264 0
-204 -268 0
-205 -229 0
-205 -249 0
-205 -253 0
-205 -265 0
-205 -269 0
-206 -230 0
-206 -250 0
-206 -254 0
-206 -266 0
-206 -270 0
-207 -231 0
-207 -251 0
-207 -267 0
-208 -232 0
-208 -252 0
-208 -268 0
-209 -233 0
-209 -253 0
-209 -269 0
-210 -234 0
-210 -254 0
-210 -270 0
-211 -235 0
-211 -255 0
-212 -236 0
-212 -256 0
-213 -237 0
-213 -257 0
-214 -238 0
-214 -258 0
-215 -235 0
-215 -239 0
-215 -255 0
-215 -259 0
-216 -236 0
-216 -240 0
-216 -256 0
-216 -260 0
-217 -237 0
-217 -241 0
-217 -257 0
-217 -261 0
-218 -238 0
-218 -242 0
-218 -258 0
-218 -262 0
-219 -239 0
-219 -243 0
-219 -255 0
-219 -259 0
-219 -263 0
-220 -240 0
-220 -244 0
-220 -256 0
-220 -260 0
-220 -264 0
-221 -241 0
-221 -245 0
-221 -257 0
-221 -261 0
-221 -265 0
-222 -242 0
-222 -246 0
-222 -258 0
-222 -262 0
-222 -266 0
-223 -243 0
-223 -247 0
-223 -259 0
-223 -263 0
-223 -267 0
-224 -244 0
-224 -248 0
-224 -260 0
-224 -264 0
-224 -268 0
-225 -245 0
-225 -249 0
-225 -261 0
-225 -265 0
-225 -269 0
-226 -246 0
-226 -250 0
-226 -262 0
-226 -266 0
-226 -270 0
-227 -247 0
-227 -251 0
-227 -263 0
-227 -267 0
-228 -248 0
-228 -252 0
-228 -264 0
-228 -268 0
-229 -249 0
-229 -253 0
-229 -265 0
-229 -269 0
-230 -250 0
-230 -254 0
-230 -266 0
-230 -270 0
-231 -251 0
-231 -267 0
-232 -252 0
-232 -268 0
-233 -253 0
-233 -269 0
-234 -254 0
-234 -270 0
-235 -255 0
-235 -259 0
-236 -256 0
-236 -260 0
-237 -257 0
-237 -261 0
-238 -258 0
-238 -262 0
-239 -255 0
-239 -259 0
-239 -263 0
-240 -256 0
-240 -260 0
-240 -264 0
-241 -257 0
-241 -261 0
-241 -265 0
-242 -258 0
-242 -262 0
-242 -266 0
-243 -255 0
-243 -259 0
-243 -263 0
-243 -267 0
-244 -256 0
-244 -260 0
-244 -264 0
-244 -268 0
-245 -257 0
-245 -261 0
-245 -265 0
-245 -269 0
-246 -258 0
-246 -262 0
-246 -266 0
-246 -270 0
-247 -259 0
-247 -263 0
-247 -267 0
-248 -260 0
-248 -264 0
-248 -268 0
-249 -261 0
-249 -265 0
-249 -269 0
-250 -262 0
-250 -266 0
-250 -270 0
-251 -263 0
-251 -267 0
-252 -264 0
-252 -268 0
-253 -265 0
-253 -269 0
-254 -266 0
-254 -270 0
-187 295 212 213 214 236 237 238 256 257 258 0
-187 -295 -212 0
-187 -295 -213 0
-187 -295 -214 0
-187 -295 -236 0
-187 -295 -237 0
-187 -295 -238 0
-187 -295 -256 0
-187 -295 -257 0
-187 -295 -258 0
-188 271 0
-188 295 213 214 237 238 257 258 0
-188 -295 -213 0
-188 -295 -214 0
-188 -295 -237 0
-188 -295 -238 0
-188 -295 -257 0
-188 -295 -258 0
-189 272 0
-189 295 214 238 258 0
-189 -295 -214 0
-189 -295 -238 0
-189 -295 -258 0
-190 273 0
-190 295 0
-191 295 216 217 218 236 237 238 240 241 242 256 257 258 260 261 262 0
-191 -295 -216 0
-191 -295 -217 0
-191 -295 -218 0
-191 -295 -236 0
-191 -295 -237 0
-191 -295 -238 0
-191 -295 -240 0
-191 -295 -241 0
-191 -295 -242 0
-191 -295 -256 0
-191 -295 -257 0
-191 -295 -258 0
-191 -295 -260 0
-191 -295 -261 0
-191 -295 -262 0
-192 275 0
-192 295 217 218 237 238 241 242 257 258 261 262 0
-192 -295 -217 0
-192 -295 -218 0
-192 -295 -237 0
-192 -295 -238 0
-192 -295 -241 0
-192 -295 -242 0
-192 -295 -257 0
-192 -295 -258 0
-192 -295 -261 0
-192 -295 -262 0
-193 276 0
-193 295 218 238 242 258 262 0
-193 -295 -218 0
-193 -295 -238 0
-193 -295 -242 0
-193 -295 -258 0
-193 -295 -262 0
-194 277 0
-194 295 0
-195 295 220 221 222 240 241 242 244 245 246 256 257 258 260 261 262 264 265 266 0
-195 -295 -220 0
-195 -295 -221 0
-195 -295 -222 0
-195 -295 -240 0
-195 -295 -241 0
-195 -295 -242 0
-195 -295 -244 0
-195 -295 -245 0
-195 -295 -246 0
-195 -295 -256 0
-195 -295 -257 0
-195 -295 -258 0
-195 -295 -260 0
-195 -295 -261 0
-195 -295 -262 0
-195 -295 -264 0
-195 -295 -265 0
-195 -295 -266 0
-196 279 0
-196 295 221 222 241 242 245 246 257 258 261 262 265 266 0
-196 -295 -221 0
-196 -295 -222 0
-196 -295 -241 0
-196 -295 -242 0
-196 -295 -245 0
-196 -295 -246 0
-196 -295 -257 0
-196 -295 -258 0
-196 -295 -261 0
-196 -295 -262 0
-196 -295 -265 0
-196 -295 -266 0
-197 280 0
-197 295 222 242 246 258 262 266 0
-197 -295 -222 0
-197 -295 -242 0
-197 -295 -246 0
-197 -295 -258 0
-197 -295 -262 0
-197 -295 -266 0
-198 281 0
-198 295 0
-199 295 224 225 226 244 245 246 248 249 250 260 261 262 264 265 266 268 269 270 0
-199 -295 -224 0
-199 -295 -225 0
-199 -295 -226 0
-199 -295 -244 0
-199 -295 -245 0
-199 -295 -246 0
-199 -295 -248 0
-199 -295 -249 0
-199 -295 -250 0
-199 -295 -260 0
-199 -295 -261 0
-199 -295 -262 0
-199 -295 -264 0
-199 -295 -265 0
-199 -295 -266 0
-199 -295 -268 0
-199 -295 -269 0
-199 -295 -270 0
-200 283 0
-200 295 225 226 245 246 249 250 261 262 265 266 269 270 0
-200 -295 -225 0
-200 -295 -226 0
-200 -295 -245 0
-200 -295 -246 0
-200 -295 -249 0
-200 -295 -250 0
-200 -295 -261 0
-200 -295 -262 0
-200 -295 -265 0
-200 -295 -266 0
-200 -295 -269 0
-200 -295 -270 0
-201 284 0
-201 295 226 246 250 262 266 270 0
-201 -295 -226 0
-201 -295 -246 0
-201 -295 -250 0
-201 -295 -262 0
-201 -295 -266 0
-201 -295 -270 0
-202 285 0
-202 295 0
-203 295 228 229 230 248 249 250 252 253 254 264 265 266 268 269 270 0
-203 -295 -228 0
-203 -295 -229 0
-203 -295 -230 0
-203 -295 -248 0
-203 -295 -249 0
-203 -295 -250 0
-203 -295 -252 0
-203 -295 -253 0
-203 -295 -254 0
-203 -295 -264 0
-203 -295 -265 0
-203 -295 -266 0
-203 -295 -268 0
-203 -295 -269 0
-203 -295 -270 0
-204 287 0
-204 295 229 230 249 250 253 254 265 266 269 270 0
-204 -295 -229 0
-204 -295 -230 0
-204 -295 -249 0
-204 -295 -250 0
-204 -295 -253 0
-204 -295 -254 0
-204 -295 -265 0
-204 -295 -266 0
-204 -295 -269 0
-204 -295 -270 0
-205 288 0
-205 295 230 250 254 266 270 0
-205 -295 -230 0
-205 -295 -250 0
-205 -295 -254 0
-205 -295 -266 0
-205 -295 -270 0
-206 289 0
-206 295 0
-207 295 232 233 234 252 253 254 268 269 270 0
-207 -295 -232 0
-207 -295 -233 0
-207 -295 -234 0
-207 -295 -252 0
-207 -295 -253 0
-207 -295 -254 0
-207 -295 -268 0
-207 -295 -269 0
-207 -295 -270 0
-208 291 0
-208 295 233 234 253 254 269 270 0
-208 -295 -233 0
-208 -295 -234 0
-208 -295 -253 0
-208 -295 -254 0
-208 -295 -269 0
-208 -295 -270 0
-209 292 0
-209 295 234 254 270 0
-209 -295 -234 0
-209 -295 -254 0
-209 -295 -270 0
-210 293 0
-210 295 0
-211 296 188 189 190 236 237 238 256 257 258 0
-211 -296 -188 0
-211 -296 -189 0
-211 -296 -190 0
-211 -296 -236 0
-211 -296 -237 0
-211 -296 -238 0
-211 -296 -256 0
-211 -296 -257 0
-211 -296 -258 0
-212 271 0
-212 296 189 190 237 238 257 258 0
-212 -296 -189 0
-212 -296 -190 0
-212 -296 -237 0
-212 -296 -238 0
-212 -296 -257 0
-212 -296 -258 0
-213 272 0
-213 296 190 238 258 0
-213 -296 -190 0
-213 -296 -238 0
-213 -296 -258 0
-214 273 0
-214 296 0
-215 296 192 193 194 236 237 238 240 241 242 256 257 258 260 261 262 0
-215 -296 -192 0
-215 -296 -193 0
-215 -296 -194 0
-215 -296 -236 0
-215 -296 -237 0
-215 -296 -238 0
-215 -296 -240 0
-215 -296 -241 0
-215 -296 -242 0
-215 -296 -256 0
-215 -296 -257 0
-215 -296 -258 0
-215 -296 -260 0
-215 -296 -261 0
-215 -296 -262 0
-216 275 0
-216 296 193 194 237 238 241 242 257 258 261 262 0
-216 -296 -193 0
-216 -296 -194 0
-216 -296 -237 0
-216 -296 -238 0
-216 -296 -241 0
-216 -296 -242 0
-216 -296 -257 0
-216 -296 -258 0
-216 -296 -261 0
-216 -296 -262 0
-217 276 0
-217 296 194 238 242 258 262 0
-217 -296 -194 0
-217 -296 -238 0
-217 -296 -242 0
-217 -296 -258 0
-217 -296 -262 0
-218 277 0
-218 296 0
-219 296 196 197 198 240 241 242 244 245 246 256 257 258 260 261 262 264 265 266 0
-219 -296 -196 0
-219 -296 -197 0
-219 -296 -198 0
-219 -296 -240 0
-219 -296 -241 0
-219 -296 -242 0
-219 -296 -244 0
-219 -296 -245 0
-219 -296 -246 0
-219 -296 -256 0
-219 -296 -257 0
-219 -296 -258 0
-219 -296 -260 0
-219 -296 -261 0
-219 -296 -262 0
-219 -296 -264 0
-219 -296 -265 0
-219 -296 -266 0
-220 279 0
-220 296 197 198 241 242 245 246 257 258 261 262 265 266 0
-220 -296 -197 0
-220 -296 -198 0
-220 -296 -241 0
-220 -296 -242 0
-220 -296 -245 0
-220 -296 -246 0
-220 -296 -257 0
-220 -296 -258 0
-220 -296 -261 0
-220 -296 -262 0
-220 -296 -265 0
-220 -296 -266 0
-221 280 0
-221 296 198 242 246 258 262 266 0
-221 -296 -198 0
-221 -296 -242 0
-221 -296 -246 0
-221 -296 -258 0
-221 -296 -262 0
-221 -296 -266 0
-222 281 0
-222 296 0
-223 296 200 201 202 244 245 246 248 249 250 260 261 262 264 265 266 268 269 270 0
-223 -296 -200 0
-223 -296 -201 0
-223 -296 -202 0
-223 -296 -244 0
-223 -296 -245 0
-223 -296 -246 0
-223 -296 -248 0
-223 -296 -249 0
-223 -296 -250 0
-223 -296 -260 0
-223 -296 -261 0
-223 -296 -262 0
-223 -296 -264 0
-223 -296 -265 0
-223 -296 -266 0
-223 -296 -268 0
-223 -296 -269 0
-223 -296 -270 0
-224 283 0
-224 296 201 202 245 246 249 250 261 262 265 266 269 270 0
-224 -296 -201 0
-224 -296 -202 0
-224 -296 -245 0
-224 -296 -246 0
-224 -296 -249 0
-224 -296 -250 0
-224 -296 -261 0
-224 -296 -262 0
-224 -296 -265 0
-224 -296 -266 0
-224 -296 -269 0
-224 -296 -270 0
-225 284 0
-225 296 202 246 250 262 266 270 0
-225 -296 -202 0
-225 -296 -246 0
-225 -296 -250 0
-225 -296 -262 0
-225 -296 -266 0
-225 -296 -270 0
-226 285 0
-226 296 0
-227 296 204 205 206 248 249 250 252 253 254 264 265 266 268 269 270 0
-227 -296 -204 0
-227 -296 -205 0
-227 -296 -206 0
-227 -296 -248 0
-227 -296 -249 0
-227 -296 -250 0
-227 -296 -252 0
-227 -296 -253 0
-227 -296 -254 0
-227 -296 -264 0
-227 -296 -265 0
-227 -296 -266 0
-227 -296 -268 0
-227 -296 -269 0
-227 -296 -270 0
-228 287 0
-228 296 205 206 249 250 253 254 265 266 269 270 0
-228 -296 -205 0
-228 -296 -206 0
-228 -296 -249 0
-228 -296 -250 0
-228 -296 -253 0
-228 -296 -254 0
-228 -296 -265 0
-228 -296 -266 0
-228 -296 -269 0
-228 -296 -270 0
-229 288 0
-229 296 206 250 254 266 270 0
-229 -296 -206 0
-229 -296 -250 0
-229 -296 -254 0
-229 -296 -266 0
-229 -296 -270 0
-230 289 0
-230 296 0
-231 296 208 209 210 252 253 254 268 269 270 0
-231 -296 -208 0
-231 -296 -209 0
-231 -296 -210 0
-231 -296 -252 0
-231 -296 -253 0
-231 -296 -254 0
-231 -296 -268 0
-231 -296 -269 0
-231 -296 -270 0
-232 291 0
-232 296 209 210 253 254 269 270 0
-232 -296 -209 0
-232 -296 -210 0
-232 -296 -253 0
-232 -296 -254 0
-232 -296 -269 0
-232 -296 -270 0
-233 292 0
-233 296 210 254 270 0
-233 -296 -210 0
-233 -296 -254 0
-233 -296 -270 0
-234 293 0
-234 296 0
-235 297 188 189 190 192 193 194 212 213 214 216 217 218 256 257 258 260 261 262 0
-235 -297 -188 0
-235 -297 -189 0
-235 -297 -190 0
-235 -297 -192 0
-235 -297 -193 0
-235 -297 -194 0
-235 -297 -212 0
-235 -297 -213 0
-235 -297 -214 0
-235 -297 -216 0
-235 -297 -217 0
-235 -297 -218 0
-235 -297 -256 0
-235 -297 -257 0
-235 -297 -258 0
-235 -297 -260 0
-235 -297 -261 0
-235 -297 -262 0
-236 271 275 0
-236 297 189 190 193 194 213 214 217 218 257 258 261 262 0
-236 -297 -189 0
-236 -297 -190 0
-236 -297 -193 0
-236 -297 -194 0
-236 -297 -213 0
-236 -297 -214 0
-236 -297 -217 0
-236 -297 -218 0
-236 -297 -257 0
-236 -297 -258 0
-236 -297 -261 0
-236 -297 -262 0
-237 272 276 0
-237 297 190 194 214 218 258 262 0
-237 -297 -190 0
-237 -297 -194 0
-237 -297 -214 0
-237 -297 -218 0
-237 -297 -258 0
-237 -297 -262 0
-238 273 277 0
-238 297 0
-239 297 192 193 194 196 197 198 216 217 218 220 221 222 256 257 258 260 261 262 264 265 266 0
-239 -297 -192 0
-239 -297 -193 0
-239 -297 -194 0
-239 -297 -196 0
-239 -297 -197 0
-239 -297 -198 0
-239 -297 -216 0
-239 -297 -217 0
-239 -297 -218 0
-239 -297 -220 0
-239 -297 -221 0
-239 -297 -222 0
-239 -297 -256 0
-239 -297 -257 0
-239 -297 -258 0
-239 -297 -260 0
-239 -297 -261 0
-239 -297 -262 0
-239 -297 -264 0
-239 -297 -265 0
-239 -297 -266 0
-240 275 279 0
-240 297 193 194 197 198 217 218 221 222 257 258 261 262 265 266 0
-240 -297 -193 0
-240 -297 -194 0
-240 -297 -197 0
-240 -297 -198 0
-240 -297 -217 0
-240 -297 -218 0
-240 -297 -221 0
-240 -297 -222 0
-240 -297 -257 0
-240 -297 -258 0
-240 -297 -261 0
-240 -297 -262 0
-240 -297 -265 0
-240 -297 -266 0
-241 276 280 0
-241 297 194 198 218 222 258 262 266 0
-241 -297 -194 0
-241 -297 -198 0
-241 -297 -218 0
-241 -297 -222 0
-241 -297 -258 0
-241 -297 -262 0
-241 -297 -266 0
-242 277 281 0
-242 297 0
-243 297 196 197 198 200 201 202 220 221 222 224 225 226 256 257 258 260 261 262 264 265 266 268 269 270 0
-243 -297 -196 0
-243 -297 -197 0
-243 -297 -198 0
-243 -297 -200 0
-243 -297 -201 0
-243 -297 -202 0
-243 -297 -220 0
-243 -297 -221 0
-243 -297 -222 0
-243 -297 -224 0
-243 -297 -225 0
-243 -297 -226 0
-243 -297 -256 0
-243 -297 -257 0
-243 -297 -258 0
-243 -297 -260 0
-243 -297 -261 0
-243 -297 -262 0
-243 -297 -264 0
-243 -297 -265 0
-243 -297 -266 0
-243 -297 -268 0
-243 -297 -269 0
-243 -297 -270 0
-244 279 283 0
-244 297 197 198 201 202 221 222 225 226 257 258 261 262 265 266 269 270 0
-244 -297 -197 0
-244 -297 -198 0
-244 -297 -201 0
-244 -297 -202 0
-244 -297 -221 0
-244 -297 -222 0
-244 -297 -225 0
-244 -297 -226 0
-244 -297 -257 0
-244 -297 -258 0
-244 -297 -261 0
-244 -297 -262 0
-244 -297 -265 0
-244 -297 -266 0
-244 -297 -269 0
-244 -297 -270 0
-245 280 284 0
-245 297 198 202 222 226 258 262 266 270 0
-245 -297 -198 0
-245 -297 -202 0
-245 -297 -222 0
-245 -297 -226 0
-245 -297 -258 0
-245 -297 -262 0
-245 -297 -266 0
-245 -297 -270 0
-246 281 285 0
-246 297 0
-247 297 200 201 202 204 205 206 224 225 226 228 229 230 260 261 262 264 265 266 268 269 270 0
-247 -297 -200 0
-247 -297 -201 0
-247 -297 -202 0
-247 -297 -204 0
-247 -297 -205 0
-247 -297 -206 0
-247 -297 -224 0
-247 -297 -225 0
-247 -297 -226 0
-247 -297 -228 0
-247 -297 -229 0
-247 -297 -230 0
-247 -297 -260 0
-247 -297 -261 0
-247 -297 -262 0
-247 -297 -264 0
-247 -297 -265 0
-247 -297 -266 0
-247 -297 -268 0
-247 -297 -269 0
-247 -297 -270 0
-248 283 287 0
-248 297 201 202 205 206 225 226 229 230 261 262 265 266 269 270 0
-248 -297 -201 0
-248 -297 -202 0
-248 -297 -205 0
-248 -297 -206 0
-248 -297 -225 0
-248 -297 -226 0
-248 -297 -229 0
-248 -297 -230 0
-248 -297 -261 0
-248 -297 -262 0
-248 -297 -265 0
-248 -297 -266 0
-248 -297 -269 0
-248 -297 -270 0
-249 284 288 0
-249 297 202 206 226 230 262 266 270 0
-249 -297 -202 0
-249 -297 -206 0
-249 -297 -226 0
-249 -297 -230 0
-249 -297 -262 0
-249 -297 -266 0
-249 -297 -270 0
-250 285 289 0
-250 297 0
-251 297 204 205 206 208 209 210 228 229 230 232 233 234 264 265 266 268 269 270 0
-251 -297 -204 0
-251 -297 -205 0
-251 -297 -206 0
-251 -297 -208 0
-251 -297 -209 0
-251 -297 -210 0
-251 -297 -228 0
-251 -297 -229 0
-251 -297 -230 0
-251 -297 -232 0
-251 -297 -233 0
-251 -297 -234 0
-251 -297 -264 0
-251 -297 -265 0
-251 -297 -266 0
-251 -297 -268 0
-251 -297 -269 0
-251 -297 -270 0
-252 287 291 0
-252 297 205 206 209 210 229 230 233 234 265 266 269 270 0
-252 -297 -205 0
-252 -297 -206 0
-252 -297 -209 0
-252 -297 -210 0
-252 -297 -229 0
-252 -297 -230 0
-252 -297 -233 0
-252 -297 -234 0
-252 -297 -265 0
-252 -297 -266 0
-252 -297 -269 0
-252 -297 -270 0
-253 288 292 0
-253 297 206 210 230 234 266 270 0
-253 -297 -206 0
-253 -297 -210 0
-253 -297 -230 0
-253 -297 -234 0
-253 -297 -266 0
-253 -297 -270 0
-254 289 293 0
-254 297 0
-255 298 188 189 190 192 193 194 196 197 198 212 213 214 216 217 218 220 221 222 236 237 238 240 241 242 244 245 246 0
-255 -298 -188 0
-255 -298 -189 0
-255 -298 -190 0
-255 -298 -192 0
-255 -298 -193 0
-255 -298 -194 0
-255 -298 -196 0
-255 -298 -197 0
-255 -298 -198 0
-255 -298 -212 0
-255 -298 -213 0
-255 -298 -214 0
-255 -298 -216 0
-255 -298 -217 0
-255 -298 -218 0
-255 -298 -220 0
-255 -298 -221 0
-255 -298 -222 0
-255 -298 -236 0
-255 -298 -237 0
-255 -298 -238 0
-255 -298 -240 0
-255 -298 -241 0
-255 -298 -242 0
-255 -298 -244 0
-255 -298 -245 0
-255 -298 -246 0
-256 271 275 0
-256 271 279 0
-256 275 279 0
-256 298 189 190 193 194 197 198 213 214 217 218 221 222 237 238 241 242 245 246 0
-256 -298 -189 0
-256 -298 -190 0
-256 -298 -193 0
-256 -298 -194 0
-256 -298 -197 0
-256 -298 -198 0
-256 -298 -213 0
-256 -298 -214 0
-256 -298 -217 0
-256 -298 -218 0
-256 -298 -221 0
-256 -298 -222 0
-256 -298 -237 0
-256 -298 -238 0
-256 -298 -241 0
-256 -298 -242 0
-256 -298 -245 0
-256 -298 -246 0
-257 272 276 0
-257 272 280 0
-257 276 280 0
-257 298 190 194 198 214 218 222 238 242 246 0
-257 -298 -190 0
-257 -298 -194 0
-257 -298 -198 0
-257 -298 -214 0
-257 -298 -218 0
-257 -298 -222 0
-257 -298 -238 0
-257 -298 -242 0
-257 -298 -246 0
-258 273 277 0
-258 273 281 0
-258 277 281 0
-258 298 0
-259 298 192 193 194 196 197 198 200 201 202 216 217 218 220 221 222 224 225 226 236 237 238 240 241 242 244 245 246 248 249 250 0
-259 -298 -192 0
-259 -298 -193 0
-259 -298 -194 0
-259 -298 -196 0
-259 -298 -197 0
-259 -298 -198 0
-259 -298 -200 0
-259 -298 -201 0
-259 -298 -202 0
-259 -298 -216 0
-259 -298 -217 0
-259 -298 -218 0
-259 -298 -220 0
-259 -298 -221 0
-259 -298 -222 0
-259 -298 -224 0
-259 -298 -225 0
-259 -298 -226 0
-259 -298 -236 0
-259 -298 -237 0
-259 -298 -238 0
-259 -298 -240 0
-259 -298 -241 0
-259 -298 -242 0
-259 -298 -244 0
-259 -298 -245 0
-259 -298 -246 0
-259 -298 -248 0
-259 -298 -249 0
-259 -298 -250 0
-260 275 279 0
-260 275 283 0
-260 279 283 0
-260 298 193 194 197 198 201 202 217 218 221 222 225 226 237 238 241 242 245 246 249 250 0
-260 -298 -193 0
-260 -298 -194 0
-260 -298 -197 0
-260 -298 -198 0
-260 -298 -201 0
-260 -298 -202 0
-260 -298 -217 0
-260 -298 -218 0
-260 -298 -221 0
-260 -298 -222 0
-260 -298 -225 0
-260 -298 -226 0
-260 -298 -237 0
-260 -298 -238 0
-260 -298 -241 0
-260 -298 -242 0
-260 -298 -245 0
-260 -298 -246 0
-260 -298 -249 0
-260 -298 -250 0
-261 276 280 0
-261 276 284 0
-261 280 284 0
-261 298 194 198 202 218 222 226 238 242 246 250 0
-261 -298 -194 0
-261 -298 -198 0
-261 -298 -202 0
-261 -298 -218 0
-261 -298 -222 0
-261 -298 -226 0
-261 -298 -238 0
-261 -298 -242 0
-261 -298 -246 0
-261 -298 -250 0
-262 277 281 0
-262 277 285 0
-262 281 285 0
-262 298 0
-263 298 196 197 198 200 201 202 204 205 206 220 221 222 224 225 226 228 229 230 240 241 242 244 245 246 248 249 250 252 253 254 0
-263 -298 -196 0
-263 -298 -197 0
-263 -298 -198 0
-263 -298 -200 0
-263 -298 -201 0
-263 -298 -202 0
-263 -298 -204 0
-263 -298 -205 0
-263 -298 -206 0
-263 -298 -220 0
-263 -298 -221 0
-263 -298 -222 0
-263 -298 -224 0
-263 -298 -225 0
-263 -298 -226 0
-263 -298 -228 0
-263 -298 -229 0
-263 -298 -230 0
-263 -298 -240 0
-263 -298 -241 0
-263 -298 -242 0
-263 -298 -244 0
-263 -298 -245 0
-263 -298 -246 0
-263 -298 -248 0
-263 -298 -249 0
-263 -298 -250 0
-263 -298 -252 0
-263 -298 -253 0
-263 -298 -254 0
-264 279 283 0
-264 279 287 0
-264 283 287 0
-264 298 197 198 201 202 205 206 221 222 225 226 229 230 241 242 245 246 249 250 253 254 0
-264 -298 -197 0
-264 -298 -198 0
-264 -298 -201 0
-264 -298 -202 0
-264 -298 -205 0
-264 -298 -206 0
-264 -298 -221 0
-264 -298 -222 0
-264 -298 -225 0
-264 -298 -226 0
-264 -298 -229 0
-264 -298 -230 0
-264 -298 -241 0
-264 -298 -242 0
-264 -298 -245 0
-264 -298 -246 0
-264 -298 -249 0
-264 -298 -250 0
-264 -298 -253 0
-264 -298 -254 0
-265 280 284 0
-265 280 288 0
-265 284 288 0
-265 298 198 202 206 222 226 230 242 246 250 254 0
-265 -298 -198 0
-265 -298 -202 0
-265 -298 -206 0
-265 -298 -222 0
-265 -298 -226 0
-265 -298 -230 0
-265 -298 -242 0
-265 -298 -246 0
-265 -298 -250 0
-265 -298 -254 0
-266 281 285 0
-266 281 289 0
-266 285 289 0
-266 298 0
-267 298 200 201 202 204 205 206 208 209 210 224 225 226 228 229 230 232 233 234 244 245 246 248 249 250 252 253 254 0
-267 -298 -200 0
-267 -298 -201 0
-267 -298 -202 0
-267 -298 -204 0
-267 -298 -205 0
-267 -298 -206 0
-267 -298 -208 0
-267 -298 -209 0
-267 -298 -210 0
-267 -298 -224 0
-267 -298 -225 0
-267 -298 -226 0
-267 -298 -228 0
-267 -298 -229 0
-267 -298 -230 0
-267 -298 -232 0
-267 -298 -233 0
-267 -298 -234 0
-267 -298 -244 0
-267 -298 -245 0
-267 -298 -246 0
-267 -298 -248 0
-267 -298 -249 0
-267 -298 -250 0
-267 -298 -252 0
-267 -298 -253 0
-267 -298 -254 0
-268 283 287 0
-268 283 291 0
-268 287 291 0
-268 298 201 202 205 206 209 210 225 226 229 230 233 234 245 246 249 250 253 254 0
-268 -298 -201 0
-268 -298 -202 0
-268 -298 -205 0
-268 -298 -206 0
-268 -298 -209 0
-268 -298 -210 0
-268 -298 -225 0
-268 -298 -226 0
-268 -298 -229 0
-268 -298 -230 0
-268 -298 -233 0
-268 -298 -234 0
-268 -298 -245 0
-268 -298 -246 0
-268 -298 -249 0
-268 -298 -250 0
-268 -298 -253 0
-268 -298 -254 0
-269 284 288 0
-269 284 292 0
-269 288 292 0
-269 298 202 206 210 226 230 234 246 250 254 0
-269 -298 -202 0
-269 -298 -206 0
-269 -298 -210 0
-269 -298 -226 0
-269 -298 -230 0
-269 -298 -234 0
-269 -298 -246 0
-269 -298 -250 0
-269 -298 -254 0
-270 285 289 0
-270 285 293 0
-270 289 293 0
-270 298 0
299 300 301 302 303 304 0
-299 -300 0
-299 -301 0
-299 -302 0
-299 -303 0
-299 -304 0
-300 -301 0
-300 -302 0
-300 -303 0
-300 -304 0
-301 -302 0
-301 -303 0
-301 -304 0
-302 -303 0
-302 -304 0
-303 -304 0
305 306 307 308 0
-305 -306 0
-305 -307 0
-305 -308 0
-306 -307 0
-306 -308 0
-307 -308 0
309 310 311 312 313 314 0
-309 -310 0
-309 -311 0
-309 -312 0
-309 -313 0
-309 -314 0
-310 -311 0
-310 -312 0
-310 -313 0
-310 -314 0
-311 -312 0
-311 -313 0
-311 -314 0
-312 -313 0
-312 -314 0
-313 -314 0
315 316 317 318 0
-315 -316 0
-315 -317 0
-315 -318 0
-316 -317 0
-316 -318 0
-317 -318 0
319 320 321 322 323 0
-319 -320 0
-319 -321 0
-319 -322 0
-319 -323 0
-320 -321 0
-320 -322 0
-320 -323 0
-321 -322 0
-321 -323 0
-322 -323 0
324 325 326 327 0
-324 -325 0
-324 -326 0
-324 -327 0
-325 -326 0
-325 -327 0
-326 -327 0
328 329 330 331 0
-328 -329 0
-328 -330 0
-328 -331 0
-329 -330 0
-329 -331 0
-330 -331 0
332 333 334 335 0
-332 -333 0
-332 -334 0
-332 -335 0
-333 -334 0
-333 -335 0
-334 -335 0
-336 299 0
-336 305 0
-299 -305 336 0
-337 299 0
-337 306 0
-299 -306 337 0
-338 299 0
-338 307 0
-299 -307 338 0
-339 299 0
-339 308 0
-299 -308 339 0
-340 300 0
-340 305 0
-300 -305 340 0
-341 300 0
-341 306 0
-300 -306 341 0
-342 300 0
-342 307 0
-300 -307 342 0
-343 300 0
-343 308 0
-300 -308 343 0
-344 301 0
-344 305 0
-301 -305 344 0
-345 301 0
-345 306 0
-301 -306 345 0
-346 301 0
-346 307 0
-301 -307 346 0
-347 301 0
-347 308 0
-301 -308 347 0
-348 302 0
-348 305 0
-302 -305 348 0
-349 302 0
-349 306 0
-302 -306 349 0
-350 302 0
-350 307 0
-302 -307 350 0
-351 302 0
-351 308 0
-302 -308 351 0
-352 303 0
-352 305 0
-303 -305 352 0
-353 303 0
-353 306 0
-303 -306 353 0
-354 303 0
-354 307 0
-303 -307 354 0
-355 303 0
-355 308 0
-303 -308 355 0
-356 304 0
-356 305 0
-304 -305 356 0
-357 304 0
-357 306 0
-304 -306 357 0
-358 304 0
-358 307 0
-304 -307 358 0
-359 304 0
-359 308 0
-304 -308 359 0
-360 309 0
-360 315 0
-309 -315 360 0
-361 309 0
-361 316 0
-309 -316 361 0
-362 309 0
-362 317 0
-309 -317 362 0
-363 309 0
-363 318 0
-309 -318 363 0
-364 310 0
-364 315 0
-310 -315 364 0
-365 310 0
-365 316 0
-310 -316 365 0
-366 310 0
-366 317 0
-310 -317 366 0
-367 310 0
-367 318 0
-310 -318 367 0
-368 311 0
-368 315 0
-311 -315 368 0
-369 311 0
-369 316 0
-311 -316 369 0
-370 311 0
-370 317 0
-311 -317 370 0
-371 311 0
-371 318 0
-311 -318 371 0
-372 312 0
-372 315 0
-312 -315 372 0
-373 312 0
-373 316 0
-312 -316 373 0
-374 312 0
-374 317 0
-312 -317 374 0
-375 312 0
-375 318 0
-312 -318 375 0
-376 313 0
-376 315 0
-313 -315 376 0
-377 313 0
-377 316 0
-313 -316 377 0
-378 313 0
-378 317 0
-313 -317 378 0
-379 313 0
-379 318 0
-313 -318 379 0
-380 314 0
-380 315 0
-314 -315 380 0
-381 314 0
-381 316 0
-314 -316 381 0
-382 314 0
-382 317 0
-314 -317 382 0
-383 314 0
-383 318 0
-314 -318 383 0
-384 319 0
-384 324 0
-319 -324 384 0
-385 319 0
-385 325 0
-319 -325 385 0
-386 319 0
-386 326 0
-319 -326 386 0
-387 319 0
-387 327 0
-319 -327 387 0
-388 320 0
-388 324 0
-320 -324 388 0
-389 320 0
-389 325 0
-320 -325 389 0
-390 320 0
-390 326 0
-320 -326 390 0
-391 320 0
-391 327 0
-320 -327 391 0
-392 321 0
-392 324 0
-321 -324 392 0
-393 321 0
-393 325 0
-321 -325 393 0
-394 321 0
-394 326 0
-321 -326 394 0
-395 321 0
-395 327 0
-321 -327 395 0
-396 322 0
-396 324 0
-322 -324 396 0
-397 322 0
-397 325 0
-322 -325 397 0
-398 322 0
-398 326 0
-322 -326 398 0
-399 322 0
-399 327 0
-322 -327 399 0
-400 323 0
-400 324 0
-323 -324 400 0
-401 323 0
-401 325 0
-323 -325 401 0
-402 323 0
-402 326 0
-323 -326 402 0
-403 323 0
-403 327 0
-323 -327 403 0
-404 328 0
-404 332 0
-328 -332 404 0
-405 328 0
-405 333 0
-328 -333 405 0
-406 328 0
-406 334 0
-328 -334 406 0
-407 328 0
-407 335 0
-328 -335 407 0
-408 329 0
-408 332 0
-329 -332 408 0
-409 329 0
-409 333 0
-329 -333 409 0
-410 329 0
-410 334 0
-329 -334 410 0
-411 329 0
-411 335 0
-329 -335 411 0
-412 330 0
-412 332 0
-330 -332 412 0
-413 330 0
-413 333 0
-330 -333 413 0
-414 330 0
-414 334 0
-330 -334 414 0
-415 330 0
-415 335 0
-330 -335 415 0
-416 331 0
-416 332 0
-331 -332 416 0
-417 331 0
-417 333 0
-331 -333 417 0
-418 331 0
-418 334 0
-331 -334 418 0
-419 331 0
-419 335 0
-331 -335 419 0
-420 336 360 384 404 0
-336 420 0
-360 420 0
-384 420 0
-404 420 0
-421 337 361 385 405 0
-337 421 0
-361 421 0
-385 421 0
-405 421 0
-422 338 362 386 406 0
-338 422 0
-362 422 0
-386 422 0
-406 422 0
-423 339 363 387 407 0
-339 423 0
-363 423 0
-387 423 0
-407 423 0
-424 340 364 384 388 404 408 0
-340 424 0
-364 424 0
-384 424 0
-388 424 0
-404 424 0
-408 424 0
-425 341 365 385 389 405 409 0
-341 425 0
-365 425 0
-385 425 0
-389 425 0
-405 425 0
-409 425 0
-426 342 366 386 390 406 410 0
-342 426 0
-366 426 0
-386 426 0
-390 426 0
-406 426 0
-410 426 0
-427 343 367 387 391 407 411 0
-343 427 0
-367 427 0
-387 427 0
-391 427 0
-407 427 0
-411 427 0
-428 344 368 388 392 404 408 412 0
-344 428 0
-368 428 0
-388 428 0
-392 428 0
-404 428 0
-408 428 0
-412 428 0
-429 345 369 389 393 405 409 413 0
-345 429 0
-369 429 0
-389 429 0
-393 429 0
-405 429 0
-409 429 0
-413 429 0
-430 346 370 390 394 406 410 414 0
-346 430 0
-370 430 0
-390 430 0
-394 430 0
-406 430 0
-410 430 0
-414 430 0
-431 347 371 391 395 407 411 415 0
-347 431 0
-371 431 0
-391 431 0
-395 431 0
-407 431 0
-411 431 0
-415 431 0
-432 348 372 392 396 408 412 416 0
-348 432 0
-372 432 0
-392 432 0
-396 432 0
-408 432 0
-412 432 0
-416 432 0
-433 349 373 393 397 409 413 417 0
-349 433 0
-373 433 0
-393 433 0
-397 433 0
-409 433 0
-413 433 0
-417 433 0
-434 350 374 394 398 410 414 418 0
-350 434 0
-374 434 0
-394 434 0
-398 434 0
-410 434 0
-414 434 0
-418 434 0
-435 351 375 395 399 411 415 419 0
-351 435 0
-375 435 0
-395 435 0
-399 435 0
-411 435 0
-415 435 0
-419 435 0
-436 352 376 396 400 412 416 0
-352 436 0
-376 436 0
-396 436 0
-400 436 0
-412 436 0
-416 436 0
-437 353 377 397 401 413 417 0
-353 437 0
-377 437 0
-397 437 0
-401 437 0
-413 437 0
-417 437 0
-438 354 378 398 402 414 418 0
-354 438 0
-378 438 0
-398 438 0
-402 438 0
-414 438 0
-418 438 0
-439 355 379 399 403 415 419 0
-355 439 0
-379 439 0
-399 439 0
-403 439 0
-415 439 0
-419 439 0
-440 356 380 400 416 0
-356 440 0
-380 440 0
-400 440 0
-416 440 0
-441 357 381 401 417 0
-357 441 0
-381 441 0
-401 441 0
-417 441 0
-442 358 382 402 418 0
-358 442 0
-382 442 0
-402 442 0
-418 442 0
-443 359 383 403 419 0
-359 443 0
-383 443 0
-403 443 0
-419 443 0
-336 -360 0
-336 -384 0
-336 -404 0
-337 -361 0
-337 -385 0
-337 -405 0
-338 -362 0
-338 -386 0
-338 -406 0
-339 -363 0
-339 -387 0
-339 -407 0
-340 -364 0
-340 -384 0
-340 -388 0
-340 -404 0
-340 -408 0
-341 -365 0
-341 -385 0
-341 -389 0
-341 -405 0
-341 -409 0
-342 -366 0
-342 -386 0
-342 -390 0
-342 -406 0
-342 -410 0
-343 -367 0
-343 -387 0
-343 -391 0
-343 -407 0
-343 -411 0
-344 -368 0
-344 -388 0
-344 -392 0
-344 -404 0
-344 -408 0
-344 -412 0
-345 -369 0
-345 -389 0
-345 -393 0
-345 -405 0
-345 -409 0
-345 -413 0
-346 -370 0
-346 -390 0
-346 -394 0
-346 -406 0
-346 -410 0
-346 -414 0
-347 -371 0
-347 -391 0
-347 -395 0
-347 -407 0
-347 -411 0
-347 -415 0
-348 -372 0
-348 -392 0
-348 -396 0
-348 -408 0
-348 -412 0
-348 -416 0
-349 -373 0
-349 -393 0
-349 -397 0
-349 -409 0
-349 -413 0
-349 -417 0
-350 -374 0
-350 -394 0
-350 -398 0
-350 -410 0
-350 -414 0
-350 -418 0
-351 -375 0
-351 -395 0
-351 -399 0
-351 -411 0
-351 -415 0
-351 -419 0
-352 -376 0
-352 -396 0
-352 -400 0
-352 -412 0
-352 -416 0
-353 -377 0
-353 -397 0
-353 -401 0
-353 -413 0
-353 -417 0
-354 -378 0
-354 -398 0
-354 -402 0
-354 -414 0
-354 -418 0
-355 -379 0
-355 -399 0
-355 -403 0
-355 -415 0
-355 -419 0
-356 -380 0
-356 -400 0
-356 -416 0
-357 -381 0
-357 -401 0
-357 -417 0
-358 -382 0
-358 -402 0
-358 -418 0
-359 -383 0
-359 -403 0
-359 -419 0
-360 -384 0
-360 -404 0
-361 -385 0
-361 -405 0
-362 -386 0
-362 -406 0
-363 -387 0
-363 -407 0
-364 -384 0
-364 -388 0
-364 -404 0
-364 -408 0
-365 -385 0
-365 -389 0
-365 -405 0
-365 -409 0
-366 -386 0
-366 -390 0
-366 -406 0
-366 -410 0
-367 -387 0
-367 -391 0
-367 -407 0
-367 -411 0
-368 -388 0
-368 -392 0
-368 -404 0
-368 -408 0
-368 -412 0
-369 -389 0
-369 -393 0
-369 -405 0
-369 -409 0
-369 -413 0
-370 -390 0
-370 -394 0
-370 -406 0
-370 -410 0
-370 -414 0
-371 -391 0
-371 -395 0
-371 -407 0
-371 -411 0
-371 -415 0
-372 -392 0
-372 -396 0
-372 -408 0
-372 -412 0
-372 -416 0
-373 -393 0
-373 -397 0
-373 -409 0
-373 -413 0
-373 -417 0
-374 -394 0
-374 -398 0
-374 -410 0
-374 -414 0
-374 -418 0
-375 -395 0
-375 -399 0
-375 -411 0
-375 -415 0
-375 -419 0
-376 -396 0
-376 -400 0
-376 -412 0
-376 -416 0
-377 -397 0
-377 -401 0
-377 -413 0
-377 -417 0
-378 -398 0
-378 -402 0
-378 -414 0
-378 -418 0
-379 -399 0
-379 -403 0
-379 -415 0
-379 -419 0
-380 -400 0
-380 -416 0
-381 -401 0
-381 -417 0
-382 -402 0
-382 -418 0
-383 -403 0
-383 -419 0
-384 -404 0
-384 -408 0
-385 -405 0
-385 -409 0
-386 -406 0
-386 -410 0
-387 -407 0
-387 -411 0
-388 -404 0
-388 -408 0
-388 -412 0
-389 -405 0
-389 -409 0
-389 -413 0
-390 -406 0
-390 -410 0
-390 -414 0
-391 -407 0
-391 -411 0
-391 -415 0
-392 -404 0
-392 -408 0
-392 -412 0
-392 -416 0
-393 -405 0
-393 -409 0
-393 -413 0
-393 -417 0
-394 -406 0
-394 -410 0
-394 -414 0
-394 -418 0
-395 -407 0
-395 -411 0
-395 -415 0
-395 -419 0
-396 -408 0
-396 -412 0
-396 -416 0
-397 -409 0
-397 -413 0
-397 -417 0
-398 -410 0
-398 -414 0
-398 -418 0
-399 -411 0
-399 -415 0
-399 -419 0
-400 -412 0
-400 -416 0
-401 -413 0
-401 -417 0
-402 -414 0
-402 -418 0
-403 -415 0
-403 -419 0
-336 444 361 362 363 385 386 387 405 406 407 0
-336 -444 -361 0
-336 -444 -362 0
-336 -444 -363 0
-336 -444 -385 0
-336 -444 -386 0
-336 -444 -387 0
-336 -444 -405 0
-336 -444 -406 0
-336 -444 -407 0
-337 420 0
-337 444 362 363 386 387 406 407 0
-337 -444 -362 0
-337 -444 -363 0
-337 -444 -386 0
-337 -444 -387 0
-337 -444 -406 0
-337 -444 -407 0
-338 421 0
-338 444 363 387 407 0
-338 -444 -363 0
-338 -444 -387 0
-338 -444 -407 0
-339 422 0
-339 444 0
-340 444 365 366 367 385 386 387 389 390 391 405 406 407 409 410 411 0
-340 -444 -365 0
-340 -444 -366 0
-340 -444 -367 0
-340 -444 -385 0
-340 -444 -386 0
-340 -444 -387 0
-340 -444 -389 0
-340 -444 -390 0
-340 -444 -391 0
-340 -444 -405 0
-340 -444 -406 0
-340 -444 -407 0
-340 -444 -409 0
-340 -444 -410 0
-340 -444 -411 0
-341 424 0
-341 444 366 367 386 387 390 391 406 407 410 411 0
-341 -444 -366 0
-341 -444 -367 0
-341 -444 -386 0
-341 -444 -387 0
-341 -444 -390 0
-341 -444 -391 0
-341 -444 -406 0
-341 -444 -407 0
-341 -444 -410 0
-341 -444 -411 0
-342 425 0
-342 444 367 387 391 407 411 0
-342 -444 -367 0
-342 -444 -387 0
-342 -444 -391 0
-342 -444 -407 0
-342 -444 -411 0
-343 426 0
-343 444 0
-344 444 369 370 371 389 390 391 393 394 395 405 406 407 409 410 411 413 414 415 0
-344 -444 -369 0
-344 -444 -370 0
-344 -444 -371 0
-344 -444 -389 0
-344 -444 -390 0
-344 -444 -391 0
-344 -444 -393 0
-344 -444 -394 0
-344 -444 -395 0
-344 -444 -405 0
-344 -444 -406 0
-344 -444 -407 0
-344 -444 -409 0
-344 -444 -410 0
-344 -444 -411 0
-344 -444 -413 0
-344 -444 -414 0
-344 -444 -415 0
-345 428 0
-345 444 370 371 390 391 394 395 406 407 410 411 414 415 0
-345 -444 -370 0
-345 -444 -371 0
-345 -444 -390 0
-345 -444 -391 0
-345 -444 -394 0
-345 -444 -395 0
-345 -444 -406 0
-345 -444 -407 0
-345 -444 -410 0
-345 -444 -411 0
-345 -444 -414 0
-345 -444 -415 0
-346 429 0
-346 444 371 391 395 407 411 415 0
-346 -444 -371 0
-346 -444 -391 0
-346 -444 -395 0
-346 -444 -407 0
-346 -444 -411 0
-346 -444 -415 0
-347 430 0
-347 444 0
-348 444 373 374 375 393 394 395 397 398 399 409 410 411 413 414 415 417 418 419 0
-348 -444 -373 0
-348 -444 -374 0
-348 -444 -375 0
-348 -444 -393 0
-348 -444 -394 0
-348 -444 -395 0
-348 -444 -397 0
-348 -444 -398 0
-348 -444 -399 0
-348 -444 -409 0
-348 -444 -410 0
-348 -444 -411 0
-348 -444 -413 0
-348 -444 -414 0
-348 -444 -415 0
-348 -444 -417 0
-348 -444 -418 0
-348 -444 -419 0
-349 432 0
-349 444 374 375 394 395 398 399 410 411 414 415 418 419 0
-349 -444 -374 0
-349 -444 -375 0
-349 -444 -394 0
-349 -444 -395 0
-349 -444 -398 0
-349 -444 -399 0
-349 -444 -410 0
-349 -444 -411 0
-349 -444 -414 0
-349 -444 -415 0
-349 -444 -418 0
-349 -444 -419 0
-350 433 0
-350 444 375 395 399 411 415 419 0
-350 -444 -375 0
-350 -444 -395 0
-350 -444 -399 0
-350 -444 -411 0
-350 -444 -415 0
-350 -444 -419 0
-351 434 0
-351 444 0
-352 444 377 378 379 397 398 399 401 402 403 413 414 415 417 418 419 0
-352 -444 -377 0
-352 -444 -378 0
-352 -444 -379 0
-352 -444 -397 0
-352 -444 -398 0
-352 -444 -399 0
-352 -444 -401 0
-352 -444 -402 0
-352 -444 -403 0
-352 -444 -413 0
-352 -444 -414 0
-352 -444 -415 0
-352 -444 -417 0
-352 -444 -418 0
-352 -444 -419 0
-353 436 0
-353 444 378 379 398 399 402 403 414 415 418 419 0
-353 -444 -378 0
-353 -444 -379 0
-353 -444 -398 0
-353 -444 -399 0
-353 -444 -402 0
-353 -444 -403 0
-353 -444 -414 0
-353 -444 -415 0
-353 -444 -418 0
-353 -444 -419 0
-354 437 0
-354 444 379 399 403 415 419 0
-354 -444 -379 0
-354 -444 -399 0
-354 -444 -403 0
-354 -444 -415 0
-354 -444 -419 0
-355 438 0
-355 444 0
-356 444 381 382 383 401 402 403 417 418 419 0
-356 -444 -381 0
-356 -444 -382 0
-356 -444 -383 0
-356 -444 -401 0
-356 -444 -402 0
-356 -444 -403 0
-356 -444 -417 0
-356 -444 -418 0
-356 -444 -419 0
-357 440 0
-357 444 382 383 402 403 418 419 0
-357 -444 -382 0
-357 -444 -383 0
-357 -444 -402 0
-357 -444 -403 0
-357 -444 -418 0
-357 -444 -419 0
-358 441 0
-358 444 383 403 419 0
-358 -444 -383 0
-358 -444 -403 0
-358 -444 -419 0
-359 442 0
-359 444 0
-360 445 337 338 339 385 386 387 405 406 407 0
-360 -445 -337 0
-360 -445 -338 0
-360 -445 -339 0
-360 -445 -385 0
-360 -445 -386 0
-360 -445 -387 0
-360 -445 -405 0
-360 -445 -406 0
-360 -445 -407 0
-361 420 0
-361 445 338 339 386 387 406 407 0
-361 -445 -338 0
-361 -445 -339 0
-361 -445 -386 0
-361 -445 -387 0
-361 -445 -406 0
-361 -445 -407 0
-362 421 0
-362 445 339 387 407 0
-362 -445 -339 0
-362 -445 -387 0
-362 -445 -407 0
-363 422 0
-363 445 0
-364 445 341 342 343 385 386 387 389 390 391 405 406 407 409 410 411 0
-364 -445 -341 0
-364 -445 -342 0
-364 -445 -343 0
-364 -445 -385 0
-364 -445 -386 0
-364 -445 -387 0
-364 -445 -389 0
-364 -445 -390 0
-364 -445 -391 0
-364 -445 -405 0
-364 -445 -406 0
-364 -445 -407 0
-364 -445 -409 0
-364 -445 -410 0
-364 -445 -411 0
-365 424 0
-365 445 342 343 386 387 390 391 406 407 410 411 0
-365 -445 -342 0
-365 -445 -343 0
-365 -445 -386 0
-365 -445 -387 0
-365 -445 -390 0
-365 -445 -391 0
-365 -445 -406 0
-365 -445 -407 0
-365 -445 -410 0
-365 -445 -411 0
-366 425 0
-366 445 343 387 391 407 411 0
-366 -445 -343 0
-366 -445 -387 0
-366 -445 -391 0
-366 -445 -407 0
-366 -445 -411 0
-367 426 0
-367 445 0
-368 445 345 346 347 389 390 391 393 394 395 405 406 407 409 410 411 413 414 415 0
-368 -445 -345 0
-368 -445 -346 0
-368 -445 -347 0
-368 -445 -389 0
-368 -445 -390 0
-368 -445 -391 0
-368 -445 -393 0
-368 -445 -394 0
-368 -445 -395 0
-368 -445 -405 0
-368 -445 -406 0
-368 -445 -407 0
-368 -445 -409 0
-368 -445 -410 0
-368 -445 -411 0
-368 -445 -413 0
-368 -445 -414 0
-368 -445 -415 0
-369 428 0
-369 445 346 347 390 391 394 395 406 407 410 411 414 415 0
-369 -445 -346 0
-369 -445 -347 0
-369 -445 -390 0
-369 -445 -391 0
-369 -445 -394 0
-369 -445 -395 0
-369 -445 -406 0
-369 -445 -407 0
-369 -445 -410 0
-369 -445 -411 0
-369 -445 -414 0
-369 -445 -415 0
-370 429 0
-370 445 347 391 395 407 411 415 0
-370 -445 -347 0
-370 -445 -391 0
-370 -445 -395 0
-370 -445 -407 0
-370 -445 -411 0
-370 -445 -415 0
-371 430 0
-371 445 0
-372 445 349 350 351 393 394 395 397 398 399 409 410 411 413 414 415 417 418 419 0
-372 -445 -349 0
-372 -445 -350 0
-372 -445 -351 0
-372 -445 -393 0
-372 -445 -394 0
-372 -445 -395 0
-372 -445 -397 0
-372 -445 -398 0
-372 -445 -399 0
-372 -445 -409 0
-372 -445 -410 0
-372 -445 -411 0
-372 -445 -413 0
-372 -445 -414 0
-372 -445 -415 0
-372 -445 -417 0
-372 -445 -418 0
-372 -445 -419 0
-373 432 0
-373 445 350 351 394 395 398 399 410 411 414 415 418 419 0
-373 -445 -350 0
-373 -445 -351 0
-373 -445 -394 0
-373 -445 -395 0
-373 -445 -398 0
-373 -445 -399 0
-373 -445 -410 0
-373 -445 -411 0
-373 -445 -414 0
-373 -445 -415 0
-373 -445 -418 0
-373 -445 -419 0
-374 433 0
-374 445 351 395 399 411 415 419 0
-374 -445 -351 0
-374 -445 -395 0
-374 -445 -399 0
-374 -445 -411 0
-374 -445 -415 0
-374 -445 -419 0
-375 434 0
-375 445 0
-376 445 353 354 355 397 398 399 401 402 403 413 414 415 417 418 419 0
-376 -445 -353 0
-376 -445 -354 0
-376 -445 -355 0
-376 -445 -397 0
-376 -445 -398 0
-376 -445 -399 0
-376 -445 -401 0
-376 -445 -402 0
-376 -445 -403 0
-376 -445 -413 0
-376 -445 -414 0
-376 -445 -415 0
-376 -445 -417 0
-376 -445 -418 0
-376 -445 -419 0
-377 436 0
-377 445 354 355 398 399 402 403 414 415 418 419 0
-377 -445 -354 0
-377 -445 -355 0
-377 -445 -398 0
-377 -445 -399 0
-377 -445 -402 0
-377 -445 -403 0
-377 -445 -414 0
-377 -445 -415 0
-377 -445 -418 0
-377 -445 -419 0
-378 437 0
-378 445 355 399 403 415 419 0
-378 -445 -355 0
-378 -445 -399 0
-378 -445 -403 0
-378 -445 -415 0
-378 -445 -419 0
-379 438 0
-379 445 0
-380 445 357 358 359 401 402 403 417 418 419 0
-380 -445 -357 0
-380 -445 -358 0
-380 -445 -359 0
-380 -445 -401 0
-380 -445 -402 0
-380 -445 -403 0
-380 -445 -417 0
-380 -445 -418 0
-380 -445 -419 0
-381 440 0
-381 445 358 359 402 403 418 419 0
-381 -445 -358 0
-381 -445 -359 0
-381 -445 -402 0
-381 -445 -403 0
-381 -445 -418 0
-381 -445 -419 0
-382 441 0
-382 445 359 403 419 0
-382 -445 -359 0
-382 -445 -403 0
-382 -445 -419 0
-383 442 0
-383 445 0
-384 446 337 338 339 341 342 343 361 362 363 365 366 367 405 406 407 409 410 411 0
-384 -446 -337 0
-384 -446 -338 0
-384 -446 -339 0
-384 -446 -341 0
-384 -446 -342 0
-384 -446 -343 0
-384 -446 -361 0
-384 -446 -362 0
-384 -446 -363 0
-384 -446 -365 0
-384 -446 -366 0
-384 -446 -367 0
-384 -446 -405 0
-384 -446 -406 0
-384 -446 -407 0
-384 -446 -409 0
-384 -446 -410 0
-384 -446 -411 0
-385 420 424 0
-385 446 338 339 342 343 362 363 366 367 406 407 410 411 0
-385 -446 -338 0
-385 -446 -339 0
-385 -446 -342 0
-385 -446 -343 0
-385 -446 -362 0
-385 -446 -363 0
-385 -446 -366 0
-385 -446 -367 0
-385 -446 -406 0
-385 -446 -407 0
-385 -446 -410 0
-385 -446 -411 0
-386 421 425 0
-386 446 339 343 363 367 407 411 0
-386 -446 -339 0
-386 -446 -343 0
-386 -446 -363 0
-386 -446 -367 0
-386 -446 -407 0
-386 -446 -411 0
-387 422 426 0
-387 446 0
-388 446 341 342 343 345 346 347 365 366 367 369 370 371 405 406 407 409 410 411 413 414 415 0
-388 -446 -341 0
-388 -446 -342 0
-388 -446 -343 0
-388 -446 -345 0
-388 -446 -346 0
-388 -446 -347 0
-388 -446 -365 0
-388 -446 -366 0
-388 -446 -367 0
-388 -446 -369 0
-388 -446 -370 0
-388 -446 -371 0
-388 -446 -405 0
-388 -446 -406 0
-388 -446 -407 0
-388 -446 -409 0
-388 -446 -410 0
-388 -446 -411 0
-388 -446 -413 0
-388 -446 -414 0
-388 -446 -415 0
-389 424 428 0
-389 446 342 343 346 347 366 367 370 371 406 407 410 411 414 415 0
-389 -446 -342 0
-389 -446 -343 0
-389 -446 -346 0
-389 -446 -347 0
-389 -446 -366 0
-389 -446 -367 0
-389 -446 -370 0
-389 -446 -371 0
-389 -446 -406 0
-389 -446 -407 0
-389 -446 -410 0
-389 -446 -411 0
-389 -446 -414 0
-389 -446 -415 0
-390 425 429 0
-390 446 343 347 367 371 407 411 415 0
-390 -446 -343 0
-390 -446 -347 0
-390 -446 -367 0
-390 -446 -371 0
-390 -446 -407 0
-390 -446 -411 0
-390 -446 -415 0
-391 426 430 0
-391 446 0
-392 446 345 346 347 349 350 351 369 370 371 373 374 375 405 406 407 409 410 411 413 414 415 417 418 419 0
-392 -446 -345 0
-392 -446 -346 0
-392 -446 -347 0
-392 -446 -349 0
-392 -446 -350 0
-392 -446 -351 0
-392 -446 -369 0
-392 -446 -370 0
-392 -446 -371 0
-392 -446 -373 0
-392 -446 -374 0
-392 -446 -375 0
-392 -446 -405 0
-392 -446 -406 0
-392 -446 -407 0
-392 -446 -409 0
-392 -446 -410 0
-392 -446 -411 0
-392 -446 -413 0
-392 -446 -414 0
-392 -446 -415 0
-392 -446 -417 0
-392 -446 -418 0
-392 -446 -419 0
-393 428 432 0
-393 446 346 347 350 351 370 371 374 375 406 407 410 411 414 415 418 419 0
-393 -446 -346 0
-393 -446 -347 0
-393 -446 -350 0
-393 -446 -351 0
-393 -446 -370 0
-393 -446 -371 0
-393 -446 -374 0
-393 -446 -375 0
-393 -446 -406 0
-393 -446 -407 0
-393 -446 -410 0
-393 -446 -411 0
-393 -446 -414 0
-393 -446 -415 0
-393 -446 -418 0
-393 -446 -419 0
-394 429 433 0
-394 446 347 351 371 375 407 411 415 419 0
-394 -446 -347 0
-394 -446 -351 0
-394 -446 -371 0
-394 -446 -375 0
-394 -446 -407 0
-394 -446 -411 0
-394 -446 -415 0
-394 -446 -419 0
-395 430 434 0
-395 446 0
-396 446 349 350 351 353 354 355 373 374 375 377 378 379 409 410 411 413 414 415 417 418 419 0
-396 -446 -349 0
-396 -446 -350 0
-396 -446 -351 0
-396 -446 -353 0
-396 -446 -354 0
-396 -446 -355 0
-396 -446 -373 0
-396 -446 -374 0
-396 -446 -375 0
-396 -446 -377 0
-396 -446 -378 0
-396 -446 -379 0
-396 -446 -409 0
-396 -446 -410 0
-396 -446 -411 0
-396 -446 -413 0
-396 -446 -414 0
-396 -446 -415 0
-396 -446 -417 0
-396 -446 -418 0
-396 -446 -419 0
-397 432 436 0
-397 446 350 351 354 355 374 375 378 379 410 411 414 415 418 419 0
-397 -446 -350 0
-397 -446 -351 0
-397 -446 -354 0
-397 -446 -355 0
-397 -446 -374 0
-397 -446 -375 0
-397 -446 -378 0
-397 -446 -379 0
-397 -446 -410 0
-397 -446 -411 0
-397 -446 -414 0
-397 -446 -415 0
-397 -446 -418 0
-397 -446 -419 0
-398 433 437 0
-398 446 351 355 375 379 411 415 419 0
-398 -446 -351 0
-398 -446 -355 0
-398 -446 -375 0
-398 -446 -379 0
-398 -446 -411 0
-398 -446 -415 0
-398 -446 -419 0
-399 434 438 0
-399 446 0
-400 446 353 354 355 357 358 359 377 378 379 381 382 383 413 414 415 417 418 419 0
-400 -446 -353 0
-400 -446 -354 0
-400 -446 -355 0
-400 -446 -357 0
-400 -446 -358 0
-400 -446 -359 0
-400 -446 -377 0
-400 -446 -378 0
-400 -446 -379 0
-400 -446 -381 0
-400 -446 -382 0
-400 -446 -383 0
-400 -446 -413 0
-400 -446 -414 0
-400 -446 -415 0
-400 -446 -417 0
-400 -446 -418 0
-400 -446 -419 0
-401 436 440 0
-401 446 354 355 358 359 378 379 382 383 414 415 418 419 0
-401 -446 -354 0
-401 -446 -355 0
-401 -446 -358 0
-401 -446 -359 0
-401 -446 -378 0
-401 -446 -379 0
-401 -446 -382 0
-401 -446 -383 0
-401 -446 -414 0
-401 -446 -415 0
-401 -446 -418 0
-401 -446 -419 0
-402 437 441 0
-402 446 355 359 379 383 415 419 0
-402 -446 -355 0
-402 -446 -359 0
-402 -446 -379 0
-402 -446 -383 0
-402 -446 -415 0
-402 -446 -419 0
-403 438 442 0
-403 446 0
-404 447 337 338 339 341 342 343 345 346 347 361 362 363 365 366 367 369 370 371 385 386 387 389 390 391 393 394 395 0
-404 -447 -337 0
-404 -447 -338 0
-404 -447 -339 0
-404 -447 -341 0
-404 -447 -342 0
-404 -447 -343 0
-404 -447 -345 0
-404 -447 -346 0
-404 -447 -347 0
-404 -447 -361 0
-404 -447 -362 0
-404 -447 -363 0
-404 -447 -365 0
-404 -447 -366 0
-404 -447 -367 0
-404 -447 -369 0
-404 -447 -370 0
-404 -447 -371 0
-404 -447 -385 0
-404 -447 -386 0
-404 -447 -387 0
-404 -447 -389 0
-404 -447 -390 0
-404 -447 -391 0
-404 -447 -393 0
-404 -447 -394 0
-404 -447 -395 0
-405 420 424 0
-405 420 428 0
-405 424 428 0
-405 447 338 339 342 343 346 347 362 363 366 367 370 371 386 387 390 391 394 395 0
-405 -447 -338 0
-405 -447 -339 0
-405 -447 -342 0
-405 -447 -343 0
-405 -447 -346 0
-405 -447 -347 0
-405 -447 -362 0
-405 -447 -363 0
-405 -447 -366 0
-405 -447 -367 0
-405 -447 -370 0
-405 -447 -371 0
-405 -447 -386 0
-405 -447 -387 0
-405 -447 -390 0
-405 -447 -391 0
-405 -447 -394 0
-405 -447 -395 0
-406 421 425 0
-406 421 429 0
-406 425 429 0
-406 447 339 343 347 363 367 371 387 391 395 0
-406 -447 -339 0
-406 -447 -343 0
-406 -447 -347 0
-406 -447 -363 0
-406 -447 -367 0
-406 -447 -371 0
-406 -447 -387 0
-406 -447 -391 0
-406 -447 -395 0
-407 422 426 0
-407 422 430 0
-407 426 430 0
-407 447 0
-408 447 341 342 343 345 346 347 349 350 351 365 366 367 369 370 371 373 374 375 385 386 387 389 390 391 393 394 395 397 398 399 0
-408 -447 -341 0
-408 -447 -342 0
-408 -447 -343 0
-408 -447 -345 0
-408 -447 -346 0
-408 -447 -347 0
-408 -447 -349 0
-408 -447 -350 0
-408 -447 -351 0
-408 -447 -365 0
-408 -447 -366 0
-408 -447 -367 0
-408 -447 -369 0
-408 -447 -370 0
-408 -447 -371 0
-408 -447 -373 0
-408 -447 -374 0
-408 -447 -375 0
-408 -447 -385 0
-408 -447 -386 0
-408 -447 -387 0
-408 -447 -389 0
-408 -447 -390 0
-408 -447 -391 0
-408 -447 -393 0
-408 -447 -394 0
-408 -447 -395 0
-408 -447 -397 0
-408 -447 -398 0
-408 -447 -399 0
-409 424 428 0
-409 424 432 0
-409 428 432 0
-409 447 342 343 346 347 350 351 366 367 370 371 374 375 386 387 390 391 394 395 398 399 0
-409 -447 -342 0
-409 -447 -343 0
-409 -447 -346 0
-409 -447 -347 0
-409 -447 -350 0
-409 -447 -351 0
-409 -447 -366 0
-409 -447 -367 0
-409 -447 -370 0
-409 -447 -371 0
-409 -447 -374 0
-409 -447 -375 0
-409 -447 -386 0
-409 -447 -387 0
-409 -447 -390 0
-409 -447 -391 0
-409 -447 -394 0
-409 -447 -395 0
-409 -447 -398 0
-409 -447 -399 0
-410 425 429 0
-410 425 433 0
-410 429 433 0
-410 447 343 347 351 367 371 375 387 391 395 399 0
-410 -447 -343 0
-410 -447 -347 0
-410 -447 -351 0
-410 -447 -367 0
-410 -447 -371 0
-410 -447 -375 0
-410 -447 -387 0
-410 -447 -391 0
-410 -447 -395 0
-410 -447 -399 0
-411 426 430 0
-411 426 434 0
-411 430 434 0
-411 447 0
-412 447 345 346 347 349 350 351 353 354 355 369 370 371 373 374 375 377 378 379 389 390 391 393 394 395 397 398 399 401 402 403 0
-412 -447 -345 0
-412 -447 -346 0
-412 -447 -347 0
-412 -447 -349 0
-412 -447 -350 0
-412 -447 -351 0
-412 -447 -353 0
-412 -447 -354 0
-412 -447 -355 0
-412 -447 -369 0
-412 -447 -370 0
-412 -447 -371 0
-412 -447 -373 0
-412 -447 -374 0
-412 -447 -375 0
-412 -447 -377 0
-412 -447 -378 0
-412 -447 -379 0
-412 -447 -389 0
-412 -447 -390 0
-412 -447 -391 0
-412 -447 -393 0
-412 -447 -394 0
-412 -447 -395 0
-412 -447 -397 0
-412 -447 -398 0
-412 -447 -399 0
-412 -447 -401 0
-412 -447 -402 0
-412 -447 -403 0
-413 428 432 0
-413 428 436 0
-413 432 436 0
-413 447 346 347 350 351 354 355 370 371 374 375 378 379 390 391 394 395 398 399 402 403 0
-413 -447 -346 0
-413 -447 -347 0
-413 -447 -350 0
-413 -447 -351 0
-413 -447 -354 0
-413 -447 -355 0
-413 -447 -370 0
-413 -447 -371 0
-413 -447 -374 0
-413 -447 -375 0
-413 -447 -378 0
-413 -447 -379 0
-413 -447 -390 0
-413 -447 -391 0
-413 -447 -394 0
-413 -447 -395 0
-413 -447 -398 0
-413 -447 -399 0
-413 -447 -402 0
-413 -447 -403 0
-414 429 433 0
-414 429 437 0
-414 433 437 0
-414 447 347 351 355 371 375 379 391 395 399 403 0
-414 -447 -347 0
-414 -447 -351 0
-414 -447 -355 0
-414 -447 -371 0
-414 -447 -375 0
-414 -447 -379 0
-414 -447 -391 0
-414 -447 -395 0
-414 -447 -399 0
-414 -447 -403 0
-415 430 434 0
-415 430 438 0
-415 434 438 0
-415 447 0
-416 447 349 350 351 353 354 355 357 358 359 373 374 375 377 378 379 381 382 383 393 394 395 397 398 399 401 402 403 0
-416 -447 -349 0
-416 -447 -350 0
-416 -447 -351 0
-416 -447 -353 0
-416 -447 -354 0
-416 -447 -355 0
-416 -447 -357 0
-416 -447 -358 0
-416 -447 -359 0
-416 -447 -373 0
-416 -447 -374 0
-416 -447 -375 0
-416 -447 -377 0
-416 -447 -378 0
-416 -447 -379 0
-416 -447 -381 0
-416 -447 -382 0
-416 -447 -383 0
-416 -447 -393 0
-416 -447 -394 0
-416 -447 -395 0
-416 -447 -397 0
-416 -447 -398 0
-416 -447 -399 0
-416 -447 -401 0
-416 -447 -402 0
-416 -447 -403 0
-417 432 436 0
-417 432 440 0
-417 436 440 0
-417 447 350 351 354 355 358 359 374 375 378 379 382 383 394 395 398 399 402 403 0
-417 -447 -350 0
-417 -447 -351 0
-417 -447 -354 0
-417 -447 -355 0
-417 -447 -358 0
-417 -447 -359 0
-417 -447 -374 0
-417 -447 -375 0
-417 -447 -378 0
-417 -447 -379 0
-417 -447 -382 0
-417 -447 -383 0
-417 -447 -394 0
-417 -447 -395 0
-417 -447 -398 0
-417 -447 -399 0
-417 -447 -402 0
-417 -447 -403 0
-418 433 437 0
-418 433 441 0
-418 437 441 0
-418 447 351 355 359 375 379 383 395 399 403 0
-418 -447 -351 0
-418 -447 -355 0
-418 -447 -359 0
-418 -447 -375 0
-418 -447 -379 0
-418 -447 -383 0
-418 -447 -395 0
-418 -447 -399 0
-418 -447 -403 0
-419 434 438 0
-419 434 442 0
-419 438 442 0
-419 447 0
1 0
8 0
12 0
18 0
21 0
26 0
33 0
34 0
301 0
306 0
311 0
315 0
319 0
324 0
331 0
332 0
448 449 450 451 452 453 454 455 456 457 458 459 460 461 462 463 464 465 466 467 468 469 470 471 472 473 474 475 476 477 478 479 480 481 482 483 484 485 486 487 488 489 490 491 492 493 494 495 496 497 498 499 500 501 502 503 504 505 506 507 508 509 510 511 512 513 514 515 516 517 518 519 520 521 522 523 524 525 526 527 528 529 530 531 0
-448 -449 0
-448 -450 0
-448 -451 0
-448 -452 0
-448 -453 0
-448 -454 0
-448 -455 0
-448 -456 0
-448 -457 0
-448 -458 0
-448 -459 0
-448 -460 0
-448 -461 0
-448 -462 0
-448 -463 0
-448 -464 0
-448 -465 0
-448 -466 0
-448 -467 0
-448 -468 0
-448 -469 0
-448 -470 0
-448 -471 0
-448 -472 0
-448 -473 0
-448 -474 0
-448 -475 0
-448 -476 0
-448 -477 0
-448 -478 0
-448 -479 0
-448 -480 0
-448 -481 0
-448 -482 0
-448 -483 0
-448 -484 0
-448 -485 0
-448 -486 0
-448 -487 0
-448 -488 0
-448 -489 0
-448 -490 0
-448 -491 0
-448 -492 0
-448 -493 0
-448 -494 0
-448 -495 0
-448 -496 0
-448 -497 0
-448 -498 0
-448 -499 0
-448 -500 0
-448 -501 0
-448 -502 0
-448 -503 0
-448 -504 0
-448 -505 0
-448 -506 0
-448 -507 0
-448 -508 0
-448 -509 0
-448 -510 0
-448 -511 0
-448 -512 0
-448 -513 0
-448 -514 0
-448 -515 0
-448 -516 0
-448 -517 0
-448 -518 0
-448 -519 0
-448 -520 0
-448 -521 0
-448 -522 0
-448 -523 0
-448 -524 0
-448 -525 0
-448 -526 0
-448 -527 0
-448 -528 0
-448 -529 0
-448 -530 0
-448 -531 0
-449 -450 0
-449 -451 0
-449 -452 0
-449 -453 0
-449 -454 0
-449 -455 0
-449 -456 0
-449 -457 0
-449 -458 0
-449 -459 0
-449 -460 0
-449 -461 0
-449 -462 0
-449 -463 0
-449 -464 0
-449 -465 0
-449 -466 0
-449 -467 0
-449 -468 0
-449 -469 0
-449 -470 0
-449 -471 0
-449 -472 0
-449 -473 0
-449 -474 0
-449 -475 0
-449 -476 0
-449 -477 0
-449 -478 0
-449 -479 0
-449 -480 0
-449 -481 0
-449 -482 0
-449 -483 0
-449 -484 0
-449 -485 0
-449 -486 0
-449 -487 0
-449 -488 0
-449 -489 0
-449 -490 0
-449 -491 0
-449 -492 0
-449 -493 0
-449 -494 0
-449 -495 0
-449 -496 0
-449 -497 0
-449 -498 0
-449 -499 0
-449 -500 0
-449 -501 0
-449 -502 0
-449 -503 0
-449 -504 0
-449 -505 0
-449 -506 0
-449 -507 0
-449 -508 0
-449 -509 0
-449 -510 0
-449 -511 0
-449 -512 0
-449 -513 0
-449 -514 0
-449 -515 0
-449 -516 0
-449 -517 0
-449 -518 0
-449 -519 0
-449 -520 0
-449 -521 0
-449 -522 0
-449 -523 0
-449 -524 0
-449 -525 0
-449 -526 0
-449 -527 0
-449 -528 0
-449 -529 0
-449 -530 0
-449 -531 0
-450 -451 0
-450 -452 0
-450 -453 0
-450 -454 0
-450 -455 0
-450 -456 0
-450 -457 0
-450 -458 0
-450 -459 0
-450 -460 0
-450 -461 0
-450 -462 0
-450 -463 0
-450 -464 0
-450 -465 0
-450 -466 0
-450 -467 0
-450 -468 0
-450 -469 0
-450 -470 0
-450 -471 0
-450 -472 0
-450 -473 0
-450 -474 0
-450 -475 0
-450 -476 0
-450 -477 0
-450 -478 0
-450 -479 0
-450 -480 0
-450 -481 0
-450 -482 0
-450 -483 0
-450 -484 0
-450 -485 0
-450 -486 0
-450 -487 0
-450 -488 0
-450 -489 0
-450 -490 0
-450 -491 0
-450 -492 0
-450 -493 0
-450 -494 0
-450 -495 0
-450 -496 0
-450 -497 0
-450 -498 0
-450 -499 0
-450 -500 0
-450 -501 0
-450 -502 0
-450 -503 0
-450 -504 0
-450 -505 0
-450 -506 0
-450 -507 0
-450 -508 0
-450 -509 0
-450 -510 0
-450 -511 0
-450 -512 0
-450 -513 0
-450 -514 0
-450 -515 0
-450 -516 0
-450 -517 0
-450 -518 0
-450 -519 0
-450 -520 0
-450 -521 0
-450 -522 0
-450 -523 0
-450 -524 0
-450 -525 0
-450 -526 0
-450 -527 0
-450 -528 0
-450 -529 0
-450 -530 0
-450 -531 0
-451 -452 0
-451 -453 0
-451 -454 0
-451 -455 0
-451 -456 0
-451 -457 0
-451 -458 0
-451 -459 0
-451 -460 0
-451 -461 0
-451 -462 0
-451 -463 0
-451 -464 0
-451 -465 0
-451 -466 0
-451 -467 0
-451 -468 0
-451 -469 0
-451 -470 0
-451 -471 0
-451 -472 0
-451 -473 0
-451 -474 0
-451 -475 0
-451 -476 0
-451 -477 0
-451 -478 0
-451 -479 0
-451 -480 0
-451 -481 0
-451 -482 0
-451 -483 0
-451 -484 0
-451 -485 0
-451 -486 0
-451 -487 0
-451 -488 0
-451 -489 0
-451 -490 0
-451 -491 0
-451 -492 0
-451 -493 0
-451 -494 0
-451 -495 0
-451 -496 0
-451 -497 0
-451 -498 0
-451 -499 0
-451 -500 0
-451 -501 0
-451 -502 0
-451 -503 0
-451 -504 0
-451 -505 0
-451 -506 0
-451 -507 0
-451 -508 0
-451 -509 0
-451 -510 0
-451 -511 0
-451 -512 0
-451 -513 0
-451 -514 0
-451 -515 0
-451 -516 0
-451 -517 0
-451 -518 0
-451 -519 0
-451 -520 0
-451 -521 0
-451 -522 0
-451 -523 0
-451 -524 0
-451 -525 0
-451 -526 0
-451 -527 0
-451 -528 0
-451 -529 0
-451 -530 0
-451 -531 0
-452 -453 0
-452 -454 0
-452 -455 0
-452 -456 0
-452 -457 0
-452 -458 0
-452 -459 0
-452 -460 0
-452 -461 0
-452 -462 0
-452 -463 0
-452 -464 0
-452 -465 0
-452 -466 0
-452 -467 0
-452 -468 0
-452 -469 0
-452 -470 0
-452 -471 0
-452 -472 0
-452 -473 0
-452 -474 0
-452 -475 0
-452 -476 0
-452 -477 0
-452 -478 0
-452 -479 0
-452 -480 0
-452 -481 0
-452 -482 0
-452 -483 0
-452 -484 0
-452 -485 0
-452 -486 0
-452 -487 0
-452 -488 0
-452 -489 0
-452 -490 0
-452 -491 0
-452 -492 0
-452 -493 0
-452 -494 0
-452 -495 0
-452 -496 0
-452 -497 0
-452 -498 0
-452 -499 0
-452 -500 0
-452 -501 0
-452 -502 0
-452 -503 0
-452 -504 0
-452 -505 0
-452 -506 0
-452 -507 0
-452 -508 0
-452 -509 0
-452 -510 0
-452 -511 0
-452 -512 0
-452 -513 0
-452 -514 0
-452 -515 0
-452 -516 0
-452 -517 0
-452 -518 0
-452 -519 0
-452 -520 0
-452 -521 0
-452 -522 0
-452 -523 0
-452 -524 0
-452 -525 0
-452 -526 0
-452 -527 0
-452 -528 0
-452 -529 0
-452 -530 0
-452 -531 0
-453 -454 0
-453 -455 0
-453 -456 0
-453 -457 0
-453 -458 0
-453 -459 0
-453 -460 0
-453 -461 0
-453 -462 0
-453 -463 0
-453 -464 0
-453 -465 0
-453 -466 0
-453 -467 0
-453 -468 0
-453 -469 0
-453 -470 0
-453 -471 0
-453 -472 0
-453 -473 0
-453 -474 0
-453 -475 0
-453 -476 0
-453 -477 0
-453 -478 0
-453 -479 0
-453 -480 0
-453 -481 0
-453 -482 0
-453 -483 0
-453 -484 0
-453 -485 0
-453 -486 0
-453 -487 0
-453 -488 0
-453 -489 0
-453 -490 0
-453 -491 0
-453 -492 0
-453 -493 0
-453 -494 0
-453 -495 0
-453 -496 0
-453 -497 0
-453 -498 0
-453 -499 0
-453 -500 0
-453 -501 0
-453 -502 0
-453 -503 0
-453 -504 0
-453 -505 0
-453 -506 0
-453 -507 0
-453 -508 0
-453 -509 0
-453 -510 0
-453 -511 0
-453 -512 0
-453 -513 0
-453 -514 0
-453 -515 0
-453 -516 0
-453 -517 0
-453 -518 0
-453 -519 0
-453 -520 0
-453 -521 0
-453 -522 0
-453 -523 0
-453 -524 0
-453 -525 0
-453 -526 0
-453 -527 0
-453 -528 0
-453 -529 0
-453 -530 0
-453 -531 0
-454 -455 0
-454 -456 0
-454 -457 0
-454 -458 0
-454 -459 0
-454 -460 0
-454 -461 0
-454 -462 0
-454 -463 0
-454 -464 0
-454 -465 0
-454 -466 0
-454 -467 0
-454 -468 0
-454 -469 0
-454 -470 0
-454 -471 0
-454 -472 0
-454 -473 0
-454 -474 0
-454 -475 0
-454 -476 0
-454 -477 0
-454 -478 0
-454 -479 0
-454 -480 0
-454 -481 0
-454 -482 0
-454 -483 0
-454 -484 0
-454 -485 0
-454 -486 0
-454 -487 0
-454 -488 0
-454 -489 0
-454 -490 0
-454 -491 0
-454 -492 0
-454 -493 0
-454 -494 0
-454 -495 0
-454 -496 0
-454 -497 0
-454 -498 0
-454 -499 0
-454 -500 0
-454 -501 0
-454 -502 0
-454 -503 0
-454 -504 0
-454 -505 0
-454 -506 0
-454 -507 0
-454 -508 0
-454 -509 0
-454 -510 0
-454 -511 0
-454 -512 0
-454 -513 0
-454 -514 0
-454 -515 0
-454 -516 0
-454 -517 0
-454 -518 0
-454 -519 0
-454 -520 0
-454 -521 0
-454 -522 0
-454 -523 0
-454 -524 0
-454 -525 0
-454 -526 0
-454 -527 0
-454 -528 0
-454 -529 0
-454 -530 0
-454 -531 0
-455 -456 0
-455 -457 0
-455 -458 0
-455 -459 0
-455 -460 0
-455 -461 0
-455 -462 0
-455 -463 0
-455 -464 0
-455 -465 0
-455 -466 0
-455 -467 0
-455 -468 0
-455 -469 0
-455 -470 0
-455 -471 0
-455 -472 0
-455 -473 0
-455 -474 0
-455 -475 0
-455 -476 0
-455 -477 0
-455 -478 0
-455 -479 0
-455 -480 0
-455 -481 0
-455 -482 0
-455 -483 0
-455 -484 0
-455 -485 0
-455 -486 0
-455 -487 0
-455 -488 0
-455 -489 0
-455 -490 0
-455 -491 0
-455 -492 0
-455 -493 0
-455 -494 0
-455 -495 0
-455 -496 0
-455 -497 0
-455 -498 0
-455 -499 0
-455 -500 0
-455 -501 0
-455 -502 0
-455 -503 0
-455 -504 0
-455 -505 0
-455 -506 0
-455 -507 0
-455 -508 0
-455 -509 0
-455 -510 0
-455 -511 0
-455 -512 0
-455 -513 0
-455 -514 0
-455 -515 0
-455 -516 0
-455 -517 0
-455 -518 0
-455 -519 0
-455 -520 0
-455 -521 0
-455 -522 0
-455 -523 0
-455 -524 0
-455 -525 0
-455 -526 0
-455 -527 0
-455 -528 0
-455 -529 0
-455 -530 0
-455 -531 0
-456 -457 0
-456 -458 0
-456 -459 0
-456 -460 0
-456 -461 0
-456 -462 0
-456 -463 0
-456 -464 0
-456 -465 0
-456 -466 0
-456 -467 0
-456 -468 0
-456 -469 0
-456 -470 0
-456 -471 0
-456 -472 0
-456 -473 0
-456 -474 0
-456 -475 0
-456 -476 0
-456 -477 0
-456 -478 0
-456 -479 0
-456 -480 0
-456 -481 0
-456 -482 0
-456 -483 0
-456 -484 0
-456 -485 0
-456 -486 0
-456 -487 0
-456 -488 0
-456 -489 0
-456 -490 0
-456 -491 0
-456 -492 0
-456 -493 0
-456 -494 0
-456 -495 0
-456 -496 0
-456 -497 0
-456 -498 0
-456 -499 0
-456 -500 0
-456 -501 0
-456 -502 0
-456 -503 0
-456 -504 0
-456 -505 0
-456 -506 0
-456 -507 0
-456 -508 0
-456 -509 0
-456 -510 0
-456 -511 0
-456 -512 0
-456 -513 0
-456 -514 0
-456 -515 0
-456 -516 0
-456 -517 0
-456 -518 0
-456 -519 0
-456 -520 0
-456 -521 0
-456 -522 0
-456 -523 0
-456 -524 0
-456 -525 0
-456 -526 0
-456 -527 0
-456 -528 0
-456 -529 0
-456 -530 0
-456 -531 0
-457 -458 0
-457 -459 0
-457 -460 0
-457 -461 0
-457 -462 0
-457 -463 0
-457 -464 0
-457 -465 0
-457 -466 0
-457 -467 0
-457 -468 0
-457 -469 0
-457 -470 0
-457 -471 0
-457 -472 0
-457 -473 0
-457 -474 0
-457 -475 0
-457 -476 0
-457 -477 0
-457 -478 0
-457 -479 0
-457 -480 0
-457 -481 0
-457 -482 0
-457 -483 0
-457 -484 0
-457 -485 0
-457 -486 0
-457 -487 0
-457 -488 0
-457 -489 0
-457 -490 0
-457 -491 0
-457 -492 0
-457 -493 0
-457 -494 0
-457 -495 0
-457 -496 0
-457 -497 0
-457 -498 0
-457 -499 0
-457 -500 0
-457 -501 0
-457 -502 0
-457 -503 0
-457 -504 0
-457 -505 0
-457 -506 0
-457 -507 0
-457 -508 0
-457 -509 0
-457 -510 0
-457 -511 0
-457 -512 0
-457 -513 0
-457 -514 0
-457 -515 0
-457 -516 0
-457 -517 0
-457 -518 0
-457 -519 0
-457 -520 0
-457 -521 0
-457 -522 0
-457 -523 0
-457 -524 0
-457 -525 0
-457 -526 0
-457 -527 0
-457 -528 0
-457 -529 0
-457 -530 0
-457 -531 0
-458 -459 0
-458 -460 0
-458 -461 0
-458 -462 0
-458 -463 0
-458 -464 0
-458 -465 0
-458 -466 0
-458 -467 0
-458 -468 0
-458 -469 0
-458 -470 0
-458 -471 0
-458 -472 0
-458 -473 0
-458 -474 0
-458 -475 0
-458 -476 0
-458 -477 0
-458 -478 0
-458 -479 0
-458 -480 0
-458 -481 0
-458 -482 0
-458 -483 0
-458 -484 0
-458 -485 0
-458 -486 0
-458 -487 0
-458 -488 0
-458 -489 0
-458 -490 0
-458 -491 0
-458 -492 0
-458 -493 0
-458 -494 0
-458 -495 0
-458 -496 0
-458 -497 0
-458 -498 0
-458 -499 0
-458 -500 0
-458 -501 0
-458 -502 0
-458 -503 0
-458 -504 0
-458 -505 0
-458 -506 0
-458 -507 0
-458 -508 0
-458 -509 0
-458 -510 0
-458 -511 0
-458 -512 0
-458 -513 0
-458 -514 0
-458 -515 0
-458 -516 0
-458 -517 0
-458 -518 0
-458 -519 0
-458 -520 0
-458 -521 0
-458 -522 0
-458 -523 0
-458 -524 0
-458 -525 0
-458 -526 0
-458 -527 0
-458 -528 0
-458 -529 0
-458 -530 0
-458 -531 0
-459 -460 0
-459 -461 0
-459 -462 0
-459 -463 0
-459 -464 0
-459 -465 0
-459 -466 0
-459 -467 0
-459 -468 0
-459 -469 0
-459 -470 0
-459 -471 0
-459 -472 0
-459 -473 0
-459 -474 0
-459 -475 0
-459 -476 0
-459 -477 0
-459 -478 0
-459 -479 0
-459 -480 0
-459 -481 0
-459 -482 0
-459 -483 0
-459 -484 0
-459 -485 0
-459 -486 0
-459 -487 0
-459 -488 0
-459 -489 0
-459 -490 0
-459 -491 0
-459 -492 0
-459 -493 0
-459 -494 0
-459 -495 0
-459 -496 0
-459 -497 0
-459 -498 0
-459 -499 0
-459 -500 0
-459 -501 0
-459 -502 0
-459 -503 0
-459 -504 0
-459 -505 0
-459 -506 0
-459 -507 0
-459 -508 0
-459 -509 0
-459 -510 0
-459 -511 0
-459 -512 0
-459 -513 0
-459 -514 0
-459 -515 0
-459 -516 0
-459 -517 0
-459 -518 0
-459 -519 0
-459 -520 0
-459 -521 0
-459 -522 0
-459 -523 0
-459 -524 0
-459 -525 0
-459 -526 0
-459 -527 0
-459 -528 0
-459 -529 0
-459 -530 0
-459 -531 0
-460 -461 0
-460 -462 0
-460 -463 0
-460 -464 0
-460 -465 0
-460 -466 0
-460 -467 0
-460 -468 0
-460 -469 0
-460 -470 0
-460 -471 0
-460 -472 0
-460 -473 0
-460 -474 0
-460 -475 0
-460 -476 0
-460 -477 0
-460 -478 0
-460 -479 0
-460 -480 0
-460 -481 0
-460 -482 0
-460 -483 0
-460 -484 0
-460 -485 0
-460 -486 0
-460 -487 0
-460 -488 0
-460 -489 0
-460 -490 0
-460 -491 0
-460 -492 0
-460 -493 0
-460 -494 0
-460 -495 0
-460 -496 0
-460 -497 0
-460 -498 0
-460 -499 0
-460 -500 0
-460 -501 0
-460 -502 0
-460 -503 0
-460 -504 0
-460 -505 0
-460 -506 0
-460 -507 0
-460 -508 0
-460 -509 0
-460 -510 0
-460 -511 0
-460 -512 0
-460 -513 0
-460 -514 0
-460 -515 0
-460 -516 0
-460 -517 0
-460 -518 0
-460 -519 0
-460 -520 0
-460 -521 0
-460 -522 0
-460 -523 0
-460 -524 0
-460 -525 0
-460 -526 0
-460 -527 0
-460 -528 0
-460 -529 0
-460 -530 0
-460 -531 0
-461 -462 0
-461 -463 0
-461 -464 0
-461 -465 0
-461 -466 0
-461 -467 0
-461 -468 0
-461 -469 0
-461 -470 0
-461 -471 0
-461 -472 0
-461 -473 0
-461 -474 0
-461 -475 0
-461 -476 0
-461 -477 0
-461 -478 0
-461 -479 0
-461 -480 0
-461 -481 0
-461 -482 0
-461 -483 0
-461 -484 0
-461 -485 0
-461 -486 0
-461 -487 0
-461 -488 0
-461 -489 0
-461 -490 0
-461 -491 0
-461 -492 0
-461 -493 0
-461 -494 0
-461 -495 0
-461 -496 0
-461 -497 0
-461 -498 0
-461 -499 0
-461 -500 0
-461 -501 0
-461 -502 0
-461 -503 0
-461 -504 0
-461 -505 0
-461 -506 0
-461 -507 0
-461 -508 0
-461 -509 0
-461 -510 0
-461 -511 0
-461 -512 0
-461 -513 0
-461 -514 0
-461 -515 0
-461 -516 0
-461 -517 0
-461 -518 0
-461 -519 0
-461 -520 0
-461 -521 0
-461 -522 0
-461 -523 0
-461 -524 0
-461 -525 0
-461 -526 0
-461 -527 0
-461 -528 0
-461 -529 0
-461 -530 0
-461 -531 0
-462 -463 0
-462 -464 0
-462 -465 0
-462 -466 0
-462 -467 0
-462 -468 0
-462 -469 0
-462 -470 0
-462 -471 0
-462 -472 0
-462 -473 0
-462 -474 0
-462 -475 0
-462 -476 0
-462 -477 0
-462 -478 0
-462 -479 0
-462 -480 0
-462 -481 0
-462 -482 0
-462 -483 0
-462 -484 0
-462 -485 0
-462 -486 0
-462 -487 0
-462 -488 0
-462 -489 0
-462 -490 0
-462 -491 0
-462 -492 0
-462 -493 0
-462 -494 0
-462 -495 0
-462 -496 0
-462 -497 0
-462 -498 0
-462 -499 0
-462 -500 0
-462 -501 0
-462 -502 0
-462 -503 0
-462 -504 0
-462 -505 0
-462 -506 0
-462 -507 0
-462 -508 0
-462 -509 0
-462 -510 0
-462 -511 0
-462 -512 0
-462 -513 0
-462 -514 0
-462 -515 0
-462 -516 0
-462 -517 0
-462 -518 0
-462 -519 0
-462 -520 0
-462 -521 0
-462 -522 0
-462 -523 0
-462 -524 0
-462 -525 0
-462 -526 0
-462 -527 0
-462 -528 0
-462 -529 0
-462 -530 0
-462 -531 0
-463 -464 0
-463 -465 0
-463 -466 0
-463 -467 0
-463 -468 0
-463 -469 0
-463 -470 0
-463 -471 0
-463 -472 0
-463 -473 0
-463 -474 0
-463 -475 0
-463 -476 0
-463 -477 0
-463 -478 0
-463 -479 0
-463 -480 0
-463 -481 0
-463 -482 0
-463 -483 0
-463 -484 0
-463 -485 0
-463 -486 0
-463 -487 0
-463 -488 0
-463 -489 0
-463 -490 0
-463 -491 0
-463 -492 0
-463 -493 0
-463 -494 0
-463 -495 0
-463 -496 0
-463 -497 0
-463 -498 0
-463 -499 0
-463 -500 0
-463 -501 0
-463 -502 0
-463 -503 0
-463 -504 0
-463 -505 0
-463 -506 0
-463 -507 0
-463 -508 0
-463 -509 0
-463 -510 0
-463 -511 0
-463 -512 0
-463 -513 0
-463 -514 0
-463 -515 0
-463 -516 0
-463 -517 0
-463 -518 0
-463 -519 0
-463 -520 0
-463 -521 0
-463 -522 0
-463 -523 0
-463 -524 0
-463 -525 0
-463 -526 0
-463 -527 0
-463 -528 0
-463 -529 0
-463 -530 0
-463 -531 0
-464 -465 0
-464 -466 0
-464 -467 0
-464 -468 0
-464 -469 0
-464 -470 0
-464 -471 0
-464 -472 0
-464 -473 0
-464 -474 0
-464 -475 0
-464 -476 0
-464 -477 0
-464 -478 0
-464 -479 0
-464 -480 0
-464 -481 0
-464 -482 0
-464 -483 0
-464 -484 0
-464 -485 0
-464 -486 0
-464 -487 0
-464 -488 0
-464 -489 0
-464 -490 0
-464 -491 0
-464 -492 0
-464 -493 0
-464 -494 0
-464 -495 0
-464 -496 0
-464 -497 0
-464 -498 0
-464 -499 0
-464 -500 0
-464 -501 0
-464 -502 0
-464 -503 0
-464 -504 0
-464 -505 0
-464 -506 0
-464 -507 0
-464 -508 0
-464 -509 0
-464 -510 0
-464 -511 0
-464 -512 0
-464 -513 0
-464 -514 0
-464 -515 0
-464 -516 0
-464 -517 0
-464 -518 0
-464 -519 0
-464 -520 0
-464 -521 0
-464 -522 0
-464 -523 0
-464 -524 0
-464 -525 0
-464 -526 0
-464 -527 0
-464 -528 0
-464 -529 0
-464 -530 0
-464 -531 0
-465 -466 0
-465 -467 0
-465 -468 0
-465 -469 0
-465 -470 0
-465 -471 0
-465 -472 0
-465 -473 0
-465 -474 0
-465 -475 0
-465 -476 0
-465 -477 0
-465 -478 0
-465 -479 0
-465 -480 0
-465 -481 0
-465 -482 0
-465 -483 0
-465 -484 0
-465 -485 0
-465 -486 0
-465 -487 0
-465 -488 0
-465 -489 0
-465 -490 0
-465 -491 0
-465 -492 0
-465 -493 0
-465 -494 0
-465 -495 0
-465 -496 0
-465 -497 0
-465 -498 0
-465 -499 0
-465 -500 0
-465 -501 0
-465 -502 0
-465 -503 0
-465 -504 0
-465 -505 0
-465 -506 0
-465 -507 0
-465 -508 0
-465 -509 0
-465 -510 0
-465 -511 0
-465 -512 0
-465 -513 0
-465 -514 0
-465 -515 0
-465 -516 0
-465 -517 0
-465 -518 0
-465 -519 0
-465 -520 0
-465 -521 0
-465 -522 0
-465 -523 0
-465 -524 0
-465 -525 0
-465 -526 0
-465 -527 0
-465 -528 0
-465 -529 0
-465 -530 0
-465 -531 0
-466 -467 0
-466 -468 0
-466 -469 0
-466 -470 0
-466 -471 0
-466 -472 0
-466 -473 0
-466 -474 0
-466 -475 0
-466 -476 0
-466 -477 0
-466 -478 0
-466 -479 0
-466 -480 0
-466 -481 0
-466 -482 0
-466 -483 0
-466 -484 0
-466 -485 0
-466 -486 0
-466 -487 0
-466 -488 0
-466 -489 0
-466 -490 0
-466 -491 0
-466 -492 0
-466 -493 0
-466 -494 0
-466 -495 0
-466 -496 0
-466 -497 0
-466 -498 0
-466 -499 0
-466 -500 0
-466 -501 0
-466 -502 0
-466 -503 0
-466 -504 0
-466 -505 0
-466 -506 0
-466 -507 0
-466 -508 0
-466 -509 0
-466 -510 0
-466 -511 0
-466 -512 0
-466 -513 0
-466 -514 0
-466 -515 0
-466 -516 0
-466 -517 0
-466 -518 0
-466 -519 0
-466 -520 0
-466 -521 0
-466 -522 0
-466 -523 0
-466 -524 0
-466 -525 0
-466 -526 0
-466 -527 0
-466 -528 0
-466 -529 0
-466 -530 0
-466 -531 0
-467 -468 0
-467 -469 0
-467 -470 0
-467 -471 0
-467 -472 0
-467 -473 0
-467 -474 0
-467 -475 0
-467 -476 0
-467 -477 0
-467 -478 0
-467 -479 0
-467 -480 0
-467 -481 0
-467 -482 0
-467 -483 0
-467 -484 0
-467 -485 0
-467 -486 0
-467 -487 0
-467 -488 0
-467 -489 0
-467 -490 0
-467 -491 0
-467 -492 0
-467 -493 0
-467 -494 0
-467 -495 0
-467 -496 0
-467 -497 0
-467 -498 0
-467 -499 0
-467 -500 0
-467 -501 0
-467 -502 0
-467 -503 0
-467 -504 0
-467 -505 0
-467 -506 0
-467 -507 0
-467 -508 0
-467 -509 0
-467 -510 0
-467 -511 0
-467 -512 0
-467 -513 0
-467 -514 0
-467 -515 0
-467 -516 0
-467 -517 0
-467 -518 0
-467 -519 0
-467 -520 0
-467 -521 0
-467 -522 0
-467 -523 0
-467 -524 0
-467 -525 0
-467 -526 0
-467 -527 0
-467 -528 0
-467 -529 0
-467 -530 0
-467 -531 0
-468 -469 0
-468 -470 0
-468 -471 0
-468 -472 0
-468 -473 0
-468 -474 0
-468 -475 0
-468 -476 0
-468 -477 0
-468 -478 0
-468 -479 0
-468 -480 0
-468 -481 0
-468 -482 0
-468 -483 0
-468 -484 0
-468 -485 0
-468 -486 0
-468 -487 0
-468 -488 0
-468 -489 0
-468 -490 0
-468 -491 0
-468 -492 0
-468 -493 0
-468 -494 0
-468 -495 0
-468 -496 0
-468 -497 0
-468 -498 0
-468 -499 0
-468 -500 0
-468 -501 0
-468 -502 0
-468 -503 0
-468 -504 0
-468 -505 0
-468 -506 0
-468 -507 0
-468 -508 0
-468 -509 0
-468 -510 0
-468 -511 0
-468 -512 0
-468 -513 0
-468 -514 0
-468 -515 0
-468 -516 0
-468 -517 0
-468 -518 0
-468 -519 0
-468 -520 0
-468 -521 0
-468 -522 0
-468 -523 0
-468 -524 0
-468 -525 0
-468 -526 0
-468 -527 0
-468 -528 0
-468 -529 0
-468 -530 0
-468 -531 0
-469 -470 0
-469 -471 0
-469 -472 0
-469 -473 0
-469 -474 0
-469 -475 0
-469 -476 0
-469 -477 0
-469 -478 0
-469 -479 0
-469 -480 0
-469 -481 0
-469 -482 0
-469 -483 0
-469 -484 0
-469 -485 0
-469 -486 0
-469 -487 0
-469 -488 0
-469 -489 0
-469 -490 0
-469 -491 0
-469 -492 0
-469 -493 0
-469 -494 0
-469 -495 0
-469 -496 0
-469 -497 0
-469 -498 0
-469 -499 0
-469 -500 0
-469 -501 0
-469 -502 0
-469 -503 0
-469 -504 0
-469 -505 0
-469 -506 0
-469 -507 0
-469 -508 0
-469 -509 0
-469 -510 0
-469 -511 0
-469 -512 0
-469 -513 0
-469 -514 0
-469 -515 0
-469 -516 0
-469 -517 0
-469 -518 0
-469 -519 0
-469 -520 0
-469 -521 0
-469 -522 0
-469 -523 0
-469 -524 0
-469 -525 0
-469 -526 0
-469 -527 0
-469 -528 0
-469 -529 0
-469 -530 0
-469 -531 0
-470 -471 0
-470 -472 0
-470 -473 0
-470 -474 0
-470 -475 0
-470 -476 0
-470 -477 0
-470 -478 0
-470 -479 0
-470 -480 0
-470 -481 0
-470 -482 0
-470 -483 0
-470 -484 0
-470 -485 0
-470 -486 0
-470 -487 0
-470 -488 0
-470 -489 0
-470 -490 0
-470 -491 0
-470 -492 0
-470 -493 0
-470 -494 0
-470 -495 0
-470 -496 0
-470 -497 0
-470 -498 0
-470 -499 0
-470 -500 0
-470 -501 0
-470 -502 0
-470 -503 0
-470 -504 0
-470 -505 0
-470 -506 0
-470 -507 0
-470 -508 0
-470 -509 0
-470 -510 0
-470 -511 0
-470 -512 0
-470 -513 0
-470 -514 0
-470 -515 0
-470 -516 0
-470 -517 0
-470 -518 0
-470 -519 0
-470 -520 0
-470 -521 0
-470 -522 0
-470 -523 0
-470 -524 0
-470 -525 0
-470 -526 0
-470 -527 0
-470 -528 0
-470 -529 0
-470 -530 0
-470 -531 0
-471 -472 0
-471 -473 0
-471 -474 0
-471 -475 0
-471 -476 0
-471 -477 0
-471 -478 0
-471 -479 0
-471 -480 0
-471 -481 0
-471 -482 0
-471 -483 0
-471 -484 0
-471 -485 0
-471 -486 0
-471 -487 0
-471 -488 0
-471 -489 0
-471 -490 0
-471 -491 0
-471 -492 0
-471 -493 0
-471 -494 0
-471 -495 0
-471 -496 0
-471 -497 0
-471 -498 0
-471 -499 0
-471 -500 0
-471 -501 0
-471 -502 0
-471 -503 0
-471 -504 0
-471 -505 0
-471 -506 0
-471 -507 0
-471 -508 0
-471 -509 0
-471 -510 0
-471 -511 0
-471 -512 0
-471 -513 0
-471 -514 0
-471 -515 0
-471 -516 0
-471 -517 0
-471 -518 0
-471 -519 0
-471 -520 0
-471 -521 0
-471 -522 0
-471 -523 0
-471 -524 0
-471 -525 0
-471 -526 0
-471 -527 0
-471 -528 0
-471 -529 0
-471 -530 0
-471 -531 0
-472 -473 0
-472 -474 0
-472 -475 0
-472 -476 0
-472 -477 0
-472 -478 0
-472 -479 0
-472 -480 0
-472 -481 0
-472 -482 0
-472 -483 0
-472 -484 0
-472 -485 0
-472 -486 0
-472 -487 0
-472 -488 0
-472 -489 0
-472 -490 0
-472 -491 0
-472 -492 0
-472 -493 0
-472 -494 0
-472 -495 0
-472 -496 0
-472 -497 0
-472 -498 0
-472 -499 0
-472 -500 0
-472 -501 0
-472 -502 0
-472 -503 0
-472 -504 0
-472 -505 0
-472 -506 0
-472 -507 0
-472 -508 0
-472 -509 0
-472 -510 0
-472 -511 0
-472 -512 0
-472 -513 0
-472 -514 0
-472 -515 0
-472 -516 0
-472 -517 0
-472 -518 0
-472 -519 0
-472 -520 0
-472 -521 0
-472 -522 0
-472 -523 0
-472 -524 0
-472 -525 0
-472 -526 0
-472 -527 0
-472 -528 0
-472 -529 0
-472 -530 0
-472 -531 0
-473 -474 0
-473 -475 0
-473 -476 0
-473 -477 0
-473 -478 0
-473 -479 0
-473 -480 0
-473 -481 0
-473 -482 0
-473 -483 0
-473 -484 0
-473 -485 0
-473 -486 0
-473 -487 0
-473 -488 0
-473 -489 0
-473 -490 0
-473 -491 0
-473 -492 0
-473 -493 0
-473 -494 0
-473 -495 0
-473 -496 0
-473 -497 0
-473 -498 0
-473 -499 0
-473 -500 0
-473 -501 0
-473 -502 0
-473 -503 0
-473 -504 0
-473 -505 0
-473 -506 0
-473 -507 0
-473 -508 0
-473 -509 0
-473 -510 0
-473 -511 0
-473 -512 0
-473 -513 0
-473 -514 0
-473 -515 0
-473 -516 0
-473 -517 0
-473 -518 0
-473 -519 0
-473 -520 0
-473 -521 0
-473 -522 0
-473 -523 0
-473 -524 0
-473 -525 0
-473 -526 0
-473 -527 0
-473 -528 0
-473 -529 0
-473 -530 0
-473 -531 0
-474 -475 0
-474 -476 0
-474 -477 0
-474 -478 0
-474 -479 0
-474 -480 0
-474 -481 0
-474 -482 0
-474 -483 0
-474 -484 0
-474 -485 0
-474 -486 0
-474 -487 0
-474 -488 0
-474 -489 0
-474 -490 0
-474 -491 0
-474 -492 0
-474 -493 0
-474 -494 0
-474 -495 0
-474 -496 0
-474 -497 0
-474 -498 0
-474 -499 0
-474 -500 0
-474 -501 0
-474 -502 0
-474 -503 0
-474 -504 0
-474 -505 0
-474 -506 0
-474 -507 0
-474 -508 0
-474 -509 0
-474 -510 0
-474 -511 0
-474 -512 0
-474 -513 0
-474 -514 0
-474 -515 0
-474 -516 0
-474 -517 0
-474 -518 0
-474 -519 0
-474 -520 0
-474 -521 0
-474 -522 0
-474 -523 0
-474 -524 0
-474 -525 0
-474 -526 0
-474 -527 0
-474 -528 0
-474 -529 0
-474 -530 0
-474 -531 0
-475 -476 0
-475 -477 0
-475 -478 0
-475 -479 0
-475 -480 0
-475 -481 0
-475 -482 0
-475 -483 0
-475 -484 0
-475 -485 0
-475 -486 0
-475 -487 0
-475 -488 0
-475 -489 0
-475 -490 0
-475 -491 0
-475 -492 0
-475 -493 0
-475 -494 0
-475 -495 0
-475 -496 0
-475 -497 0
-475 -498 0
-475 -499 0
-475 -500 0
-475 -501 0
-475 -502 0
-475 -503 0
-475 -504 0
-475 -505 0
-475 -506 0
-475 -507 0
-475 -508 0
-475 -509 0
-475 -510 0
-475 -511 0
-475 -512 0
-475 -513 0
-475 -514 0
-475 -515 0
-475 -516 0
-475 -517 0
-475 -518 0
-475 -519 0
-475 -520 0
-475 -521 0
-475 -522 0
-475 -523 0
-475 -524 0
-475 -525 0
-475 -526 0
-475 -527 0
-475 -528 0
-475 -529 0
-475 -530 0
-475 -531 0
-476 -477 0
-476 -478 0
-476 -479 0
-476 -480 0
-476 -481 0
-476 -482 0
-476 -483 0
-476 -484 0
-476 -485 0
-476 -486 0
-476 -487 0
-476 -488 0
-476 -489 0
-476 -490 0
-476 -491 0
-476 -492 0
-476 -493 0
-476 -494 0
-476 -495 0
-476 -496 0
-476 -497 0
-476 -498 0
-476 -499 0
-476 -500 0
-476 -501 0
-476 -502 0
-476 -503 0
-476 -504 0
-476 -505 0
-476 -506 0
-476 -507 0
-476 -508 0
-476 -509 0
-476 -510 0
-476 -511 0
-476 -512 0
-476 -513 0
-476 -514 0
-476 -515 0
-476 -516 0
-476 -517 0
-476 -518 0
-476 -519 0
-476 -520 0
-476 -521 0
-476 -522 0
-476 -523 0
-476 -524 0
-476 -525 0
-476 -526 0
-476 -527 0
-476 -528 0
-476 -529 0
-476 -530 0
-476 -531 0
-477 -478 0
-477 -479 0
-477 -480 0
-477 -481 0
-477 -482 0
-477 -483 0
-477 -484 0
-477 -485 0
-477 -486 0
-477 -487 0
-477 -488 0
-477 -489 0
-477 -490 0
-477 -491 0
-477 -492 0
-477 -493 0
-477 -494 0
-477 -495 0
-477 -496 0
-477 -497 0
-477 -498 0
-477 -499 0
-477 -500 0
-477 -501 0
-477 -502 0
-477 -503 0
-477 -504 0
-477 -505 0
-477 -506 0
-477 -507 0
-477 -508 0
-477 -509 0
-477 -510 0
-477 -511 0
-477 -512 0
-477 -513 0
-477 -514 0
-477 -515 0
-477 -516 0
-477 -517 0
-477 -518 0
-477 -519 0
-477 -520 0
-477 -521 0
-477 -522 0
-477 -523 0
-477 -524 0
-477 -525 0
-477 -526 0
-477 -527 0
-477 -528 0
-477 -529 0
-477 -530 0
-477 -531 0
-478 -479 0
-478 -480 0
-478 -481 0
-478 -482 0
-478 -483 0
-478 -484 0
-478 -485 0
-478 -486 0
-478 -487 0
-478 -488 0
-478 -489 0
-478 -490 0
-478 -491 0
-478 -492 0
-478 -493 0
-478 -494 0
-478 -495 0
-478 -496 0
-478 -497 0
-478 -498 0
-478 -499 0
-478 -500 0
-478 -501 0
-478 -502 0
-478 -503 0
-478 -504 0
-478 -505 0
-478 -506 0
-478 -507 0
-478 -508 0
-478 -509 0
-478 -510 0
-478 -511 0
-478 -512 0
-478 -513 0
-478 -514 0
-478 -515 0
-478 -516 0
-478 -517 0
-478 -518 0
-478 -519 0
-478 -520 0
-478 -521 0
-478 -522 0
-478 -523 0
-478 -524 0
-478 -525 0
-478 -526 0
-478 -527 0
-478 -528 0
-478 -529 0
-478 -530 0
-478 -531 0
-479 -480 0
-479 -481 0
-479 -482 0
-479 -483 0
-479 -484 0
-479 -485 0
-479 -486 0
-479 -487 0
-479 -488 0
-479 -489 0
-479 -490 0
-479 -491 0
-479 -492 0
-479 -493 0
-479 -494 0
-479 -495 0
-479 -496 0
-479 -497 0
-479 -498 0
-479 -499 0
-479 -500 0
-479 -501 0
-479 -502 0
-479 -503 0
-479 -504 0
-479 -505 0
-479 -506 0
-479 -507 0
-479 -508 0
-479 -509 0
-479 -510 0
-479 -511 0
-479 -512 0
-479 -513 0
-479 -514 0
-479 -515 0
-479 -516 0
-479 -517 0
-479 -518 0
-479 -519 0
-479 -520 0
-479 -521 0
-479 -522 0
-479 -523 0
-479 -524 0
-479 -525 0
-479 -526 0
-479 -527 0
-479 -528 0
-479 -529 0
-479 -530 0
-479 -531 0
-480 -481 0
-480 -482 0
-480 -483 0
-480 -484 0
-480 -485 0
-480 -486 0
-480 -487 0
-480 -488 0
-480 -489 0
-480 -490 0
-480 -491 0
-480 -492 0
-480 -493 0
-480 -494 0
-480 -495 0
-480 -496 0
-480 -497 0
-480 -498 0
-480 -499 0
-480 -500 0
-480 -501 0
-480 -502 0
-480 -503 0
-480 -504 0
-480 -505 0
-480 -506 0
-480 -507 0
-480 -508 0
-480 -509 0
-480 -510 0
-480 -511 0
-480 -512 0
-480 -513 0
-480 -514 0
-480 -515 0
-480 -516 0
-480 -517 0
-480 -518 0
-480 -519 0
-480 -520 0
-480 -521 0
-480 -522 0
-480 -523 0
-480 -524 0
-480 -525 0
-480 -526 0
-480 -527 0
-480 -528 0
-480 -529 0
-480 -530 0
-480 -531 0
-481 -482 0
-481 -483 0
-481 -484 0
-481 -485 0
-481 -486 0
-481 -487 0
-481 -488 0
-481 -489 0
-481 -490 0
-481 -491 0
-481 -492 0
-481 -493 0
-481 -494 0
-481 -495 0
-481 -496 0
-481 -497 0
-481 -498 0
-481 -499 0
-481 -500 0
-481 -501 0
-481 -502 0
-481 -503 0
-481 -504 0
-481 -505 0
-481 -506 0
-481 -507 0
-481 -508 0
-481 -509 0
-481 -510 0
-481 -511 0
-481 -512 0
-481 -513 0
-481 -514 0
-481 -515 0
-481 -516 0
-481 -517 0
-481 -518 0
-481 -519 0
-481 -520 0
-481 -521 0
-481 -522 0
-481 -523 0
-481 -524 0
-481 -525 0
-481 -526 0
-481 -527 0
-481 -528 0
-481 -529 0
-481 -530 0
-481 -531 0
-482 -483 0
-482 -484 0
-482 -485 0
-482 -486 0
-482 -487 0
-482 -488 0
-482 -489 0
-482 -490 0
-482 -491 0
-482 -492 0
-482 -493 0
-482 -494 0
-482 -495 0
-482 -496 0
-482 -497 0
-482 -498 0
-482 -499 0
-482 -500 0
-482 -501 0
-482 -502 0
-482 -503 0
-482 -504 0
-482 -505 0
-482 -506 0
-482 -507 0
-482 -508 0
-482 -509 0
-482 -510 0
-482 -511 0
-482 -512 0
-482 -513 0
-482 -514 0
-482 -515 0
-482 -516 0
-482 -517 0
-482 -518 0
-482 -519 0
-482 -520 0
-482 -521 0
-482 -522 0
-482 -523 0
-482 -524 0
-482 -525 0
-482 -526 0
-482 -527 0
-482 -528 0
-482 -529 0
-482 -530 0
-482 -531 0
-483 -484 0
-483 -485 0
-483 -486 0
-483 -487 0
-483 -488 0
-483 -489 0
-483 -490 0
-483 -491 0
-483 -492 0
-483 -493 0
-483 -494 0
-483 -495 0
-483 -496 0
-483 -497 0
-483 -498 0
-483 -499 0
-483 -500 0
-483 -501 0
-483 -502 0
-483 -503 0
-483 -504 0
-483 -505 0
-483 -506 0
-483 -507 0
-483 -508 0
-483 -509 0
-483 -510 0
-483 -511 0
-483 -512 0
-483 -513 0
-483 -514 0
-483 -515 0
-483 -516 0
-483 -517 0
-483 -518 0
-483 -519 0
-483 -520 0
-483 -521 0
-483 -522 0
-483 -523 0
-483 -524 0
-483 -525 0
-483 -526 0
-483 -527 0
-483 -528 0
-483 -529 0
-483 -530 0
-483 -531 0
-484 -485 0
-484 -486 0
-484 -487 0
-484 -488 0
-484 -489 0
-484 -490 0
-484 -491 0
-484 -492 0
-484 -493 0
-484 -494 0
-484 -495 0
-484 -496 0
-484 -497 0
-484 -498 0
-484 -499 0
-484 -500 0
-484 -501 0
-484 -502 0
-484 -503 0
-484 -504 0
-484 -505 0
-484 -506 0
-484 -507 0
-484 -508 0
-484 -509 0
-484 -510 0
-484 -511 0
-484 -512 0
-484 -513 0
-484 -514 0
-484 -515 0
-484 -516 0
-484 -517 0
-484 -518 0
-484 -519 0
-484 -520 0
-484 -521 0
-484 -522 0
-484 -523 0
-484 -524 0
-484 -525 0
-484 -526 0
-484 -527 0
-484 -528 0
-484 -529 0
-484 -530 0
-484 -531 0
-485 -486 0
-485 -487 0
-485 -488 0
-485 -489 0
-485 -490 0
-485 -491 0
-485 -492 0
-485 -493 0
-485 -494 0
-485 -495 0
-485 -496 0
-485 -497 0
-485 -498 0
-485 -499 0
-485 -500 0
-485 -501 0
-485 -502 0
-485 -503 0
-485 -504 0
-485 -505 0
-485 -506 0
-485 -507 0
-485 -508 0
-485 -509 0
-485 -510 0
-485 -511 0
-485 -512 0
-485 -513 0
-485 -514 0
-485 -515 0
-485 -516 0
-485 -517 0
-485 -518 0
-485 -519 0
-485 -520 0
-485 -521 0
-485 -522 0
-485 -523 0
-485 -524 0
-485 -525 0
-485 -526 0
-485 -527 0
-485 -528 0
-485 -529 0
-485 -530 0
-485 -531 0
-486 -487 0
-486 -488 0
-486 -489 0
-486 -490 0
-486 -491 0
-486 -492 0
-486 -493 0
-486 -494 0
-486 -495 0
-486 -496 0
-486 -497 0
-486 -498 0
-486 -499 0
-486 -500 0
-486 -501 0
-486 -502 0
-486 -503 0
-486 -504 0
-486 -505 0
-486 -506 0
-486 -507 0
-486 -508 0
-486 -509 0
-486 -510 0
-486 -511 0
-486 -512 0
-486 -513 0
-486 -514 0
-486 -515 0
-486 -516 0
-486 -517 0
-486 -518 0
-486 -519 0
-486 -520 0
-486 -521 0
-486 -522 0
-486 -523 0
-486 -524 0
-486 -525 0
-486 -526 0
-486 -527 0
-486 -528 0
-486 -529 0
-486 -530 0
-486 -531 0
-487 -488 0
-487 -489 0
-487 -490 0
-487 -491 0
-487 -492 0
-487 -493 0
-487 -494 0
-487 -495 0
-487 -496 0
-487 -497 0
-487 -498 0
-487 -499 0
-487 -500 0
-487 -501 0
-487 -502 0
-487 -503 0
-487 -504 0
-487 -505 0
-487 -506 0
-487 -507 0
-487 -508 0
-487 -509 0
-487 -510 0
-487 -511 0
-487 -512 0
-487 -513 0
-487 -514 0
-487 -515 0
-487 -516 0
-487 -517 0
-487 -518 0
-487 -519 0
-487 -520 0
-487 -521 0
-487 -522 0
-487 -523 0
-487 -524 0
-487 -525 0
-487 -526 0
-487 -527 0
-487 -528 0
-487 -529 0
-487 -530 0
-487 -531 0
-488 -489 0
-488 -490 0
-488 -491 0
-488 -492 0
-488 -493 0
-488 -494 0
-488 -495 0
-488 -496 0
-488 -497 0
-488 -498 0
-488 -499 0
-488 -500 0
-488 -501 0
-488 -502 0
-488 -503 0
-488 -504 0
-488 -505 0
-488 -506 0
-488 -507 0
-488 -508 0
-488 -509 0
-488 -510 0
-488 -511 0
-488 -512 0
-488 -513 0
-488 -514 0
-488 -515 0
-488 -516 0
-488 -517 0
-488 -518 0
-488 -519 0
-488 -520 0
-488 -521 0
-488 -522 0
-488 -523 0
-488 -524 0
-488 -525 0
-488 -526 0
-488 -527 0
-488 -528 0
-488 -529 0
-488 -530 0
-488 -531 0
-489 -490 0
-489 -491 0
-489 -492 0
-489 -493 0
-489 -494 0
-489 -495 0
-489 -496 0
-489 -497 0
-489 -498 0
-489 -499 0
-489 -500 0
-489 -501 0
-489 -502 0
-489 -503 0
-489 -504 0
-489 -505 0
-489 -506 0
-489 -507 0
-489 -508 0
-489 -509 0
-489 -510 0
-489 -511 0
-489 -512 0
-489 -513 0
-489 -514 0
-489 -515 0
-489 -516 0
-489 -517 0
-489 -518 0
-489 -519 0
-489 -520 0
-489 -521 0
-489 -522 0
-489 -523 0
-489 -524 0
-489 -525 0
-489 -526 0
-489 -527 0
-489 -528 0
-489 -529 0
-489 -530 0
-489 -531 0
-490 -491 0
-490 -492 0
-490 -493 0
-490 -494 0
-490 -495 0
-490 -496 0
-490 -497 0
-490 -498 0
-490 -499 0
-490 -500 0
-490 -501 0
-490 -502 0
-490 -503 0
-490 -504 0
-490 -505 0
-490 -506 0
-490 -507 0
-490 -508 0
-490 -509 0
-490 -510 0
-490 -511 0
-490 -512 0
-490 -513 0
-490 -514 0
-490 -515 0
-490 -516 0
-490 -517 0
-490 -518 0
-490 -519 0
-490 -520 0
-490 -521 0
-490 -522 0
-490 -523 0
-490 -524 0
-490 -525 0
-490 -526 0
-490 -527 0
-490 -528 0
-490 -529 0
-490 -530 0
-490 -531 0
-491 -492 0
-491 -493 0
-491 -494 0
-491 -495 0
-491 -496 0
-491 -497 0
-491 -498 0
-491 -499 0
-491 -500 0
-491 -501 0
-491 -502 0
-491 -503 0
-491 -504 0
-491 -505 0
-491 -506 0
-491 -507 0
-491 -508 0
-491 -509 0
-491 -510 0
-491 -511 0
-491 -512 0
-491 -513 0
-491 -514 0
-491 -515 0
-491 -516 0
-491 -517 0
-491 -518 0
-491 -519 0
-491 -520 0
-491 -521 0
-491 -522 0
-491 -523 0
-491 -524 0
-491 -525 0
-491 -526 0
-491 -527 0
-491 -528 0
-491 -529 0
-491 -530 0
-491 -531 0
-492 -493 0
-492 -494 0
-492 -495 0
-492 -496 0
-492 -497 0
-492 -498 0
-492 -499 0
-492 -500 0
-492 -501 0
-492 -502 0
-492 -503 0
-492 -504 0
-492 -505 0
-492 -506 0
-492 -507 0
-492 -508 0
-492 -509 0
-492 -510 0
-492 -511 0
-492 -512 0
-492 -513 0
-492 -514 0
-492 -515 0
-492 -516 0
-492 -517 0
-492 -518 0
-492 -519 0
-492 -520 0
-492 -521 0
-492 -522 0
-492 -523 0
-492 -524 0
-492 -525 0
-492 -526 0
-492 -527 0
-492 -528 0
-492 -529 0
-492 -530 0
-492 -531 0
-493 -494 0
-493 -495 0
-493 -496 0
-493 -497 0
-493 -498 0
-493 -499 0
-493 -500 0
-493 -501 0
-493 -502 0
-493 -503 0
-493 -504 0
-493 -505 0
-493 -506 0
-493 -507 0
-493 -508 0
-493 -509 0
-493 -510 0
-493 -511 0
-493 -512 0
-493 -513 0
-493 -514 0
-493 -515 0
-493 -516 0
-493 -517 0
-493 -518 0
-493 -519 0
-493 -520 0
-493 -521 0
-493 -522 0
-493 -523 0
-493 -524 0
-493 -525 0
-493 -526 0
-493 -527 0
-493 -528 0
-493 -529 0
-493 -530 0
-493 -531 0
-494 -495 0
-494 -496 0
-494 -497 0
-494 -498 0
-494 -499 0
-494 -500 0
-494 -501 0
-494 -502 0
-494 -503 0
-494 -504 0
-494 -505 0
-494 -506 0
-494 -507 0
-494 -508 0
-494 -509 0
-494 -510 0
-494 -511 0
-494 -512 0
-494 -513 0
-494 -514 0
-494 -515 0
-494 -516 0
-494 -517 0
-494 -518 0
-494 -519 0
-494 -520 0
-494 -521 0
-494 -522 0
-494 -523 0
-494 -524 0
-494 -525 0
-494 -526 0
-494 -527 0
-494 -528 0
-494 -529 0
-494 -530 0
-494 -531 0
-495 -496 0
-495 -497 0
-495 -498 0
-495 -499 0
-495 -500 0
-495 -501 0
-495 -502 0
-495 -503 0
-495 -504 0
-495 -505 0
-495 -506 0
-495 -507 0
-495 -508 0
-495 -509 0
-495 -510 0
-495 -511 0
-495 -512 0
-495 -513 0
-495 -514 0
-495 -515 0
-495 -516 0
-495 -517 0
-495 -518 0
-495 -519 0
-495 -520 0
-495 -521 0
-495 -522 0
-495 -523 0
-495 -524 0
-495 -525 0
-495 -526 0
-495 -527 0
-495 -528 0
-495 -529 0
-495 -530 0
-495 -531 0
-496 -497 0
-496 -498 0
-496 -499 0
-496 -500 0
-496 -501 0
-496 -502 0
-496 -503 0
-496 -504 0
-496 -505 0
-496 -506 0
-496 -507 0
-496 -508 0
-496 -509 0
-496 -510 0
-496 -511 0
-496 -512 0
-496 -513 0
-496 -514 0
-496 -515 0
-496 -516 0
-496 -517 0
-496 -518 0
-496 -519 0
-496 -520 0
-496 -521 0
-496 -522 0
-496 -523 0
-496 -524 0
-496 -525 0
-496 -526 0
-496 -527 0
-496 -528 0
-496 -529 0
-496 -530 0
-496 -531 0
-497 -498 0
-497 -499 0
-497 -500 0
-497 -501 0
-497 -502 0
-497 -503 0
-497 -504 0
-497 -505 0
-497 -506 0
-497 -507 0
-497 -508 0
-497 -509 0
-497 -510 0
-497 -511 0
-497 -512 0
-497 -513 0
-497 -514 0
-497 -515 0
-497 -516 0
-497 -517 0
-497 -518 0
-497 -519 0
-497 -520 0
-497 -521 0
-497 -522 0
-497 -523 0
-497 -524 0
-497 -525 0
-497 -526 0
-497 -527 0
-497 -528 0
-497 -529 0
-497 -530 0
-497 -531 0
-498 -499 0
-498 -500 0
-498 -501 0
-498 -502 0
-498 -503 0
-498 -504 0
-498 -505 0
-498 -506 0
-498 -507 0
-498 -508 0
-498 -509 0
-498 -510 0
-498 -511 0
-498 -512 0
-498 -513 0
-498 -514 0
-498 -515 0
-498 -516 0
-498 -517 0
-498 -518 0
-498 -519 0
-498 -520 0
-498 -521 0
-498 -522 0
-498 -523 0
-498 -524 0
-498 -525 0
-498 -526 0
-498 -527 0
-498 -528 0
-498 -529 0
-498 -530 0
-498 -531 0
-499 -500 0
-499 -501 0
-499 -502 0
-499 -503 0
-499 -504 0
-499 -505 0
-499 -506 0
-499 -507 0
-499 -508 0
-499 -509 0
-499 -510 0
-499 -511 0
-499 -512 0
-499 -513 0
-499 -514 0
-499 -515 0
-499 -516 0
-499 -517 0
-499 -518 0
-499 -519 0
-499 -520 0
-499 -521 0
-499 -522 0
-499 -523 0
-499 -524 0
-499 -525 0
-499 -526 0
-499 -527 0
-499 -528 0
-499 -529 0
-499 -530 0
-499 -531 0
-500 -501 0
-500 -502 0
-500 -503 0
-500 -504 0
-500 -505 0
-500 -506 0
-500 -507 0
-500 -508 0
-500 -509 0
-500 -510 0
-500 -511 0
-500 -512 0
-500 -513 0
-500 -514 0
-500 -515 0
-500 -516 0
-500 -517 0
-500 -518 0
-500 -519 0
-500 -520 0
-500 -521 0
-500 -522 0
-500 -523 0
-500 -524 0
-500 -525 0
-500 -526 0
-500 -527 0
-500 -528 0
-500 -529 0
-500 -530 0
-500 -531 0
-501 -502 0
-501 -503 0
-501 -504 0
-501 -505 0
-501 -506 0
-501 -507 0
-501 -508 0
-501 -509 0
-501 -510 0
-501 -511 0
-501 -512 0
-501 -513 0
-501 -514 0
-501 -515 0
-501 -516 0
-501 -517 0
-501 -518 0
-501 -519 0
-501 -520 0
-501 -521 0
-501 -522 0
-501 -523 0
-501 -524 0
-501 -525 0
-501 -526 0
-501 -527 0
-501 -528 0
-501 -529 0
-501 -530 0
-501 -531 0
-502 -503 0
-502 -504 0
-502 -505 0
-502 -506 0
-502 -507 0
-502 -508 0
-502 -509 0
-502 -510 0
-502 -511 0
-502 -512 0
-502 -513 0
-502 -514 0
-502 -515 0
-502 -516 0
-502 -517 0
-502 -518 0
-502 -519 0
-502 -520 0
-502 -521 0
-502 -522 0
-502 -523 0
-502 -524 0
-502 -525 0
-502 -526 0
-502 -527 0
-502 -528 0
-502 -529 0
-502 -530 0
-502 -531 0
-503 -504 0
-503 -505 0
-503 -506 0
-503 -507 0
-503 -508 0
-503 -509 0
-503 -510 0
-503 -511 0
-503 -512 0
-503 -513 0
-503 -514 0
-503 -515 0
-503 -516 0
-503 -517 0
-503 -518 0
-503 -519 0
-503 -520 0
-503 -521 0
-503 -522 0
-503 -523 0
-503 -524 0
-503 -525 0
-503 -526 0
-503 -527 0
-503 -528 0
-503 -529 0
-503 -530 0
-503 -531 0
-504 -505 0
-504 -506 0
-504 -507 0
-504 -508 0
-504 -509 0
-504 -510 0
-504 -511 0
-504 -512 0
-504 -513 0
-504 -514 0
-504 -515 0
-504 -516 0
-504 -517 0
-504 -518 0
-504 -519 0
-504 -520 0
-504 -521 0
-504 -522 0
-504 -523 0
-504 -524 0
-504 -525 0
-504 -526 0
-504 -527 0
-504 -528 0
-504 -529 0
-504 -530 0
-504 -531 0
-505 -506 0
-505 -507 0
-505 -508 0
-505 -509 0
-505 -510 0
-505 -511 0
-505 -512 0
-505 -513 0
-505 -514 0
-505 -515 0
-505 -516 0
-505 -517 0
-505 -518 0
-505 -519 0
-505 -520 0
-505 -521 0
-505 -522 0
-505 -523 0
-505 -524 0
-505 -525 0
-505 -526 0
-505 -527 0
-505 -528 0
-505 -529 0
-505 -530 0
-505 -531 0
-506 -507 0
-506 -508 0
-506 -509 0
-506 -510 0
-506 -511 0
-506 -512 0
-506 -513 0
-506 -514 0
-506 -515 0
-506 -516 0
-506 -517 0
-506 -518 0
-506 -519 0
-506 -520 0
-506 -521 0
-506 -522 0
-506 -523 0
-506 -524 0
-506 -525 0
-506 -526 0
-506 -527 0
-506 -528 0
-506 -529 0
-506 -530 0
-506 -531 0
-507 -508 0
-507 -509 0
-507 -510 0
-507 -511 0
-507 -512 0
-507 -513 0
-507 -514 0
-507 -515 0
-507 -516 0
-507 -517 0
-507 -518 0
-507 -519 0
-507 -520 0
-507 -521 0
-507 -522 0
-507 -523 0
-507 -524 0
-507 -525 0
-507 -526 0
-507 -527 0
-507 -528 0
-507 -529 0
-507 -530 0
-507 -531 0
-508 -509 0
-508 -510 0
-508 -511 0
-508 -512 0
-508 -513 0
-508 -514 0
-508 -515 0
-508 -516 0
-508 -517 0
-508 -518 0
-508 -519 0
-508 -520 0
-508 -521 0
-508 -522 0
-508 -523 0
-508 -524 0
-508 -525 0
-508 -526 0
-508 -527 0
-508 -528 0
-508 -529 0
-508 -530 0
-508 -531 0
-509 -510 0
-509 -511 0
-509 -512 0
-509 -513 0
-509 -514 0
-509 -515 0
-509 -516 0
-509 -517 0
-509 -518 0
-509 -519 0
-509 -520 0
-509 -521 0
-509 -522 0
-509 -523 0
-509 -524 0
-509 -525 0
-509 -526 0
-509 -527 0
-509 -528 0
-509 -529 0
-509 -530 0
-509 -531 0
-510 -511 0
-510 -512 0
-510 -513 0
-510 -514 0
-510 -515 0
-510 -516 0
-510 -517 0
-510 -518 0
-510 -519 0
-510 -520 0
-510 -521 0
-510 -522 0
-510 -523 0
-510 -524 0
-510 -525 0
-510 -526 0
-510 -527 0
-510 -528 0
-510 -529 0
-510 -530 0
-510 -531 0
-511 -512 0
-511 -513 0
-511 -514 0
-511 -515 0
-511 -516 0
-511 -517 0
-511 -518 0
-511 -519 0
-511 -520 0
-511 -521 0
-511 -522 0
-511 -523 0
-511 -524 0
-511 -525 0
-511 -526 0
-511 -527 0
-511 -528 0
-511 -529 0
-511 -530 0
-511 -531 0
-512 -513 0
-512 -514 0
-512 -515 0
-512 -516 0
-512 -517 0
-512 -518 0
-512 -519 0
-512 -520 0
-512 -521 0
-512 -522 0
-512 -523 0
-512 -524 0
-512 -525 0
-512 -526 0
-512 -527 0
-512 -528 0
-512 -529 0
-512 -530 0
-512 -531 0
-513 -514 0
-513 -515 0
-513 -516 0
-513 -517 0
-513 -518 0
-513 -519 0
-513 -520 0
-513 -521 0
-513 -522 0
-513 -523 0
-513 -524 0
-513 -525 0
-513 -526 0
-513 -527 0
-513 -528 0
-513 -529 0
-513 -530 0
-513 -531 0
-514 -515 0
-514 -516 0
-514 -517 0
-514 -518 0
-514 -519 0
-514 -520 0
-514 -521 0
-514 -522 0
-514 -523 0
-514 -524 0
-514 -525 0
-514 -526 0
-514 -527 0
-514 -528 0
-514 -529 0
-514 -530 0
-514 -531 0
-515 -516 0
-515 -517 0
-515 -518 0
-515 -519 0
-515 -520 0
-515 -521 0
-515 -522 0
-515 -523 0
-515 -524 0
-515 -525 0
-515 -526 0
-515 -527 0
-515 -528 0
-515 -529 0
-515 -530 0
-515 -531 0
-516 -517 0
-516 -518 0
-516 -519 0
-516 -520 0
-516 -521 0
-516 -522 0
-516 -523 0
-516 -524 0
-516 -525 0
-516 -526 0
-516 -527 0
-516 -528 0
-516 -529 0
-516 -530 0
-516 -531 0
-517 -518 0
-517 -519 0
-517 -520 0
-517 -521 0
-517 -522 0
-517 -523 0
-517 -524 0
-517 -525 0
-517 -526 0
-517 -527 0
-517 -528 0
-517 -529 0
-517 -530 0
-517 -531 0
-518 -519 0
-518 -520 0
-518 -521 0
-518 -522 0
-518 -523 0
-518 -524 0
-518 -525 0
-518 -526 0
-518 -527 0
-518 -528 0
-518 -529 0
-518 -530 0
-518 -531 0
-519 -520 0
-519 -521 0
-519 -522 0
-519 -523 0
-519 -524 0
-519 -525 0
-519 -526 0
-519 -527 0
-519 -528 0
-519 -529 0
-519 -530 0
-519 -531 0
-520 -521 0
-520 -522 0
-520 -523 0
-520 -524 0
-520 -525 0
-520 -526 0
-520 -527 0
-520 -528 0
-520 -529 0
-520 -530 0
-520 -531 0
-521 -522 0
-521 -523 0
-521 -524 0
-521 -525 0
-521 -526 0
-521 -527 0
-521 -528 0
-521 -529 0
-521 -530 0
-521 -531 0
-522 -523 0
-522 -524 0
-522 -525 0
-522 -526 0
-522 -527 0
-522 -528 0
-522 -529 0
-522 -530 0
-522 -531 0
-523 -524 0
-523 -525 0
-523 -526 0
-523 -527 0
-523 -528 0
-523 -529 0
-523 -530 0
-523 -531 0
-524 -525 0
-524 -526 0
-524 -527 0
-524 -528 0
-524 -529 0
-524 -530 0
-524 -531 0
-525 -526 0
-525 -527 0
-525 -528 0
-525 -529 0
-525 -530 0
-525 -531 0
-526 -527 0
-526 -528 0
-526 -529 0
-526 -530 0
-526 -531 0
-527 -528 0
-527 -529 0
-527 -530 0
-527 -531 0
-528 -529 0
-528 -530 0
-528 -531 0
-529 -530 0
-529 -531 0
-530 -531 0
-532 448 449 450 451 452 453 454 455 456 457 458 459 460 461 462 463 464 465 466 467 468 469 470 471 0
-448 532 0
-449 532 0
-450 532 0
-451 532 0
-452 532 0
-453 532 0
-454 532 0
-455 532 0
-456 532 0
-457 532 0
-458 532 0
-459 532 0
-460 532 0
-461 532 0
-462 532 0
-463 532 0
-464 532 0
-465 532 0
-466 532 0
-467 532 0
-468 532 0
-469 532 0
-470 532 0
-471 532 0
532 -1 150 0
532 1 -150 0
532 -2 151 0
532 2 -151 0
532 -3 152 0
532 3 -152 0
532 -4 153 0
532 4 -153 0
532 -5 154 0
532 5 -154 0
532 -6 155 0
532 6 -155 0
532 -7 156 0
532 7 -156 0
532 -8 157 0
532 8 -157 0
532 -9 158 0
532 9 -158 0
532 -10 159 0
532 10 -159 0
-533 472 473 474 475 476 477 478 479 480 481 482 483 484 485 486 487 488 489 490 491 492 493 494 495 0
-472 533 0
-473 533 0
-474 533 0
-475 533 0
-476 533 0
-477 533 0
-478 533 0
-479 533 0
-480 533 0
-481 533 0
-482 533 0
-483 533 0
-484 533 0
-485 533 0
-486 533 0
-487 533 0
-488 533 0
-489 533 0
-490 533 0
-491 533 0
-492 533 0
-493 533 0
-494 533 0
-495 533 0
533 -11 160 0
533 11 -160 0
533 -12 161 0
533 12 -161 0
533 -13 162 0
533 13 -162 0
533 -14 163 0
533 14 -163 0
533 -15 164 0
533 15 -164 0
533 -16 165 0
533 16 -165 0
533 -17 166 0
533 17 -166 0
533 -18 167 0
533 18 -167 0
533 -19 168 0
533 19 -168 0
533 -20 169 0
533 20 -169 0
-534 496 497 498 499 500 501 502 503 504 505 506 507 508 509 510 511 512 513 514 515 0
-496 534 0
-497 534 0
-498 534 0
-499 534 0
-500 534 0
-501 534 0
-502 534 0
-503 534 0
-504 534 0
-505 534 0
-506 534 0
-507 534 0
-508 534 0
-509 534 0
-510 534 0
-511 534 0
-512 534 0
-513 534 0
-514 534 0
-515 534 0
534 -21 170 0
534 21 -170 0
534 -22 171 0
534 22 -171 0
534 -23 172 0
534 23 -172 0
534 -24 173 0
534 24 -173 0
534 -25 174 0
534 25 -174 0
534 -26 175 0
534 26 -175 0
534 -27 176 0
534 27 -176 0
534 -28 177 0
534 28 -177 0
534 -29 178 0
534 29 -178 0
-535 516 517 518 519 520 521 522 523 524 525 526 527 528 529 530 531 0
-516 535 0
-517 535 0
-518 535 0
-519 535 0
-520 535 0
-521 535 0
-522 535 0
-523 535 0
-524 535 0
-525 535 0
-526 535 0
-527 535 0
-528 535 0
-529 535 0
-530 535 0
-531 535 0
535 -30 179 0
535 30 -179 0
535 -31 180 0
535 31 -180 0
535 -32 181 0
535 32 -181 0
535 -33 182 0
535 33 -182 0
535 -34 183 0
535 34 -183 0
535 -35 184 0
535 35 -184 0
535 -36 185 0
535 36 -185 0
535 -37 186 0
535 37 -186 0
-448 146 0
-448 150 0
-448 -12 0
-448 -13 0
-448 -14 0
-448 -15 0
-448 -16 0
-448 -20 0
-448 -17 157 0
-448 -17 -1 -8 0
-448 -17 -63 0
-448 -17 -64 0
-448 -17 -65 0
-448 -17 -87 0
-448 -17 -88 0
-448 -17 -89 0
-448 -17 -107 0
-448 -17 -108 0
-448 -17 -109 0
-448 -18 158 0
-448 -18 -1 -9 0
-448 -18 -64 0
-448 -18 -65 0
-448 -18 -88 0
-448 -18 -89 0
-448 -18 -108 0
-448 -18 -109 0
-448 -19 159 0
-448 -19 -1 -10 0
-448 -19 -65 0
-448 -19 -89 0
-448 -19 -109 0
-449 146 0
-449 151 0
-449 -11 0
-449 -13 0
-449 -14 0
-449 -15 0
-449 -16 0
-449 -20 0
-449 -17 157 0
-449 -17 -2 -8 0
-449 -17 -67 0
-449 -17 -68 0
-449 -17 -69 0
-449 -17 -87 0
-449 -17 -88 0
-449 -17 -89 0
-449 -17 -91 0
-449 -17 -92 0
-449 -17 -93 0
-449 -17 -107 0
-449 -17 -108 0
-449 -17 -109 0
-449 -17 -111 0
-449 -17 -112 0
-449 -17 -113 0
-449 -18 158 0
-449 -18 -2 -9 0
-449 -18 -68 0
-449 -18 -69 0
-449 -18 -88 0
-449 -18 -89 0
-449 -18 -92 0
-449 -18 -93 0
-449 -18 -108 0
-449 -18 -109 0
-449 -18 -112 0
-449 -18 -113 0
-449 -19 159 0
-449 -19 -2 -10 0
-449 -19 -69 0
-449 -19 -89 0
-449 -19 -93 0
-449 -19 -109 0
-449 -19 -113 0
-450 146 0
-450 152 0
-450 -11 0
-450 -12 0
-450 -14 0
-450 -15 0
-450 -16 0
-450 -20 0
-450 -17 157 0
-450 -17 -3 -8 0
-450 -17 -71 0
-450 -17 -72 0
-450 -17 -73 0
-450 -17 -91 0
-450 -17 -92 0
-450 -17 -93 0
-450 -17 -95 0
-450 -17 -96 0
-450 -17 -97 0
-450 -17 -107 0
-450 -17 -108 0
-450 -17 -109 0
-450 -17 -111 0
-450 -17 -112 0
-450 -17 -113 0
-450 -17 -115 0
-450 -17 -116 0
-450 -17 -117 0
-450 -18 158 0
-450 -18 -3 -9 0
-450 -18 -72 0
-450 -18 -73 0
-450 -18 -92 0
-450 -18 -93 0
-450 -18 -96 0
-450 -18 -97 0
-450 -18 -108 0
-450 -18 -109 0
-450 -18 -112 0
-450 -18 -113 0
-450 -18 -116 0
-450 -18 -117 0
-450 -19 159 0
-450 -19 -3 -10 0
-450 -19 -73 0
-450 -19 -93 0
-450 -19 -97 0
-450 -19 -109 0
-450 -19 -113 0
-450 -19 -117 0
-451 146 0
-451 153 0
-451 -11 0
-451 -12 0
-451 -13 0
-451 -15 0
-451 -16 0
-451 -20 0
-451 -17 157 0
-451 -17 -4 -8 0
-451 -17 -75 0
-451 -17 -76 0
-451 -17 -77 0
-451 -17 -95 0
-451 -17 -96 0
-451 -17 -97 0
-451 -17 -99 0
-451 -17 -100 0
-451 -17 -101 0
-451 -17 -111 0
-451 -17 -112 0
-451 -17 -113 0
-451 -17 -115 0
-451 -17 -116 0
-451 -17 -117 0
-451 -17 -119 0
-451 -17 -120 0
-451 -17 -121 0
-451 -18 158 0
-451 -18 -4 -9 0
-451 -18 -76 0
-451 -18 -77 0
-451 -18 -96 0
-451 -18 -97 0
-451 -18 -100 0
-451 -18 -101 0
-451 -18 -112 0
-451 -18 -113 0
-451 -18 -116 0
-451 -18 -117 0
-451 -18 -120 0
-451 -18 -121 0
-451 -19 159 0
-451 -19 -4 -10 0
-451 -19 -77 0
-451 -19 -97 0
-451 -19 -101 0
-451 -19 -113 0
-451 -19 -117 0
-451 -19 -121 0
-452 146 0
-452 154 0
-452 -11 0
-452 -12 0
-452 -13 0
-452 -14 0
-452 -16 0
-452 -20 0
-452 -17 157 0
-452 -17 -5 -8 0
-452 -17 -79 0
-452 -17 -80 0
-452 -17 -81 0
-452 -17 -99 0
-452 -17 -100 0
-452 -17 -101 0
-452 -17 -103 0
-452 -17 -104 0
-452 -17 -105 0
-452 -17 -115 0
-452 -17 -116 0
-452 -17 -117 0
-452 -17 -119 0
-452 -17 -120 0
-452 -17 -121 0
-452 -18 158 0
-452 -18 -5 -9 0
-452 -18 -80 0
-452 -18 -81 0
-452 -18 -100 0
-452 -18 -101 0
-452 -18 -104 0
-452 -18 -105 0
-452 -18 -116 0
-452 -18 -117 0
-452 -18 -120 0
-452 -18 -121 0
-452 -19 159 0
-452 -19 -5 -10 0
-452 -19 -81 0
-452 -19 -101 0
-452 -19 -105 0
-452 -19 -117 0
-452 -19 -121 0
-453 146 0
-453 155 0
-453 -11 0
-453 -12 0
-453 -13 0
-453 -14 0
-453 -15 0
-453 -20 0
-453 -17 157 0
-453 -17 -6 -8 0
-453 -17 -83 0
-453 -17 -84 0
-453 -17 -85 0
-453 -17 -103 0
-453 -17 -104 0
-453 -17 -105 0
-453 -17 -119 0
-453 -17 -120 0
-453 -17 -121 0
-453 -18 158 0
-453 -18 -6 -9 0
-453 -18 -84 0
-453 -18 -85 0
-453 -18 -104 0
-453 -18 -105 0
-453 -18 -120 0
-453 -18 -121 0
-453 -19 159 0
-453 -19 -6 -10 0
-453 -19 -85 0
-453 -19 -105 0
-453 -19 -121 0
-454 146 0
-454 150 0
-454 -22 0
-454 -23 0
-454 -24 0
-454 -25 0
-454 -29 0
-454 -26 157 0
-454 -26 -1 -8 0
-454 -26 -63 0
-454 -26 -64 0
-454 -26 -65 0
-454 -26 -87 0
-454 -26 -88 0
-454 -26 -89 0
-454 -26 -107 0
-454 -26 -108 0
-454 -26 -109 0
-454 -27 158 0
-454 -27 -1 -9 0
-454 -27 -64 0
-454 -27 -65 0
-454 -27 -88 0
-454 -27 -89 0
-454 -27 -108 0
-454 -27 -109 0
-454 -28 159 0
-454 -28 -1 -10 0
-454 -28 -65 0
-454 -28 -89 0
-454 -28 -109 0
-455 146 0
-455 151 0
-455 -23 0
-455 -24 0
-455 -25 0
-455 -29 0
-455 -26 157 0
-455 -26 -2 -8 0
-455 -26 -67 0
-455 -26 -68 0
-455 -26 -69 0
-455 -26 -87 0
-455 -26 -88 0
-455 -26 -89 0
-455 -26 -91 0
-455 -26 -92 0
-455 -26 -93 0
-455 -26 -107 0
-455 -26 -108 0
-455 -26 -109 0
-455 -26 -111 0
-455 -26 -112 0
-455 -26 -113 0
-455 -27 158 0
-455 -27 -2 -9 0
-455 -27 -68 0
-455 -27 -69 0
-455 -27 -88 0
-455 -27 -89 0
-455 -27 -92 0
-455 -27 -93 0
-455 -27 -108 0
-455 -27 -109 0
-455 -27 -112 0
-455 -27 -113 0
-455 -28 159 0
-455 -28 -2 -10 0
-455 -28 -69 0
-455 -28 -89 0
-455 -28 -93 0
-455 -28 -109 0
-455 -28 -113 0
-456 146 0
-456 152 0
-456 -21 0
-456 -24 0
-456 -25 0
-456 -29 0
-456 -26 157 0
-456 -26 -3 -8 0
-456 -26 -71 0
-456 -26 -72 0
-456 -26 -73 0
-456 -26 -91 0
-456 -26 -92 0
-456 -26 -93 0
-456 -26 -95 0
-456 -26 -96 0
-456 -26 -97 0
-456 -26 -107 0
-456 -26 -108 0
-456 -26 -109 0
-456 -26 -111 0
-456 -26 -112 0
-456 -26 -113 0
-456 -26 -115 0
-456 -26 -116 0
-456 -26 -117 0
-456 -27 158 0
-456 -27 -3 -9 0
-456 -27 -72 0
-456 -27 -73 0
-456 -27 -92 0
-456 -27 -93 0
-456 -27 -96 0
-456 -27 -97 0
-456 -27 -108 0
-456 -27 -109 0
-456 -27 -112 0
-456 -27 -113 0
-456 -27 -116 0
-456 -27 -117 0
-456 -28 159 0
-456 -28 -3 -10 0
-456 -28 -73 0
-456 -28 -93 0
-456 -28 -97 0
-456 -28 -109 0
-456 -28 -113 0
-456 -28 -117 0
-457 146 0
-457 153 0
-457 -21 0
-457 -22 0
-457 -25 0
-457 -29 0
-457 -26 157 0
-457 -26 -4 -8 0
-457 -26 -75 0
-457 -26 -76 0
-457 -26 -77 0
-457 -26 -95 0
-457 -26 -96 0
-457 -26 -97 0
-457 -26 -99 0
-457 -26 -100 0
-457 -26 -101 0
-457 -26 -111 0
-457 -26 -112 0
-457 -26 -113 0
-457 -26 -115 0
-457 -26 -116 0
-457 -26 -117 0
-457 -26 -119 0
-457 -26 -120 0
-457 -26 -121 0
-457 -27 158 0
-457 -27 -4 -9 0
-457 -27 -76 0
-457 -27 -77 0
-457 -27 -96 0
-457 -27 -97 0
-457 -27 -100 0
-457 -27 -101 0
-457 -27 -112 0
-457 -27 -113 0
-457 -27 -116 0
-457 -27 -117 0
-457 -27 -120 0
-457 -27 -121 0
-457 -28 159 0
-457 -28 -4 -10 0
-457 -28 -77 0
-457 -28 -97 0
-457 -28 -101 0
-457 -28 -113 0
-457 -28 -117 0
-457 -28 -121 0
-458 146 0
-458 154 0
-458 -21 0
-458 -22 0
-458 -23 0
-458 -29 0
-458 -26 157 0
-458 -26 -5 -8 0
-458 -26 -79 0
-458 -26 -80 0
-458 -26 -81 0
-458 -26 -99 0
-458 -26 -100 0
-458 -26 -101 0
-458 -26 -103 0
-458 -26 -104 0
-458 -26 -105 0
-458 -26 -115 0
-458 -26 -116 0
-458 -26 -117 0
-458 -26 -119 0
-458 -26 -120 0
-458 -26 -121 0
-458 -27 158 0
-458 -27 -5 -9 0
-458 -27 -80 0
-458 -27 -81 0
-458 -27 -100 0
-458 -27 -101 0
-458 -27 -104 0
-458 -27 -105 0
-458 -27 -116 0
-458 -27 -117 0
-458 -27 -120 0
-458 -27 -121 0
-458 -28 159 0
-458 -28 -5 -10 0
-458 -28 -81 0
-458 -28 -101 0
-458 -28 -105 0
-458 -28 -117 0
-458 -28 -121 0
-459 146 0
-459 155 0
-459 -21 0
-459 -22 0
-459 -23 0
-459 -24 0
-459 -29 0
-459 -26 157 0
-459 -26 -6 -8 0
-459 -26 -83 0
-459 -26 -84 0
-459 -26 -85 0
-459 -26 -103 0
-459 -26 -104 0
-459 -26 -105 0
-459 -26 -119 0
-459 -26 -120 0
-459 -26 -121 0
-459 -27 158 0
-459 -27 -6 -9 0
-459 -27 -84 0
-459 -27 -85 0
-459 -27 -104 0
-459 -27 -105 0
-459 -27 -120 0
-459 -27 -121 0
-459 -28 159 0
-459 -28 -6 -10 0
-459 -28 -85 0
-459 -28 -105 0
-459 -28 -121 0
-460 146 0
-460 150 0
-460 -31 0
-460 -32 0
-460 -33 0
-460 -37 0
-460 -34 157 0
-460 -34 -1 -8 0
-460 -34 -63 0
-460 -34 -64 0
-460 -34 -65 0
-460 -34 -87 0
-460 -34 -88 0
-460 -34 -89 0
-460 -34 -107 0
-460 -34 -108 0
-460 -34 -109 0
-460 -35 158 0
-460 -35 -1 -9 0
-460 -35 -64 0
-460 -35 -65 0
-460 -35 -88 0
-460 -35 -89 0
-460 -35 -108 0
-460 -35 -109 0
-460 -36 159 0
-460 -36 -1 -10 0
-460 -36 -65 0
-460 -36 -89 0
-460 -36 -109 0
-461 146 0
-461 151 0
-461 -32 0
-461 -33 0
-461 -37 0
-461 -34 157 0
-461 -34 -2 -8 0
-461 -34 -67 0
-461 -34 -68 0
-461 -34 -69 0
-461 -34 -87 0
-461 -34 -88 0
-461 -34 -89 0
-461 -34 -91 0
-461 -34 -92 0
-461 -34 -93 0
-461 -34 -107 0
-461 -34 -108 0
-461 -34 -109 0
-461 -34 -111 0
-461 -34 -112 0
-461 -34 -113 0
-461 -35 158 0
-461 -35 -2 -9 0
-461 -35 -68 0
-461 -35 -69 0
-461 -35 -88 0
-461 -35 -89 0
-461 -35 -92 0
-461 -35 -93 0
-461 -35 -108 0
-461 -35 -109 0
-461 -35 -112 0
-461 -35 -113 0
-461 -36 159 0
-461 -36 -2 -10 0
-461 -36 -69 0
-461 -36 -89 0
-461 -36 -93 0
-461 -36 -109 0
-461 -36 -113 0
-462 146 0
-462 152 0
-462 -33 0
-462 -37 0
-462 -34 157 0
-462 -34 -3 -8 0
-462 -34 -71 0
-462 -34 -72 0
-462 -34 -73 0
-462 -34 -91 0
-462 -34 -92 0
-462 -34 -93 0
-462 -34 -95 0
-462 -34 -96 0
-462 -34 -97 0
-462 -34 -107 0
-462 -34 -108 0
-462 -34 -109 0
-462 -34 -111 0
-462 -34 -112 0
-462 -34 -113 0
-462 -34 -115 0
-462 -34 -116 0
-462 -34 -117 0
-462 -35 158 0
-462 -35 -3 -9 0
-462 -35 -72 0
-462 -35 -73 0
-462 -35 -92 0
-462 -35 -93 0
-462 -35 -96 0
-462 -35 -97 0
-462 -35 -108 0
-462 -35 -109 0
-462 -35 -112 0
-462 -35 -113 0
-462 -35 -116 0
-462 -35 -117 0
-462 -36 159 0
-462 -36 -3 -10 0
-462 -36 -73 0
-462 -36 -93 0
-462 -36 -97 0
-462 -36 -109 0
-462 -36 -113 0
-462 -36 -117 0
-463 146 0
-463 153 0
-463 -30 0
-463 -37 0
-463 -34 157 0
-463 -34 -4 -8 0
-463 -34 -75 0
-463 -34 -76 0
-463 -34 -77 0
-463 -34 -95 0
-463 -34 -96 0
-463 -34 -97 0
-463 -34 -99 0
-463 -34 -100 0
-463 -34 -101 0
-463 -34 -111 0
-463 -34 -112 0
-463 -34 -113 0
-463 -34 -115 0
-463 -34 -116 0
-463 -34 -117 0
-463 -34 -119 0
-463 -34 -120 0
-463 -34 -121 0
-463 -35 158 0
-463 -35 -4 -9 0
-463 -35 -76 0
-463 -35 -77 0
-463 -35 -96 0
-463 -35 -97 0
-463 -35 -100 0
-463 -35 -101 0
-463 -35 -112 0
-463 -35 -113 0
-463 -35 -116 0
-463 -35 -117 0
-463 -35 -120 0
-463 -35 -121 0
-463 -36 159 0
-463 -36 -4 -10 0
-463 -36 -77 0
-463 -36 -97 0
-463 -36 -101 0
-463 -36 -113 0
-463 -36 -117 0
-463 -36 -121 0
-464 146 0
-464 154 0
-464 -30 0
-464 -31 0
-464 -37 0
-464 -34 157 0
-464 -34 -5 -8 0
-464 -34 -79 0
-464 -34 -80 0
-464 -34 -81 0
-464 -34 -99 0
-464 -34 -100 0
-464 -34 -101 0
-464 -34 -103 0
-464 -34 -104 0
-464 -34 -105 0
-464 -34 -115 0
-464 -34 -116 0
-464 -34 -117 0
-464 -34 -119 0
-464 -34 -120 0
-464 -34 -121 0
-464 -35 158 0
-464 -35 -5 -9 0
-464 -35 -80 0
-464 -35 -81 0
-464 -35 -100 0
-464 -35 -101 0
-464 -35 -104 0
-464 -35 -105 0
-464 -35 -116 0
-464 -35 -117 0
-464 -35 -120 0
-464 -35 -121 0
-464 -36 159 0
-464 -36 -5 -10 0
-464 -36 -81 0
-464 -36 -101 0
-464 -36 -105 0
-464 -36 -117 0
-464 -36 -121 0
-465 146 0
-465 155 0
-465 -30 0
-465 -31 0
-465 -32 0
-465 -37 0
-465 -34 157 0
-465 -34 -6 -8 0
-465 -34 -83 0
-465 -34 -84 0
-465 -34 -85 0
-465 -34 -103 0
-465 -34 -104 0
-465 -34 -105 0
-465 -34 -119 0
-465 -34 -120 0
-465 -34 -121 0
-465 -35 158 0
-465 -35 -6 -9 0
-465 -35 -84 0
-465 -35 -85 0
-465 -35 -104 0
-465 -35 -105 0
-465 -35 -120 0
-465 -35 -121 0
-465 -36 159 0
-465 -36 -6 -10 0
-465 -36 -85 0
-465 -36 -105 0
-465 -36 -121 0
-466 146 0
-466 150 0
-466 156 0
-466 -1 -7 0
-466 -62 0
-466 -63 0
-466 -64 0
-466 -65 0
-466 -86 0
-466 -87 0
-466 -88 0
-466 -89 0
-466 -106 0
-466 -107 0
-466 -108 0
-466 -109 0
-467 146 0
-467 151 0
-467 156 0
-467 -2 -7 0
-467 -66 0
-467 -67 0
-467 -68 0
-467 -69 0
-467 -86 0
-467 -87 0
-467 -88 0
-467 -89 0
-467 -90 0
-467 -91 0
-467 -92 0
-467 -93 0
-467 -106 0
-467 -107 0
-467 -108 0
-467 -109 0
-467 -110 0
-467 -111 0
-467 -112 0
-467 -113 0
-468 146 0
-468 152 0
-468 156 0
-468 -3 -7 0
-468 -70 0
-468 -71 0
-468 -72 0
-468 -73 0
-468 -90 0
-468 -91 0
-468 -92 0
-468 -93 0
-468 -94 0
-468 -95 0
-468 -96 0
-468 -97 0
-468 -106 0
-468 -107 0
-468 -108 0
-468 -109 0
-468 -110 0
-468 -111 0
-468 -112 0
-468 -113 0
-468 -114 0
-468 -115 0
-468 -116 0
-468 -117 0
-469 146 0
-469 153 0
-469 156 0
-469 -4 -7 0
-469 -74 0
-469 -75 0
-469 -76 0
-469 -77 0
-469 -94 0
-469 -95 0
-469 -96 0
-469 -97 0
-469 -98 0
-469 -99 0
-469 -100 0
-469 -101 0
-469 -110 0
-469 -111 0
-469 -112 0
-469 -113 0
-469 -114 0
-469 -115 0
-469 -116 0
-469 -117 0
-469 -118 0
-469 -119 0
-469 -120 0
-469 -121 0
-470 146 0
-470 154 0
-470 156 0
-470 -5 -7 0
-470 -78 0
-470 -79 0
-470 -80 0
-470 -81 0
-470 -98 0
-470 -99 0
-470 -100 0
-470 -101 0
-470 -102 0
-470 -103 0
-470 -104 0
-470 -105 0
-470 -114 0
-470 -115 0
-470 -116 0
-470 -117 0
-470 -118 0
-470 -119 0
-470 -120 0
-470 -121 0
-471 146 0
-471 155 0
-471 156 0
-471 -6 -7 0
-471 -82 0
-471 -83 0
-471 -84 0
-471 -85 0
-471 -102 0
-471 -103 0
-471 -104 0
-471 -105 0
-471 -118 0
-471 -119 0
-471 -120 0
-471 -121 0
-472 147 0
-472 160 0
-472 -2 0
-472 -3 0
-472 -4 0
-472 -5 0
-472 -6 0
-472 -10 0
-472 -7 167 0
-472 -7 -11 -18 0
-472 -7 -39 0
-472 -7 -40 0
-472 -7 -41 0
-472 -7 -87 0
-472 -7 -88 0
-472 -7 -89 0
-472 -7 -107 0
-472 -7 -108 0
-472 -7 -109 0
-472 -8 168 0
-472 -8 -11 -19 0
-472 -8 -40 0
-472 -8 -41 0
-472 -8 -88 0
-472 -8 -89 0
-472 -8 -108 0
-472 -8 -109 0
-472 -9 169 0
-472 -9 -11 -20 0
-472 -9 -41 0
-472 -9 -89 0
-472 -9 -109 0
-473 147 0
-473 161 0
-473 -1 0
-473 -3 0
-473 -4 0
-473 -5 0
-473 -6 0
-473 -10 0
-473 -7 167 0
-473 -7 -12 -18 0
-473 -7 -43 0
-473 -7 -44 0
-473 -7 -45 0
-473 -7 -87 0
-473 -7 -88 0
-473 -7 -89 0
-473 -7 -91 0
-473 -7 -92 0
-473 -7 -93 0
-473 -7 -107 0
-473 -7 -108 0
-473 -7 -109 0
-473 -7 -111 0
-473 -7 -112 0
-473 -7 -113 0
-473 -8 168 0
-473 -8 -12 -19 0
-473 -8 -44 0
-473 -8 -45 0
-473 -8 -88 0
-473 -8 -89 0
-473 -8 -92 0
-473 -8 -93 0
-473 -8 -108 0
-473 -8 -109 0
-473 -8 -112 0
-473 -8 -113 0
-473 -9 169 0
-473 -9 -12 -20 0
-473 -9 -45 0
-473 -9 -89 0
-473 -9 -93 0
-473 -9 -109 0
-473 -9 -113 0
-474 147 0
-474 162 0
-474 -1 0
-474 -2 0
-474 -4 0
-474 -5 0
-474 -6 0
-474 -10 0
-474 -7 167 0
-474 -7 -13 -18 0
-474 -7 -47 0
-474 -7 -48 0
-474 -7 -49 0
-474 -7 -91 0
-474 -7 -92 0
-474 -7 -93 0
-474 -7 -95 0
-474 -7 -96 0
-474 -7 -97 0
-474 -7 -107 0
-474 -7 -108 0
-474 -7 -109 0
-474 -7 -111 0
-474 -7 -112 0
-474 -7 -113 0
-474 -7 -115 0
-474 -7 -116 0
-474 -7 -117 0
-474 -8 168 0
-474 -8 -13 -19 0
-474 -8 -48 0
-474 -8 -49 0
-474 -8 -92 0
-474 -8 -93 0
-474 -8 -96 0
-474 -8 -97 0
-474 -8 -108 0
-474 -8 -109 0
-474 -8 -112 0
-474 -8 -113 0
-474 -8 -116 0
-474 -8 -117 0
-474 -9 169 0
-474 -9 -13 -20 0
-474 -9 -49 0
-474 -9 -93 0
-474 -9 -97 0
-474 -9 -109 0
-474 -9 -113 0
-474 -9 -117 0
-475 147 0
-475 163 0
-475 -1 0
-475 -2 0
-475 -3 0
-475 -5 0
-475 -6 0
-475 -10 0
-475 -7 167 0
-475 -7 -14 -18 0
-475 -7 -51 0
-475 -7 -52 0
-475 -7 -53 0
-475 -7 -95 0
-475 -7 -96 0
-475 -7 -97 0
-475 -7 -99 0
-475 -7 -100 0
-475 -7 -101 0
-475 -7 -111 0
-475 -7 -112 0
-475 -7 -113 0
-475 -7 -115 0
-475 -7 -116 0
-475 -7 -117 0
-475 -7 -119 0
-475 -7 -120 0
-475 -7 -121 0
-475 -8 168 0
-475 -8 -14 -19 0
-475 -8 -52 0
-475 -8 -53 0
-475 -8 -96 0
-475 -8 -97 0
-475 -8 -100 0
-475 -8 -101 0
-475 -8 -112 0
-475 -8 -113 0
-475 -8 -116 0
-475 -8 -117 0
-475 -8 -120 0
-475 -8 -121 0
-475 -9 169 0
-475 -9 -14 -20 0
-475 -9 -53 0
-475 -9 -97 0
-475 -9 -101 0
-475 -9 -113 0
-475 -9 -117 0
-475 -9 -121 0
-476 147 0
-476 164 0
-476 -1 0
-476 -2 0
-476 -3 0
-476 -4 0
-476 -6 0
-476 -10 0
-476 -7 167 0
-476 -7 -15 -18 0
-476 -7 -55 0
-476 -7 -56 0
-476 -7 -57 0
-476 -7 -99 0
-476 -7 -100 0
-476 -7 -101 0
-476 -7 -103 0
-476 -7 -104 0
-476 -7 -105 0
-476 -7 -115 0
-476 -7 -116 0
-476 -7 -117 0
-476 -7 -119 0
-476 -7 -120 0
-476 -7 -121 0
-476 -8 168 0
-476 -8 -15 -19 0
-476 -8 -56 0
-476 -8 -57 0
-476 -8 -100 0
-476 -8 -101 0
-476 -8 -104 0
-476 -8 -105 0
-476 -8 -116 0
-476 -8 -117 0
-476 -8 -120 0
-476 -8 -121 0
-476 -9 169 0
-476 -9 -15 -20 0
-476 -9 -57 0
-476 -9 -101 0
-476 -9 -105 0
-476 -9 -117 0
-476 -9 -121 0
-477 147 0
-477 165 0
-477 -1 0
-477 -2 0
-477 -3 0
-477 -4 0
-477 -5 0
-477 -10 0
-477 -7 167 0
-477 -7 -16 -18 0
-477 -7 -59 0
-477 -7 -60 0
-477 -7 -61 0
-477 -7 -103 0
-477 -7 -104 0
-477 -7 -105 0
-477 -7 -119 0
-477 -7 -120 0
-477 -7 -121 0
-477 -8 168 0
-477 -8 -16 -19 0
-477 -8 -60 0
-477 -8 -61 0
-477 -8 -104 0
-477 -8 -105 0
-477 -8 -120 0
-477 -8 -121 0
-477 -9 169 0
-477 -9 -16 -20 0
-477 -9 -61 0
-477 -9 -105 0
-477 -9 -121 0
-478 147 0
-478 160 0
-478 -22 0
-478 -23 0
-478 -24 0
-478 -25 0
-478 -29 0
-478 -26 167 0
-478 -26 -11 -18 0
-478 -26 -39 0
-478 -26 -40 0
-478 -26 -41 0
-478 -26 -87 0
-478 -26 -88 0
-478 -26 -89 0
-478 -26 -107 0
-478 -26 -108 0
-478 -26 -109 0
-478 -27 168 0
-478 -27 -11 -19 0
-478 -27 -40 0
-478 -27 -41 0
-478 -27 -88 0
-478 -27 -89 0
-478 -27 -108 0
-478 -27 -109 0
-478 -28 169 0
-478 -28 -11 -20 0
-478 -28 -41 0
-478 -28 -89 0
-478 -28 -109 0
-479 147 0
-479 161 0
-479 -23 0
-479 -24 0
-479 -25 0
-479 -29 0
-479 -26 167 0
-479 -26 -12 -18 0
-479 -26 -43 0
-479 -26 -44 0
-479 -26 -45 0
-479 -26 -87 0
-479 -26 -88 0
-479 -26 -89 0
-479 -26 -91 0
-479 -26 -92 0
-479 -26 -93 0
-479 -26 -107 0
-479 -26 -108 0
-479 -26 -109 0
-479 -26 -111 0
-479 -26 -112 0
-479 -26 -113 0
-479 -27 168 0
-479 -27 -12 -19 0
-479 -27 -44 0
-479 -27 -45 0
-479 -27 -88 0
-479 -27 -89 0
-479 -27 -92 0
-479 -27 -93 0
-479 -27 -108 0
-479 -27 -109 0
-479 -27 -112 0
-479 -27 -113 0
-479 -28 169 0
-479 -28 -12 -20 0
-479 -28 -45 0
-479 -28 -89 0
-479 -28 -93 0
-479 -28 -109 0
-479 -28 -113 0
-480 147 0
-480 162 0
-480 -21 0
-480 -24 0
-480 -25 0
-480 -29 0
-480 -26 167 0
-480 -26 -13 -18 0
-480 -26 -47 0
-480 -26 -48 0
-480 -26 -49 0
-480 -26 -91 0
-480 -26 -92 0
-480 -26 -93 0
-480 -26 -95 0
-480 -26 -96 0
-480 -26 -97 0
-480 -26 -107 0
-480 -26 -108 0
-480 -26 -109 0
-480 -26 -111 0
-480 -26 -112 0
-480 -26 -113 0
-480 -26 -115 0
-480 -26 -116 0
-480 -26 -117 0
-480 -27 168 0
-480 -27 -13 -19 0
-480 -27 -48 0
-480 -27 -49 0
-480 -27 -92 0
-480 -27 -93 0
-480 -27 -96 0
-480 -27 -97 0
-480 -27 -108 0
-480 -27 -109 0
-480 -27 -112 0
-480 -27 -113 0
-480 -27 -116 0
-480 -27 -117 0
-480 -28 169 0
-480 -28 -13 -20 0
-480 -28 -49 0
-480 -28 -93 0
-480 -28 -97 0
-480 -28 -109 0
-480 -28 -113 0
-480 -28 -117 0
-481 147 0
-481 163 0
-481 -21 0
-481 -22 0
-481 -25 0
-481 -29 0
-481 -26 167 0
-481 -26 -14 -18 0
-481 -26 -51 0
-481 -26 -52 0
-481 -26 -53 0
-481 -26 -95 0
-481 -26 -96 0
-481 -26 -97 0
-481 -26 -99 0
-481 -26 -100 0
-481 -26 -101 0
-481 -26 -111 0
-481 -26 -112 0
-481 -26 -113 0
-481 -26 -115 0
-481 -26 -116 0
-481 -26 -117 0
-481 -26 -119 0
-481 -26 -120 0
-481 -26 -121 0
-481 -27 168 0
-481 -27 -14 -19 0
-481 -27 -52 0
-481 -27 -53 0
-481 -27 -96 0
-481 -27 -97 0
-481 -27 -100 0
-481 -27 -101 0
-481 -27 -112 0
-481 -27 -113 0
-481 -27 -116 0
-481 -27 -117 0
-481 -27 -120 0
-481 -27 -121 0
-481 -28 169 0
-481 -28 -14 -20 0
-481 -28 -53 0
-481 -28 -97 0
-481 -28 -101 0
-481 -28 -113 0
-481 -28 -117 0
-481 -28 -121 0
-482 147 0
-482 164 0
-482 -21 0
-482 -22 0
-482 -23 0
-482 -29 0
-482 -26 167 0
-482 -26 -15 -18 0
-482 -26 -55 0
-482 -26 -56 0
-482 -26 -57 0
-482 -26 -99 0
-482 -26 -100 0
-482 -26 -101 0
-482 -26 -103 0
-482 -26 -104 0
-482 -26 -105 0
-482 -26 -115 0
-482 -26 -116 0
-482 -26 -117 0
-482 -26 -119 0
-482 -26 -120 0
-482 -26 -121 0
-482 -27 168 0
-482 -27 -15 -19 0
-482 -27 -56 0
-482 -27 -57 0
-482 -27 -100 0
-482 -27 -101 0
-482 -27 -104 0
-482 -27 -105 0
-482 -27 -116 0
-482 -27 -117 0
-482 -27 -120 0
-482 -27 -121 0
-482 -28 169 0
-482 -28 -15 -20 0
-482 -28 -57 0
-482 -28 -101 0
-482 -28 -105 0
-482 -28 -117 0
-482 -28 -121 0
-483 147 0
-483 165 0
-483 -21 0
-483 -22 0
-483 -23 0
-483 -24 0
-483 -29 0
-483 -26 167 0
-483 -26 -16 -18 0
-483 -26 -59 0
-483 -26 -60 0
-483 -26 -61 0
-483 -26 -103 0
-483 -26 -104 0
-483 -26 -105 0
-483 -26 -119 0
-483 -26 -120 0
-483 -26 -121 0
-483 -27 168 0
-483 -27 -16 -19 0
-483 -27 -60 0
-483 -27 -61 0
-483 -27 -104 0
-483 -27 -105 0
-483 -27 -120 0
-483 -27 -121 0
-483 -28 169 0
-483 -28 -16 -20 0
-483 -28 -61 0
-483 -28 -105 0
-483 -28 -121 0
-484 147 0
-484 160 0
-484 -31 0
-484 -32 0
-484 -33 0
-484 -37 0
-484 -34 167 0
-484 -34 -11 -18 0
-484 -34 -39 0
-484 -34 -40 0
-484 -34 -41 0
-484 -34 -87 0
-484 -34 -88 0
-484 -34 -89 0
-484 -34 -107 0
-484 -34 -108 0
-484 -34 -109 0
-484 -35 168 0
-484 -35 -11 -19 0
-484 -35 -40 0
-484 -35 -41 0
-484 -35 -88 0
-484 -35 -89 0
-484 -35 -108 0
-484 -35 -109 0
-484 -36 169 0
-484 -36 -11 -20 0
-484 -36 -41 0
-484 -36 -89 0
-484 -36 -109 0
-485 147 0
-485 161 0
-485 -32 0
-485 -33 0
-485 -37 0
-485 -34 167 0
-485 -34 -12 -18 0
-485 -34 -43 0
-485 -34 -44 0
-485 -34 -45 0
-485 -34 -87 0
-485 -34 -88 0
-485 -34 -89 0
-485 -34 -91 0
-485 -34 -92 0
-485 -34 -93 0
-485 -34 -107 0
-485 -34 -108 0
-485 -34 -109 0
-485 -34 -111 0
-485 -34 -112 0
-485 -34 -113 0
-485 -35 168 0
-485 -35 -12 -19 0
-485 -35 -44 0
-485 -35 -45 0
-485 -35 -88 0
-485 -35 -89 0
-485 -35 -92 0
-485 -35 -93 0
-485 -35 -108 0
-485 -35 -109 0
-485 -35 -112 0
-485 -35 -113 0
-485 -36 169 0
-485 -36 -12 -20 0
-485 -36 -45 0
-485 -36 -89 0
-485 -36 -93 0
-485 -36 -109 0
-485 -36 -113 0
-486 147 0
-486 162 0
-486 -33 0
-486 -37 0
-486 -34 167 0
-486 -34 -13 -18 0
-486 -34 -47 0
-486 -34 -48 0
-486 -34 -49 0
-486 -34 -91 0
-486 -34 -92 0
-486 -34 -93 0
-486 -34 -95 0
-486 -34 -96 0
-486 -34 -97 0
-486 -34 -107 0
-486 -34 -108 0
-486 -34 -109 0
-486 -34 -111 0
-486 -34 -112 0
-486 -34 -113 0
-486 -34 -115 0
-486 -34 -116 0
-486 -34 -117 0
-486 -35 168 0
-486 -35 -13 -19 0
-486 -35 -48 0
-486 -35 -49 0
-486 -35 -92 0
-486 -35 -93 0
-486 -35 -96 0
-486 -35 -97 0
-486 -35 -108 0
-486 -35 -109 0
-486 -35 -112 0
-486 -35 -113 0
-486 -35 -116 0
-486 -35 -117 0
-486 -36 169 0
-486 -36 -13 -20 0
-486 -36 -49 0
-486 -36 -93 0
-486 -36 -97 0
-486 -36 -109 0
-486 -36 -113 0
-486 -36 -117 0
-487 147 0
-487 163 0
-487 -30 0
-487 -37 0
-487 -34 167 0
-487 -34 -14 -18 0
-487 -34 -51 0
-487 -34 -52 0
-487 -34 -53 0
-487 -34 -95 0
-487 -34 -96 0
-487 -34 -97 0
-487 -34 -99 0
-487 -34 -100 0
-487 -34 -101 0
-487 -34 -111 0
-487 -34 -112 0
-487 -34 -113 0
-487 -34 -115 0
-487 -34 -116 0
-487 -34 -117 0
-487 -34 -119 0
-487 -34 -120 0
-487 -34 -121 0
-487 -35 168 0
-487 -35 -14 -19 0
-487 -35 -52 0
-487 -35 -53 0
-487 -35 -96 0
-487 -35 -97 0
-487 -35 -100 0
-487 -35 -101 0
-487 -35 -112 0
-487 -35 -113 0
-487 -35 -116 0
-487 -35 -117 0
-487 -35 -120 0
-487 -35 -121 0
-487 -36 169 0
-487 -36 -14 -20 0
-487 -36 -53 0
-487 -36 -97 0
-487 -36 -101 0
-487 -36 -113 0
-487 -36 -117 0
-487 -36 -121 0
-488 147 0
-488 164 0
-488 -30 0
-488 -31 0
-488 -37 0
-488 -34 167 0
-488 -34 -15 -18 0
-488 -34 -55 0
-488 -34 -56 0
-488 -34 -57 0
-488 -34 -99 0
-488 -34 -100 0
-488 -34 -101 0
-488 -34 -103 0
-488 -34 -104 0
-488 -34 -105 0
-488 -34 -115 0
-488 -34 -116 0
-488 -34 -117 0
-488 -34 -119 0
-488 -34 -120 0
-488 -34 -121 0
-488 -35 168 0
-488 -35 -15 -19 0
-488 -35 -56 0
-488 -35 -57 0
-488 -35 -100 0
-488 -35 -101 0
-488 -35 -104 0
-488 -35 -105 0
-488 -35 -116 0
-488 -35 -117 0
-488 -35 -120 0
-488 -35 -121 0
-488 -36 169 0
-488 -36 -15 -20 0
-488 -36 -57 0
-488 -36 -101 0
-488 -36 -105 0
-488 -36 -117 0
-488 -36 -121 0
-489 147 0
-489 165 0
-489 -30 0
-489 -31 0
-489 -32 0
-489 -37 0
-489 -34 167 0
-489 -34 -16 -18 0
-489 -34 -59 0
-489 -34 -60 0
-489 -34 -61 0
-489 -34 -103 0
-489 -34 -104 0
-489 -34 -105 0
-489 -34 -119 0
-489 -34 -120 0
-489 -34 -121 0
-489 -35 168 0
-489 -35 -16 -19 0
-489 -35 -60 0
-489 -35 -61 0
-489 -35 -104 0
-489 -35 -105 0
-489 -35 -120 0
-489 -35 -121 0
-489 -36 169 0
-489 -36 -16 -20 0
-489 -36 -61 0
-489 -36 -105 0
-489 -36 -121 0
-490 147 0
-490 160 0
-490 166 0
-490 -11 -17 0
-490 -38 0
-490 -39 0
-490 -40 0
-490 -41 0
-490 -86 0
-490 -87 0
-490 -88 0
-490 -89 0
-490 -106 0
-490 -107 0
-490 -108 0
-490 -109 0
-491 147 0
-491 161 0
-491 166 0
-491 -12 -17 0
-491 -42 0
-491 -43 0
-491 -44 0
-491 -45 0
-491 -86 0
-491 -87 0
-491 -88 0
-491 -89 0
-491 -90 0
-491 -91 0
-491 -92 0
-491 -93 0
-491 -106 0
-491 -107 0
-491 -108 0
-491 -109 0
-491 -110 0
-491 -111 0
-491 -112 0
-491 -113 0
-492 147 0
-492 162 0
-492 166 0
-492 -13 -17 0
-492 -46 0
-492 -47 0
-492 -48 0
-492 -49 0
-492 -90 0
-492 -91 0
-492 -92 0
-492 -93 0
-492 -94 0
-492 -95 0
-492 -96 0
-492 -97 0
-492 -106 0
-492 -107 0
-492 -108 0
-492 -109 0
-492 -110 0
-492 -111 0
-492 -112 0
-492 -113 0
-492 -114 0
-492 -115 0
-492 -116 0
-492 -117 0
-493 147 0
-493 163 0
-493 166 0
-493 -14 -17 0
-493 -50 0
-493 -51 0
-493 -52 0
-493 -53 0
-493 -94 0
-493 -95 0
-493 -96 0
-493 -97 0
-493 -98 0
-493 -99 0
-493 -100 0
-493 -101 0
-493 -110 0
-493 -111 0
-493 -112 0
-493 -113 0
-493 -114 0
-493 -115 0
-493 -116 0
-493 -117 0
-493 -118 0
-493 -119 0
-493 -120 0
-493 -121 0
-494 147 0
-494 164 0
-494 166 0
-494 -15 -17 0
-494 -54 0
-494 -55 0
-494 -56 0
-494 -57 0
-494 -98 0
-494 -99 0
-494 -100 0
-494 -101 0
-494 -102 0
-494 -103 0
-494 -104 0
-494 -105 0
-494 -114 0
-494 -115 0
-494 -116 0
-494 -117 0
-494 -118 0
-494 -119 0
-494 -120 0
-494 -121 0
-495 147 0
-495 165 0
-495 166 0
-495 -16 -17 0
-495 -58 0
-495 -59 0
-495 -60 0
-495 -61 0
-495 -102 0
-495 -103 0
-495 -104 0
-495 -105 0
-495 -118 0
-495 -119 0
-495 -120 0
-495 -121 0
-496 148 0
-496 170 0
-496 -3 0
-496 -4 0
-496 -5 0
-496 -6 0
-496 -10 0
-496 -7 176 0
-496 -7 -21 -27 0
-496 -7 -39 0
-496 -7 -40 0
-496 -7 -41 0
-496 -7 -43 0
-496 -7 -44 0
-496 -7 -45 0
-496 -7 -63 0
-496 -7 -64 0
-496 -7 -65 0
-496 -7 -67 0
-496 -7 -68 0
-496 -7 -69 0
-496 -7 -107 0
-496 -7 -108 0
-496 -7 -109 0
-496 -7 -111 0
-496 -7 -112 0
-496 -7 -113 0
-496 -8 177 0
-496 -8 -21 -28 0
-496 -8 -40 0
-496 -8 -41 0
-496 -8 -44 0
-496 -8 -45 0
-496 -8 -64 0
-496 -8 -65 0
-496 -8 -68 0
-496 -8 -69 0
-496 -8 -108 0
-496 -8 -109 0
-496 -8 -112 0
-496 -8 -113 0
-496 -9 178 0
-496 -9 -21 -29 0
-496 -9 -41 0
-496 -9 -45 0
-496 -9 -65 0
-496 -9 -69 0
-496 -9 -109 0
-496 -9 -113 0
-497 148 0
-497 171 0
-497 -1 0
-497 -4 0
-497 -5 0
-497 -6 0
-497 -10 0
-497 -7 176 0
-497 -7 -22 -27 0
-497 -7 -43 0
-497 -7 -44 0
-497 -7 -45 0
-497 -7 -47 0
-497 -7 -48 0
-497 -7 -49 0
-497 -7 -67 0
-497 -7 -68 0
-497 -7 -69 0
-497 -7 -71 0
-497 -7 -72 0
-497 -7 -73 0
-497 -7 -107 0
-497 -7 -108 0
-497 -7 -109 0
-497 -7 -111 0
-497 -7 -112 0
-497 -7 -113 0
-497 -7 -115 0
-497 -7 -116 0
-497 -7 -117 0
-497 -8 177 0
-497 -8 -22 -28 0
-497 -8 -44 0
-497 -8 -45 0
-497 -8 -48 0
-497 -8 -49 0
-497 -8 -68 0
-497 -8 -69 0
-497 -8 -72 0
-497 -8 -73 0
-497 -8 -108 0
-497 -8 -109 0
-497 -8 -112 0
-497 -8 -113 0
-497 -8 -116 0
-497 -8 -117 0
-497 -9 178 0
-497 -9 -22 -29 0
-497 -9 -45 0
-497 -9 -49 0
-497 -9 -69 0
-497 -9 -73 0
-497 -9 -109 0
-497 -9 -113 0
-497 -9 -117 0
-498 148 0
-498 172 0
-498 -1 0
-498 -2 0
-498 -5 0
-498 -6 0
-498 -10 0
-498 -7 176 0
-498 -7 -23 -27 0
-498 -7 -47 0
-498 -7 -48 0
-498 -7 -49 0
-498 -7 -51 0
-498 -7 -52 0
-498 -7 -53 0
-498 -7 -71 0
-498 -7 -72 0
-498 -7 -73 0
-498 -7 -75 0
-498 -7 -76 0
-498 -7 -77 0
-498 -7 -107 0
-498 -7 -108 0
-498 -7 -109 0
-498 -7 -111 0
-498 -7 -112 0
-498 -7 -113 0
-498 -7 -115 0
-498 -7 -116 0
-498 -7 -117 0
-498 -7 -119 0
-498 -7 -120 0
-498 -7 -121 0
-498 -8 177 0
-498 -8 -23 -28 0
-498 -8 -48 0
-498 -8 -49 0
-498 -8 -52 0
-498 -8 -53 0
-498 -8 -72 0
-498 -8 -73 0
-498 -8 -76 0
-498 -8 -77 0
-498 -8 -108 0
-498 -8 -109 0
-498 -8 -112 0
-498 -8 -113 0
-498 -8 -116 0
-498 -8 -117 0
-498 -8 -120 0
-498 -8 -121 0
-498 -9 178 0
-498 -9 -23 -29 0
-498 -9 -49 0
-498 -9 -53 0
-498 -9 -73 0
-498 -9 -77 0
-498 -9 -109 0
-498 -9 -113 0
-498 -9 -117 0
-498 -9 -121 0
-499 148 0
-499 173 0
-499 -1 0
-499 -2 0
-499 -3 0
-499 -6 0
-499 -10 0
-499 -7 176 0
-499 -7 -24 -27 0
-499 -7 -51 0
-499 -7 -52 0
-499 -7 -53 0
-499 -7 -55 0
-499 -7 -56 0
-499 -7 -57 0
-499 -7 -75 0
-499 -7 -76 0
-499 -7 -77 0
-499 -7 -79 0
-499 -7 -80 0
-499 -7 -81 0
-499 -7 -111 0
-499 -7 -112 0
-499 -7 -113 0
-499 -7 -115 0
-499 -7 -116 0
-499 -7 -117 0
-499 -7 -119 0
-499 -7 -120 0
-499 -7 -121 0
-499 -8 177 0
-499 -8 -24 -28 0
-499 -8 -52 0
-499 -8 -53 0
-499 -8 -56 0
-499 -8 -57 0
-499 -8 -76 0
-499 -8 -77 0
-499 -8 -80 0
-499 -8 -81 0
-499 -8 -112 0
-499 -8 -113 0
-499 -8 -116 0
-499 -8 -117 0
-499 -8 -120 0
-499 -8 -121 0
-499 -9 178 0
-499 -9 -24 -29 0
-499 -9 -53 0
-499 -9 -57 0
-499 -9 -77 0
-499 -9 -81 0
-499 -9 -113 0
-499 -9 -117 0
-499 -9 -121 0
-500 148 0
-500 174 0
-500 -1 0
-500 -2 0
-500 -3 0
-500 -4 0
-500 -10 0
-500 -7 176 0
-500 -7 -25 -27 0
-500 -7 -55 0
-500 -7 -56 0
-500 -7 -57 0
-500 -7 -59 0
-500 -7 -60 0
-500 -7 -61 0
-500 -7 -79 0
-500 -7 -80 0
-500 -7 -81 0
-500 -7 -83 0
-500 -7 -84 0
-500 -7 -85 0
-500 -7 -115 0
-500 -7 -116 0
-500 -7 -117 0
-500 -7 -119 0
-500 -7 -120 0
-500 -7 -121 0
-500 -8 177 0
-500 -8 -25 -28 0
-500 -8 -56 0
-500 -8 -57 0
-500 -8 -60 0
-500 -8 -61 0
-500 -8 -80 0
-500 -8 -81 0
-500 -8 -84 0
-500 -8 -85 0
-500 -8 -116 0
-500 -8 -117 0
-500 -8 -120 0
-500 -8 -121 0
-500 -9 178 0
-500 -9 -25 -29 0
-500 -9 -57 0
-500 -9 -61 0
-500 -9 -81 0
-500 -9 -85 0
-500 -9 -117 0
-500 -9 -121 0
-501 148 0
-501 170 0
-501 -13 0
-501 -14 0
-501 -15 0
-501 -16 0
-501 -20 0
-501 -17 176 0
-501 -17 -21 -27 0
-501 -17 -39 0
-501 -17 -40 0
-501 -17 -41 0
-501 -17 -43 0
-501 -17 -44 0
-501 -17 -45 0
-501 -17 -63 0
-501 -17 -64 0
-501 -17 -65 0
-501 -17 -67 0
-501 -17 -68 0
-501 -17 -69 0
-501 -17 -107 0
-501 -17 -108 0
-501 -17 -109 0
-501 -17 -111 0
-501 -17 -112 0
-501 -17 -113 0
-501 -18 177 0
-501 -18 -21 -28 0
-501 -18 -40 0
-501 -18 -41 0
-501 -18 -44 0
-501 -18 -45 0
-501 -18 -64 0
-501 -18 -65 0
-501 -18 -68 0
-501 -18 -69 0
-501 -18 -108 0
-501 -18 -109 0
-501 -18 -112 0
-501 -18 -113 0
-501 -19 178 0
-501 -19 -21 -29 0
-501 -19 -41 0
-501 -19 -45 0
-501 -19 -65 0
-501 -19 -69 0
-501 -19 -109 0
-501 -19 -113 0
-502 148 0
-502 171 0
-502 -11 0
-502 -14 0
-502 -15 0
-502 -16 0
-502 -20 0
-502 -17 176 0
-502 -17 -22 -27 0
-502 -17 -43 0
-502 -17 -44 0
-502 -17 -45 0
-502 -17 -47 0
-502 -17 -48 0
-502 -17 -49 0
-502 -17 -67 0
-502 -17 -68 0
-502 -17 -69 0
-502 -17 -71 0
-502 -17 -72 0
-502 -17 -73 0
-502 -17 -107 0
-502 -17 -108 0
-502 -17 -109 0
-502 -17 -111 0
-502 -17 -112 0
-502 -17 -113 0
-502 -17 -115 0
-502 -17 -116 0
-502 -17 -117 0
-502 -18 177 0
-502 -18 -22 -28 0
-502 -18 -44 0
-502 -18 -45 0
-502 -18 -48 0
-502 -18 -49 0
-502 -18 -68 0
-502 -18 -69 0
-502 -18 -72 0
-502 -18 -73 0
-502 -18 -108 0
-502 -18 -109 0
-502 -18 -112 0
-502 -18 -113 0
-502 -18 -116 0
-502 -18 -117 0
-502 -19 178 0
-502 -19 -22 -29 0
-502 -19 -45 0
-502 -19 -49 0
-502 -19 -69 0
-502 -19 -73 0
-502 -19 -109 0
-502 -19 -113 0
-502 -19 -117 0
-503 148 0
-503 172 0
-503 -11 0
-503 -12 0
-503 -15 0
-503 -16 0
-503 -20 0
-503 -17 176 0
-503 -17 -23 -27 0
-503 -17 -47 0
-503 -17 -48 0
-503 -17 -49 0
-503 -17 -51 0
-503 -17 -52 0
-503 -17 -53 0
-503 -17 -71 0
-503 -17 -72 0
-503 -17 -73 0
-503 -17 -75 0
-503 -17 -76 0
-503 -17 -77 0
-503 -17 -107 0
-503 -17 -108 0
-503 -17 -109 0
-503 -17 -111 0
-503 -17 -112 0
-503 -17 -113 0
-503 -17 -115 0
-503 -17 -116 0
-503 -17 -117 0
-503 -17 -119 0
-503 -17 -120 0
-503 -17 -121 0
-503 -18 177 0
-503 -18 -23 -28 0
-503 -18 -48 0
-503 -18 -49 0
-503 -18 -52 0
-503 -18 -53 0
-503 -18 -72 0
-503 -18 -73 0
-503 -18 -76 0
-503 -18 -77 0
-503 -18 -108 0
-503 -18 -109 0
-503 -18 -112 0
-503 -18 -113 0
-503 -18 -116 0
-503 -18 -117 0
-503 -18 -120 0
-503 -18 -121 0
-503 -19 178 0
-503 -19 -23 -29 0
-503 -19 -49 0
-503 -19 -53 0
-503 -19 -73 0
-503 -19 -77 0
-503 -19 -109 0
-503 -19 -113 0
-503 -19 -117 0
-503 -19 -121 0
-504 148 0
-504 173 0
-504 -11 0
-504 -12 0
-504 -13 0
-504 -16 0
-504 -20 0
-504 -17 176 0
-504 -17 -24 -27 0
-504 -17 -51 0
-504 -17 -52 0
-504 -17 -53 0
-504 -17 -55 0
-504 -17 -56 0
-504 -17 -57 0
-504 -17 -75 0
-504 -17 -76 0
-504 -17 -77 0
-504 -17 -79 0
-504 -17 -80 0
-504 -17 -81 0
-504 -17 -111 0
-504 -17 -112 0
-504 -17 -113 0
-504 -17 -115 0
-504 -17 -116 0
-504 -17 -117 0
-504 -17 -119 0
-504 -17 -120 0
-504 -17 -121 0
-504 -18 177 0
-504 -18 -24 -28 0
-504 -18 -52 0
-504 -18 -53 0
-504 -18 -56 0
-504 -18 -57 0
-504 -18 -76 0
-504 -18 -77 0
-504 -18 -80 0
-504 -18 -81 0
-504 -18 -112 0
-504 -18 -113 0
-504 -18 -116 0
-504 -18 -117 0
-504 -18 -120 0
-504 -18 -121 0
-504 -19 178 0
-504 -19 -24 -29 0
-504 -19 -53 0
-504 -19 -57 0
-504 -19 -77 0
-504 -19 -81 0
-504 -19 -113 0
-504 -19 -117 0
-504 -19 -121 0
-505 148 0
-505 174 0
-505 -11 0
-505 -12 0
-505 -13 0
-505 -14 0
-505 -20 0
-505 -17 176 0
-505 -17 -25 -27 0
-505 -17 -55 0
-505 -17 -56 0
-505 -17 -57 0
-505 -17 -59 0
-505 -17 -60 0
-505 -17 -61 0
-505 -17 -79 0
-505 -17 -80 0
-505 -17 -81 0
-505 -17 -83 0
-505 -17 -84 0
-505 -17 -85 0
-505 -17 -115 0
-505 -17 -116 0
-505 -17 -117 0
-505 -17 -119 0
-505 -17 -120 0
-505 -17 -121 0
-505 -18 177 0
-505 -18 -25 -28 0
-505 -18 -56 0
-505 -18 -57 0
-505 -18 -60 0
-505 -18 -61 0
-505 -18 -80 0
-505 -18 -81 0
-505 -18 -84 0
-505 -18 -85 0
-505 -18 -116 0
-505 -18 -117 0
-505 -18 -120 0
-505 -18 -121 0
-505 -19 178 0
-505 -19 -25 -29 0
-505 -19 -57 0
-505 -19 -61 0
-505 -19 -81 0
-505 -19 -85 0
-505 -19 -117 0
-505 -19 -121 0
-506 148 0
-506 170 0
-506 -32 0
-506 -33 0
-506 -37 0
-506 -34 176 0
-506 -34 -21 -27 0
-506 -34 -39 0
-506 -34 -40 0
-506 -34 -41 0
-506 -34 -43 0
-506 -34 -44 0
-506 -34 -45 0
-506 -34 -63 0
-506 -34 -64 0
-506 -34 -65 0
-506 -34 -67 0
-506 -34 -68 0
-506 -34 -69 0
-506 -34 -107 0
-506 -34 -108 0
-506 -34 -109 0
-506 -34 -111 0
-506 -34 -112 0
-506 -34 -113 0
-506 -35 177 0
-506 -35 -21 -28 0
-506 -35 -40 0
-506 -35 -41 0
-506 -35 -44 0
-506 -35 -45 0
-506 -35 -64 0
-506 -35 -65 0
-506 -35 -68 0
-506 -35 -69 0
-506 -35 -108 0
-506 -35 -109 0
-506 -35 -112 0
-506 -35 -113 0
-506 -36 178 0
-506 -36 -21 -29 0
-506 -36 -41 0
-506 -36 -45 0
-506 -36 -65 0
-506 -36 -69 0
-506 -36 -109 0
-506 -36 -113 0
-507 148 0
-507 171 0
-507 -33 0
-507 -37 0
-507 -34 176 0
-507 -34 -22 -27 0
-507 -34 -43 0
-507 -34 -44 0
-507 -34 -45 0
-507 -34 -47 0
-507 -34 -48 0
-507 -34 -49 0
-507 -34 -67 0
-507 -34 -68 0
-507 -34 -69 0
-507 -34 -71 0
-507 -34 -72 0
-507 -34 -73 0
-507 -34 -107 0
-507 -34 -108 0
-507 -34 -109 0
-507 -34 -111 0
-507 -34 -112 0
-507 -34 -113 0
-507 -34 -115 0
-507 -34 -116 0
-507 -34 -117 0
-507 -35 177 0
-507 -35 -22 -28 0
-507 -35 -44 0
-507 -35 -45 0
-507 -35 -48 0
-507 -35 -49 0
-507 -35 -68 0
-507 -35 -69 0
-507 -35 -72 0
-507 -35 -73 0
-507 -35 -108 0
-507 -35 -109 0
-507 -35 -112 0
-507 -35 -113 0
-507 -35 -116 0
-507 -35 -117 0
-507 -36 178 0
-507 -36 -22 -29 0
-507 -36 -45 0
-507 -36 -49 0
-507 -36 -69 0
-507 -36 -73 0
-507 -36 -109 0
-507 -36 -113 0
-507 -36 -117 0
-508 148 0
-508 172 0
-508 -37 0
-508 -34 176 0
-508 -34 -23 -27 0
-508 -34 -47 0
-508 -34 -48 0
-508 -34 -49 0
-508 -34 -51 0
-508 -34 -52 0
-508 -34 -53 0
-508 -34 -71 0
-508 -34 -72 0
-508 -34 -73 0
-508 -34 -75 0
-508 -34 -76 0
-508 -34 -77 0
-508 -34 -107 0
-508 -34 -108 0
-508 -34 -109 0
-508 -34 -111 0
-508 -34 -112 0
-508 -34 -113 0
-508 -34 -115 0
-508 -34 -116 0
-508 -34 -117 0
-508 -34 -119 0
-508 -34 -120 0
-508 -34 -121 0
-508 -35 177 0
-508 -35 -23 -28 0
-508 -35 -48 0
-508 -35 -49 0
-508 -35 -52 0
-508 -35 -53 0
-508 -35 -72 0
-508 -35 -73 0
-508 -35 -76 0
-508 -35 -77 0
-508 -35 -108 0
-508 -35 -109 0
-508 -35 -112 0
-508 -35 -113 0
-508 -35 -116 0
-508 -35 -117 0
-508 -35 -120 0
-508 -35 -121 0
-508 -36 178 0
-508 -36 -23 -29 0
-508 -36 -49 0
-508 -36 -53 0
-508 -36 -73 0
-508 -36 -77 0
-508 -36 -109 0
-508 -36 -113 0
-508 -36 -117 0
-508 -36 -121 0
-509 148 0
-509 173 0
-509 -30 0
-509 -37 0
-509 -34 176 0
-509 -34 -24 -27 0
-509 -34 -51 0
-509 -34 -52 0
-509 -34 -53 0
-509 -34 -55 0
-509 -34 -56 0
-509 -34 -57 0
-509 -34 -75 0
-509 -34 -76 0
-509 -34 -77 0
-509 -34 -79 0
-509 -34 -80 0
-509 -34 -81 0
-509 -34 -111 0
-509 -34 -112 0
-509 -34 -113 0
-509 -34 -115 0
-509 -34 -116 0
-509 -34 -117 0
-509 -34 -119 0
-509 -34 -120 0
-509 -34 -121 0
-509 -35 177 0
-509 -35 -24 -28 0
-509 -35 -52 0
-509 -35 -53 0
-509 -35 -56 0
-509 -35 -57 0
-509 -35 -76 0
-509 -35 -77 0
-509 -35 -80 0
-509 -35 -81 0
-509 -35 -112 0
-509 -35 -113 0
-509 -35 -116 0
-509 -35 -117 0
-509 -35 -120 0
-509 -35 -121 0
-509 -36 178 0
-509 -36 -24 -29 0
-509 -36 -53 0
-509 -36 -57 0
-509 -36 -77 0
-509 -36 -81 0
-509 -36 -113 0
-509 -36 -117 0
-509 -36 -121 0
-510 148 0
-510 174 0
-510 -30 0
-510 -31 0
-510 -37 0
-510 -34 176 0
-510 -34 -25 -27 0
-510 -34 -55 0
-510 -34 -56 0
-510 -34 -57 0
-510 -34 -59 0
-510 -34 -60 0
-510 -34 -61 0
-510 -34 -79 0
-510 -34 -80 0
-510 -34 -81 0
-510 -34 -83 0
-510 -34 -84 0
-510 -34 -85 0
-510 -34 -115 0
-510 -34 -116 0
-510 -34 -117 0
-510 -34 -119 0
-510 -34 -120 0
-510 -34 -121 0
-510 -35 177 0
-510 -35 -25 -28 0
-510 -35 -56 0
-510 -35 -57 0
-510 -35 -60 0
-510 -35 -61 0
-510 -35 -80 0
-510 -35 -81 0
-510 -35 -84 0
-510 -35 -85 0
-510 -35 -116 0
-510 -35 -117 0
-510 -35 -120 0
-510 -35 -121 0
-510 -36 178 0
-510 -36 -25 -29 0
-510 -36 -57 0
-510 -36 -61 0
-510 -36 -81 0
-510 -36 -85 0
-510 -36 -117 0
-510 -36 -121 0
-511 148 0
-511 170 0
-511 175 0
-511 -21 -26 0
-511 -38 0
-511 -39 0
-511 -40 0
-511 -41 0
-511 -42 0
-511 -43 0
-511 -44 0
-511 -45 0
-511 -62 0
-511 -63 0
-511 -64 0
-511 -65 0
-511 -66 0
-511 -67 0
-511 -68 0
-511 -69 0
-511 -106 0
-511 -107 0
-511 -108 0
-511 -109 0
-511 -110 0
-511 -111 0
-511 -112 0
-511 -113 0
-512 148 0
-512 171 0
-512 175 0
-512 -22 -26 0
-512 -42 0
-512 -43 0
-512 -44 0
-512 -45 0
-512 -46 0
-512 -47 0
-512 -48 0
-512 -49 0
-512 -66 0
-512 -67 0
-512 -68 0
-512 -69 0
-512 -70 0
-512 -71 0
-512 -72 0
-512 -73 0
-512 -106 0
-512 -107 0
-512 -108 0
-512 -109 0
-512 -110 0
-512 -111 0
-512 -112 0
-512 -113 0
-512 -114 0
-512 -115 0
-512 -116 0
-512 -117 0
-513 148 0
-513 172 0
-513 175 0
-513 -23 -26 0
-513 -46 0
-513 -47 0
-513 -48 0
-513 -49 0
-513 -50 0
-513 -51 0
-513 -52 0
-513 -53 0
-513 -70 0
-513 -71 0
-513 -72 0
-513 -73 0
-513 -74 0
-513 -75 0
-513 -76 0
-513 -77 0
-513 -106 0
-513 -107 0
-513 -108 0
-513 -109 0
-513 -110 0
-513 -111 0
-513 -112 0
-513 -113 0
-513 -114 0
-513 -115 0
-513 -116 0
-513 -117 0
-513 -118 0
-513 -119 0
-513 -120 0
-513 -121 0
-514 148 0
-514 173 0
-514 175 0
-514 -24 -26 0
-514 -50 0
-514 -51 0
-514 -52 0
-514 -53 0
-514 -54 0
-514 -55 0
-514 -56 0
-514 -57 0
-514 -74 0
-514 -75 0
-514 -76 0
-514 -77 0
-514 -78 0
-514 -79 0
-514 -80 0
-514 -81 0
-514 -110 0
-514 -111 0
-514 -112 0
-514 -113 0
-514 -114 0
-514 -115 0
-514 -116 0
-514 -117 0
-514 -118 0
-514 -119 0
-514 -120 0
-514 -121 0
-515 148 0
-515 174 0
-515 175 0
-515 -25 -26 0
-515 -54 0
-515 -55 0
-515 -56 0
-515 -57 0
-515 -58 0
-515 -59 0
-515 -60 0
-515 -61 0
-515 -78 0
-515 -79 0
-515 -80 0
-515 -81 0
-515 -82 0
-515 -83 0
-515 -84 0
-515 -85 0
-515 -114 0
-515 -115 0
-515 -116 0
-515 -117 0
-515 -118 0
-515 -119 0
-515 -120 0
-515 -121 0
-516 149 0
-516 179 0
-516 -4 0
-516 -5 0
-516 -6 0
-516 -10 0
-516 -7 184 0
-516 -7 -30 -35 0
-516 -7 -39 0
-516 -7 -40 0
-516 -7 -41 0
-516 -7 -43 0
-516 -7 -44 0
-516 -7 -45 0
-516 -7 -47 0
-516 -7 -48 0
-516 -7 -49 0
-516 -7 -63 0
-516 -7 -64 0
-516 -7 -65 0
-516 -7 -67 0
-516 -7 -68 0
-516 -7 -69 0
-516 -7 -71 0
-516 -7 -72 0
-516 -7 -73 0
-516 -7 -87 0
-516 -7 -88 0
-516 -7 -89 0
-516 -7 -91 0
-516 -7 -92 0
-516 -7 -93 0
-516 -7 -95 0
-516 -7 -96 0
-516 -7 -97 0
-516 -8 185 0
-516 -8 -30 -36 0
-516 -8 -40 0
-516 -8 -41 0
-516 -8 -44 0
-516 -8 -45 0
-516 -8 -48 0
-516 -8 -49 0
-516 -8 -64 0
-516 -8 -65 0
-516 -8 -68 0
-516 -8 -69 0
-516 -8 -72 0
-516 -8 -73 0
-516 -8 -88 0
-516 -8 -89 0
-516 -8 -92 0
-516 -8 -93 0
-516 -8 -96 0
-516 -8 -97 0
-516 -9 186 0
-516 -9 -30 -37 0
-516 -9 -41 0
-516 -9 -45 0
-516 -9 -49 0
-516 -9 -65 0
-516 -9 -69 0
-516 -9 -73 0
-516 -9 -89 0
-516 -9 -93 0
-516 -9 -97 0
-517 149 0
-517 180 0
-517 -1 0
-517 -5 0
-517 -6 0
-517 -10 0
-517 -7 184 0
-517 -7 -31 -35 0
-517 -7 -43 0
-517 -7 -44 0
-517 -7 -45 0
-517 -7 -47 0
-517 -7 -48 0
-517 -7 -49 0
-517 -7 -51 0
-517 -7 -52 0
-517 -7 -53 0
-517 -7 -67 0
-517 -7 -68 0
-517 -7 -69 0
-517 -7 -71 0
-517 -7 -72 0
-517 -7 -73 0
-517 -7 -75 0
-517 -7 -76 0
-517 -7 -77 0
-517 -7 -87 0
-517 -7 -88 0
-517 -7 -89 0
-517 -7 -91 0
-517 -7 -92 0
-517 -7 -93 0
-517 -7 -95 0
-517 -7 -96 0
-517 -7 -97 0
-517 -7 -99 0
-517 -7 -100 0
-517 -7 -101 0
-517 -8 185 0
-517 -8 -31 -36 0
-517 -8 -44 0
-517 -8 -45 0
-517 -8 -48 0
-517 -8 -49 0
-517 -8 -52 0
-517 -8 -53 0
-517 -8 -68 0
-517 -8 -69 0
-517 -8 -72 0
-517 -8 -73 0
-517 -8 -76 0
-517 -8 -77 0
-517 -8 -88 0
-517 -8 -89 0
-517 -8 -92 0
-517 -8 -93 0
-517 -8 -96 0
-517 -8 -97 0
-517 -8 -100 0
-517 -8 -101 0
-517 -9 186 0
-517 -9 -31 -37 0
-517 -9 -45 0
-517 -9 -49 0
-517 -9 -53 0
-517 -9 -69 0
-517 -9 -73 0
-517 -9 -77 0
-517 -9 -89 0
-517 -9 -93 0
-517 -9 -97 0
-517 -9 -101 0
-518 149 0
-518 181 0
-518 -1 0
-518 -2 0
-518 -6 0
-518 -10 0
-518 -7 184 0
-518 -7 -32 -35 0
-518 -7 -47 0
-518 -7 -48 0
-518 -7 -49 0
-518 -7 -51 0
-518 -7 -52 0
-518 -7 -53 0
-518 -7 -55 0
-518 -7 -56 0
-518 -7 -57 0
-518 -7 -71 0
-518 -7 -72 0
-518 -7 -73 0
-518 -7 -75 0
-518 -7 -76 0
-518 -7 -77 0
-518 -7 -79 0
-518 -7 -80 0
-518 -7 -81 0
-518 -7 -91 0
-518 -7 -92 0
-518 -7 -93 0
-518 -7 -95 0
-518 -7 -96 0
-518 -7 -97 0
-518 -7 -99 0
-518 -7 -100 0
-518 -7 -101 0
-518 -7 -103 0
-518 -7 -104 0
-518 -7 -105 0
-518 -8 185 0
-518 -8 -32 -36 0
-518 -8 -48 0
-518 -8 -49 0
-518 -8 -52 0
-518 -8 -53 0
-518 -8 -56 0
-518 -8 -57 0
-518 -8 -72 0
-518 -8 -73 0
-518 -8 -76 0
-518 -8 -77 0
-518 -8 -80 0
-518 -8 -81 0
-518 -8 -92 0
-518 -8 -93 0
-518 -8 -96 0
-518 -8 -97 0
-518 -8 -100 0
-518 -8 -101 0
-518 -8 -104 0
-518 -8 -105 0
-518 -9 186 0
-518 -9 -32 -37 0
-518 -9 -49 0
-518 -9 -53 0
-518 -9 -57 0
-518 -9 -73 0
-518 -9 -77 0
-518 -9 -81 0
-518 -9 -93 0
-518 -9 -97 0
-518 -9 -101 0
-518 -9 -105 0
-519 149 0
-519 182 0
-519 -1 0
-519 -2 0
-519 -3 0
-519 -10 0
-519 -7 184 0
-519 -7 -33 -35 0
-519 -7 -51 0
-519 -7 -52 0
-519 -7 -53 0
-519 -7 -55 0
-519 -7 -56 0
-519 -7 -57 0
-519 -7 -59 0
-519 -7 -60 0
-519 -7 -61 0
-519 -7 -75 0
-519 -7 -76 0
-519 -7 -77 0
-519 -7 -79 0
-519 -7 -80 0
-519 -7 -81 0
-519 -7 -83 0
-519 -7 -84 0
-519 -7 -85 0
-519 -7 -95 0
-519 -7 -96 0
-519 -7 -97 0
-519 -7 -99 0
-519 -7 -100 0
-519 -7 -101 0
-519 -7 -103 0
-519 -7 -104 0
-519 -7 -105 0
-519 -8 185 0
-519 -8 -33 -36 0
-519 -8 -52 0
-519 -8 -53 0
-519 -8 -56 0
-519 -8 -57 0
-519 -8 -60 0
-519 -8 -61 0
-519 -8 -76 0
-519 -8 -77 0
-519 -8 -80 0
-519 -8 -81 0
-519 -8 -84 0
-519 -8 -85 0
-519 -8 -96 0
-519 -8 -97 0
-519 -8 -100 0
-519 -8 -101 0
-519 -8 -104 0
-519 -8 -105 0
-519 -9 186 0
-519 -9 -33 -37 0
-519 -9 -53 0
-519 -9 -57 0
-519 -9 -61 0
-519 -9 -77 0
-519 -9 -81 0
-519 -9 -85 0
-519 -9 -97 0
-519 -9 -101 0
-519 -9 -105 0
-520 149 0
-520 179 0
-520 -14 0
-520 -15 0
-520 -16 0
-520 -20 0
-520 -17 184 0
-520 -17 -30 -35 0
-520 -17 -39 0
-520 -17 -40 0
-520 -17 -41 0
-520 -17 -43 0
-520 -17 -44 0
-520 -17 -45 0
-520 -17 -47 0
-520 -17 -48 0
-520 -17 -49 0
-520 -17 -63 0
-520 -17 -64 0
-520 -17 -65 0
-520 -17 -67 0
-520 -17 -68 0
-520 -17 -69 0
-520 -17 -71 0
-520 -17 -72 0
-520 -17 -73 0
-520 -17 -87 0
-520 -17 -88 0
-520 -17 -89 0
-520 -17 -91 0
-520 -17 -92 0
-520 -17 -93 0
-520 -17 -95 0
-520 -17 -96 0
-520 -17 -97 0
-520 -18 185 0
-520 -18 -30 -36 0
-520 -18 -40 0
-520 -18 -41 0
-520 -18 -44 0
-520 -18 -45 0
-520 -18 -48 0
-520 -18 -49 0
-520 -18 -64 0
-520 -18 -65 0
-520 -18 -68 0
-520 -18 -69 0
-520 -18 -72 0
-520 -18 -73 0
-520 -18 -88 0
-520 -18 -89 0
-520 -18 -92 0
-520 -18 -93 0
-520 -18 -96 0
-520 -18 -97 0
-520 -19 186 0
-520 -19 -30 -37 0
-520 -19 -41 0
-520 -19 -45 0
-520 -19 -49 0
-520 -19 -65 0
-520 -19 -69 0
-520 -19 -73 0
-520 -19 -89 0
-520 -19 -93 0
-520 -19 -97 0
-521 149 0
-521 180 0
-521 -11 0
-521 -15 0
-521 -16 0
-521 -20 0
-521 -17 184 0
-521 -17 -31 -35 0
-521 -17 -43 0
-521 -17 -44 0
-521 -17 -45 0
-521 -17 -47 0
-521 -17 -48 0
-521 -17 -49 0
-521 -17 -51 0
-521 -17 -52 0
-521 -17 -53 0
-521 -17 -67 0
-521 -17 -68 0
-521 -17 -69 0
-521 -17 -71 0
-521 -17 -72 0
-521 -17 -73 0
-521 -17 -75 0
-521 -17 -76 0
-521 -17 -77 0
-521 -17 -87 0
-521 -17 -88 0
-521 -17 -89 0
-521 -17 -91 0
-521 -17 -92 0
-521 -17 -93 0
-521 -17 -95 0
-521 -17 -96 0
-521 -17 -97 0
-521 -17 -99 0
-521 -17 -100 0
-521 -17 -101 0
-521 -18 185 0
-521 -18 -31 -36 0
-521 -18 -44 0
-521 -18 -45 0
-521 -18 -48 0
-521 -18 -49 0
-521 -18 -52 0
-521 -18 -53 0
-521 -18 -68 0
-521 -18 -69 0
-521 -18 -72 0
-521 -18 -73 0
-521 -18 -76 0
-521 -18 -77 0
-521 -18 -88 0
-521 -18 -89 0
-521 -18 -92 0
-521 -18 -93 0
-521 -18 -96 0
-521 -18 -97 0
-521 -18 -100 0
-521 -18 -101 0
-521 -19 186 0
-521 -19 -31 -37 0
-521 -19 -45 0
-521 -19 -49 0
-521 -19 -53 0
-521 -19 -69 0
-521 -19 -73 0
-521 -19 -77 0
-521 -19 -89 0
-521 -19 -93 0
-521 -19 -97 0
-521 -19 -101 0
-522 149 0
-522 181 0
-522 -11 0
-522 -12 0
-522 -16 0
-522 -20 0
-522 -17 184 0
-522 -17 -32 -35 0
-522 -17 -47 0
-522 -17 -48 0
-522 -17 -49 0
-522 -17 -51 0
-522 -17 -52 0
-522 -17 -53 0
-522 -17 -55 0
-522 -17 -56 0
-522 -17 -57 0
-522 -17 -71 0
-522 -17 -72 0
-522 -17 -73 0
-522 -17 -75 0
-522 -17 -76 0
-522 -17 -77 0
-522 -17 -79 0
-522 -17 -80 0
-522 -17 -81 0
-522 -17 -91 0
-522 -17 -92 0
-522 -17 -93 0
-522 -17 -95 0
-522 -17 -96 0
-522 -17 -97 0
-522 -17 -99 0
-522 -17 -100 0
-522 -17 -101 0
-522 -17 -103 0
-522 -17 -104 0
-522 -17 -105 0
-522 -18 185 0
-522 -18 -32 -36 0
-522 -18 -48 0
-522 -18 -49 0
-522 -18 -52 0
-522 -18 -53 0
-522 -18 -56 0
-522 -18 -57 0
-522 -18 -72 0
-522 -18 -73 0
-522 -18 -76 0
-522 -18 -77 0
-522 -18 -80 0
-522 -18 -81 0
-522 -18 -92 0
-522 -18 -93 0
-522 -18 -96 0
-522 -18 -97 0
-522 -18 -100 0
-522 -18 -101 0
-522 -18 -104 0
-522 -18 -105 0
-522 -19 186 0
-522 -19 -32 -37 0
-522 -19 -49 0
-522 -19 -53 0
-522 -19 -57 0
-522 -19 -73 0
-522 -19 -77 0
-522 -19 -81 0
-522 -19 -93 0
-522 -19 -97 0
-522 -19 -101 0
-522 -19 -105 0
-523 149 0
-523 182 0
-523 -11 0
-523 -12 0
-523 -13 0
-523 -20 0
-523 -17 184 0
-523 -17 -33 -35 0
-523 -17 -51 0
-523 -17 -52 0
-523 -17 -53 0
-523 -17 -55 0
-523 -17 -56 0
-523 -17 -57 0
-523 -17 -59 0
-523 -17 -60 0
-523 -17 -61 0
-523 -17 -75 0
-523 -17 -76 0
-523 -17 -77 0
-523 -17 -79 0
-523 -17 -80 0
-523 -17 -81 0
-523 -17 -83 0
-523 -17 -84 0
-523 -17 -85 0
-523 -17 -95 0
-523 -17 -96 0
-523 -17 -97 0
-523 -17 -99 0
-523 -17 -100 0
-523 -17 -101 0
-523 -17 -103 0
-523 -17 -104 0
-523 -17 -105 0
-523 -18 185 0
-523 -18 -33 -36 0
-523 -18 -52 0
-523 -18 -53 0
-523 -18 -56 0
-523 -18 -57 0
-523 -18 -60 0
-523 -18 -61 0
-523 -18 -76 0
-523 -18 -77 0
-523 -18 -80 0
-523 -18 -81 0
-523 -18 -84 0
-523 -18 -85 0
-523 -18 -96 0
-523 -18 -97 0
-523 -18 -100 0
-523 -18 -101 0
-523 -18 -104 0
-523 -18 -105 0
-523 -19 186 0
-523 -19 -33 -37 0
-523 -19 -53 0
-523 -19 -57 0
-523 -19 -61 0
-523 -19 -77 0
-523 -19 -81 0
-523 -19 -85 0
-523 -19 -97 0
-523 -19 -101 0
-523 -19 -105 0
-524 149 0
-524 179 0
-524 -24 0
-524 -25 0
-524 -29 0
-524 -26 184 0
-524 -26 -30 -35 0
-524 -26 -39 0
-524 -26 -40 0
-524 -26 -41 0
-524 -26 -43 0
-524 -26 -44 0
-524 -26 -45 0
-524 -26 -47 0
-524 -26 -48 0
-524 -26 -49 0
-524 -26 -63 0
-524 -26 -64 0
-524 -26 -65 0
-524 -26 -67 0
-524 -26 -68 0
-524 -26 -69 0
-524 -26 -71 0
-524 -26 -72 0
-524 -26 -73 0
-524 -26 -87 0
-524 -26 -88 0
-524 -26 -89 0
-524 -26 -91 0
-524 -26 -92 0
-524 -26 -93 0
-524 -26 -95 0
-524 -26 -96 0
-524 -26 -97 0
-524 -27 185 0
-524 -27 -30 -36 0
-524 -27 -40 0
-524 -27 -41 0
-524 -27 -44 0
-524 -27 -45 0
-524 -27 -48 0
-524 -27 -49 0
-524 -27 -64 0
-524 -27 -65 0
-524 -27 -68 0
-524 -27 -69 0
-524 -27 -72 0
-524 -27 -73 0
-524 -27 -88 0
-524 -27 -89 0
-524 -27 -92 0
-524 -27 -93 0
-524 -27 -96 0
-524 -27 -97 0
-524 -28 186 0
-524 -28 -30 -37 0
-524 -28 -41 0
-524 -28 -45 0
-524 -28 -49 0
-524 -28 -65 0
-524 -28 -69 0
-524 -28 -73 0
-524 -28 -89 0
-524 -28 -93 0
-524 -28 -97 0
-525 149 0
-525 180 0
-525 -25 0
-525 -29 0
-525 -26 184 0
-525 -26 -31 -35 0
-525 -26 -43 0
-525 -26 -44 0
-525 -26 -45 0
-525 -26 -47 0
-525 -26 -48 0
-525 -26 -49 0
-525 -26 -51 0
-525 -26 -52 0
-525 -26 -53 0
-525 -26 -67 0
-525 -26 -68 0
-525 -26 -69 0
-525 -26 -71 0
-525 -26 -72 0
-525 -26 -73 0
-525 -26 -75 0
-525 -26 -76 0
-525 -26 -77 0
-525 -26 -87 0
-525 -26 -88 0
-525 -26 -89 0
-525 -26 -91 0
-525 -26 -92 0
-525 -26 -93 0
-525 -26 -95 0
-525 -26 -96 0
-525 -26 -97 0
-525 -26 -99 0
-525 -26 -100 0
-525 -26 -101 0
-525 -27 185 0
-525 -27 -31 -36 0
-525 -27 -44 0
-525 -27 -45 0
-525 -27 -48 0
-525 -27 -49 0
-525 -27 -52 0
-525 -27 -53 0
-525 -27 -68 0
-525 -27 -69 0
-525 -27 -72 0
-525 -27 -73 0
-525 -27 -76 0
-525 -27 -77 0
-525 -27 -88 0
-525 -27 -89 0
-525 -27 -92 0
-525 -27 -93 0
-525 -27 -96 0
-525 -27 -97 0
-525 -27 -100 0
-525 -27 -101 0
-525 -28 186 0
-525 -28 -31 -37 0
-525 -28 -45 0
-525 -28 -49 0
-525 -28 -53 0
-525 -28 -69 0
-525 -28 -73 0
-525 -28 -77 0
-525 -28 -89 0
-525 -28 -93 0
-525 -28 -97 0
-525 -28 -101 0
-526 149 0
-526 181 0
-526 -21 0
-526 -29 0
-526 -26 184 0
-526 -26 -32 -35 0
-526 -26 -47 0
-526 -26 -48 0
-526 -26 -49 0
-526 -26 -51 0
-526 -26 -52 0
-526 -26 -53 0
-526 -26 -55 0
-526 -26 -56 0
-526 -26 -57 0
-526 -26 -71 0
-526 -26 -72 0
-526 -26 -73 0
-526 -26 -75 0
-526 -26 -76 0
-526 -26 -77 0
-526 -26 -79 0
-526 -26 -80 0
-526 -26 -81 0
-526 -26 -91 0
-526 -26 -92 0
-526 -26 -93 0
-526 -26 -95 0
-526 -26 -96 0
-526 -26 -97 0
-526 -26 -99 0
-526 -26 -100 0
-526 -26 -101 0
-526 -26 -103 0
-526 -26 -104 0
-526 -26 -105 0
-526 -27 185 0
-526 -27 -32 -36 0
-526 -27 -48 0
-526 -27 -49 0
-526 -27 -52 0
-526 -27 -53 0
-526 -27 -56 0
-526 -27 -57 0
-526 -27 -72 0
-526 -27 -73 0
-526 -27 -76 0
-526 -27 -77 0
-526 -27 -80 0
-526 -27 -81 0
-526 -27 -92 0
-526 -27 -93 0
-526 -27 -96 0
-526 -27 -97 0
-526 -27 -100 0
-526 -27 -101 0
-526 -27 -104 0
-526 -27 -105 0
-526 -28 186 0
-526 -28 -32 -37 0
-526 -28 -49 0
-526 -28 -53 0
-526 -28 -57 0
-526 -28 -73 0
-526 -28 -77 0
-526 -28 -81 0
-526 -28 -93 0
-526 -28 -97 0
-526 -28 -101 0
-526 -28 -105 0
-527 149 0
-527 182 0
-527 -21 0
-527 -22 0
-527 -29 0
-527 -26 184 0
-527 -26 -33 -35 0
-527 -26 -51 0
-527 -26 -52 0
-527 -26 -53 0
-527 -26 -55 0
-527 -26 -56 0
-527 -26 -57 0
-527 -26 -59 0
-527 -26 -60 0
-527 -26 -61 0
-527 -26 -75 0
-527 -26 -76 0
-527 -26 -77 0
-527 -26 -79 0
-527 -26 -80 0
-527 -26 -81 0
-527 -26 -83 0
-527 -26 -84 0
-527 -26 -85 0
-527 -26 -95 0
-527 -26 -96 0
-527 -26 -97 0
-527 -26 -99 0
-527 -26 -100 0
-527 -26 -101 0
-527 -26 -103 0
-527 -26 -104 0
-527 -26 -105 0
-527 -27 185 0
-527 -27 -33 -36 0
-527 -27 -52 0
-527 -27 -53 0
-527 -27 -56 0
-527 -27 -57 0
-527 -27 -60 0
-527 -27 -61 0
-527 -27 -76 0
-527 -27 -77 0
-527 -27 -80 0
-527 -27 -81 0
-527 -27 -84 0
-527 -27 -85 0
-527 -27 -96 0
-527 -27 -97 0
-527 -27 -100 0
-527 -27 -101 0
-527 -27 -104 0
-527 -27 -105 0
-527 -28 186 0
-527 -28 -33 -37 0
-527 -28 -53 0
-527 -28 -57 0
-527 -28 -61 0
-527 -28 -77 0
-527 -28 -81 0
-527 -28 -85 0
-527 -28 -97 0
-527 -28 -101 0
-527 -28 -105 0
-528 149 0
-528 179 0
-528 183 0
-528 -30 -34 0
-528 -38 0
-528 -39 0
-528 -40 0
-528 -41 0
-528 -42 0
-528 -43 0
-528 -44 0
-528 -45 0
-528 -46 0
-528 -47 0
-528 -48 0
-528 -49 0
-528 -62 0
-528 -63 0
-528 -64 0
-528 -65 0
-528 -66 0
-528 -67 0
-528 -68 0
-528 -69 0
-528 -70 0
-528 -71 0
-528 -72 0
-528 -73 0
-528 -86 0
-528 -87 0
-528 -88 0
-528 -89 0
-528 -90 0
-528 -91 0
-528 -92 0
-528 -93 0
-528 -94 0
-528 -95 0
-528 -96 0
-528 -97 0
-529 149 0
-529 180 0
-529 183 0
-529 -31 -34 0
-529 -42 0
-529 -43 0
-529 -44 0
-529 -45 0
-529 -46 0
-529 -47 0
-529 -48 0
-529 -49 0
-529 -50 0
-529 -51 0
-529 -52 0
-529 -53 0
-529 -66 0
-529 -67 0
-529 -68 0
-529 -69 0
-529 -70 0
-529 -71 0
-529 -72 0
-529 -73 0
-529 -74 0
-529 -75 0
-529 -76 0
-529 -77 0
-529 -86 0
-529 -87 0
-529 -88 0
-529 -89 0
-529 -90 0
-529 -91 0
-529 -92 0
-529 -93 0
-529 -94 0
-529 -95 0
-529 -96 0
-529 -97 0
-529 -98 0
-529 -99 0
-529 -100 0
-529 -101 0
-530 149 0
-530 181 0
-530 183 0
-530 -32 -34 0
-530 -46 0
-530 -47 0
-530 -48 0
-530 -49 0
-530 -50 0
-530 -51 0
-530 -52 0
-530 -53 0
-530 -54 0
-530 -55 0
-530 -56 0
-530 -57 0
-530 -70 0
-530 -71 0
-530 -72 0
-530 -73 0
-530 -74 0
-530 -75 0
-530 -76 0
-530 -77 0
-530 -78 0
-530 -79 0
-530 -80 0
-530 -81 0
-530 -90 0
-530 -91 0
-530 -92 0
-530 -93 0
-530 -94 0
-530 -95 0
-530 -96 0
-530 -97 0
-530 -98 0
-530 -99 0
-530 -100 0
-530 -101 0
-530 -102 0
-530 -103 0
-530 -104 0
-530 -105 0
-531 149 0
-531 182 0
-531 183 0
-531 -33 -34 0
-531 -50 0
-531 -51 0
-531 -52 0
-531 -53 0
-531 -54 0
-531 -55 0
-531 -56 0
-531 -57 0
-531 -58 0
-531 -59 0
-531 -60 0
-531 -61 0
-531 -74 0
-531 -75 0
-531 -76 0
-531 -77 0
-531 -78 0
-531 -79 0
-531 -80 0
-531 -81 0
-531 -82 0
-531 -83 0
-531 -84 0
-531 -85 0
-531 -94 0
-531 -95 0
-531 -96 0
-531 -97 0
-531 -98 0
-531 -99 0
-531 -100 0
-531 -101 0
-531 -102 0
-531 -103 0
-531 -104 0
-531 -105 0
536 537 538 539 540 541 542 543 544 545 546 547 548 549 550 551 552 553 554 555 556 557 558 559 560 561 562 563 564 565 566 567 568 569 570 571 572 573 574 575 576 577 578 579 580 581 582 583 584 585 586 587 588 589 590 591 592 593 594 595 596 597 598 599 600 601 602 603 604 605 606 607 608 609 610 611 612 613 614 615 616 617 618 619 0
-536 -537 0
-536 -538 0
-536 -539 0
-536 -540 0
-536 -541 0
-536 -542 0
-536 -543 0
-536 -544 0
-536 -545 0
-536 -546 0
-536 -547 0
-536 -548 0
-536 -549 0
-536 -550 0
-536 -551 0
-536 -552 0
-536 -553 0
-536 -554 0
-536 -555 0
-536 -556 0
-536 -557 0
-536 -558 0
-536 -559 0
-536 -560 0
-536 -561 0
-536 -562 0
-536 -563 0
-536 -564 0
-536 -565 0
-536 -566 0
-536 -567 0
-536 -568 0
-536 -569 0
-536 -570 0
-536 -571 0
-536 -572 0
-536 -573 0
-536 -574 0
-536 -575 0
-536 -576 0
-536 -577 0
-536 -578 0
-536 -579 0
-536 -580 0
-536 -581 0
-536 -582 0
-536 -583 0
-536 -584 0
-536 -585 0
-536 -586 0
-536 -587 0
-536 -588 0
-536 -589 0
-536 -590 0
-536 -591 0
-536 -592 0
-536 -593 0
-536 -594 0
-536 -595 0
-536 -596 0
-536 -597 0
-536 -598 0
-536 -599 0
-536 -600 0
-536 -601 0
-536 -602 0
-536 -603 0
-536 -604 0
-536 -605 0
-536 -606 0
-536 -607 0
-536 -608 0
-536 -609 0
-536 -610 0
-536 -611 0
-536 -612 0
-536 -613 0
-536 -614 0
-536 -615 0
-536 -616 0
-536 -617 0
-536 -618 0
-536 -619 0
-537 -538 0
-537 -539 0
-537 -540 0
-537 -541 0
-537 -542 0
-537 -543 0
-537 -544 0
-537 -545 0
-537 -546 0
-537 -547 0
-537 -548 0
-537 -549 0
-537 -550 0
-537 -551 0
-537 -552 0
-537 -553 0
-537 -554 0
-537 -555 0
-537 -556 0
-537 -557 0
-537 -558 0
-537 -559 0
-537 -560 0
-537 -561 0
-537 -562 0
-537 -563 0
-537 -564 0
-537 -565 0
-537 -566 0
-537 -567 0
-537 -568 0
-537 -569 0
-537 -570 0
-537 -571 0
-537 -572 0
-537 -573 0
-537 -574 0
-537 -575 0
-537 -576 0
-537 -577 0
-537 -578 0
-537 -579 0
-537 -580 0
-537 -581 0
-537 -582 0
-537 -583 0
-537 -584 0
-537 -585 0
-537 -586 0
-537 -587 0
-537 -588 0
-537 -589 0
-537 -590 0
-537 -591 0
-537 -592 0
-537 -593 0
-537 -594 0
-537 -595 0
-537 -596 0
-537 -597 0
-537 -598 0
-537 -599 0
-537 -600 0
-537 -601 0
-537 -602 0
-537 -603 0
-537 -604 0
-537 -605 0
-537 -606 0
-537 -607 0
-537 -608 0
-537 -609 0
-537 -610 0
-537 -611 0
-537 -612 0
-537 -613 0
-537 -614 0
-537 -615 0
-537 -616 0
-537 -617 0
-537 -618 0
-537 -619 0
-538 -539 0
-538 -540 0
-538 -541 0
-538 -542 0
-538 -543 0
-538 -544 0
-538 -545 0
-538 -546 0
-538 -547 0
-538 -548 0
-538 -549 0
-538 -550 0
-538 -551 0
-538 -552 0
-538 -553 0
-538 -554 0
-538 -555 0
-538 -556 0
-538 -557 0
-538 -558 0
-538 -559 0
-538 -560 0
-538 -561 0
-538 -562 0
-538 -563 0
-538 -564 0
-538 -565 0
-538 -566 0
-538 -567 0
-538 -568 0
-538 -569 0
-538 -570 0
-538 -571 0
-538 -572 0
-538 -573 0
-538 -574 0
-538 -575 0
-538 -576 0
-538 -577 0
-538 -578 0
-538 -579 0
-538 -580 0
-538 -581 0
-538 -582 0
-538 -583 0
-538 -584 0
-538 -585 0
-538 -586 0
-538 -587 0
-538 -588 0
-538 -589 0
-538 -590 0
-538 -591 0
-538 -592 0
-538 -593 0
-538 -594 0
-538 -595 0
-538 -596 0
-538 -597 0
-538 -598 0
-538 -599 0
-538 -600 0
-538 -601 0
-538 -602 0
-538 -603 0
-538 -604 0
-538 -605 0
-538 -606 0
-538 -607 0
-538 -608 0
-538 -609 0
-538 -610 0
-538 -611 0
-538 -612 0
-538 -613 0
-538 -614 0
-538 -615 0
-538 -616 0
-538 -617 0
-538 -618 0
-538 -619 0
-539 -540 0
-539 -541 0
-539 -542 0
-539 -543 0
-539 -544 0
-539 -545 0
-539 -546 0
-539 -547 0
-539 -548 0
-539 -549 0
-539 -550 0
-539 -551 0
-539 -552 0
-539 -553 0
-539 -554 0
-539 -555 0
-539 -556 0
-539 -557 0
-539 -558 0
-539 -559 0
-539 -560 0
-539 -561 0
-539 -562 0
-539 -563 0
-539 -564 0
-539 -565 0
-539 -566 0
-539 -567 0
-539 -568 0
-539 -569 0
-539 -570 0
-539 -571 0
-539 -572 0
-539 -573 0
-539 -574 0
-539 -575 0
-539 -576 0
-539 -577 0
-539 -578 0
-539 -579 0
-539 -580 0
-539 -581 0
-539 -582 0
-539 -583 0
-539 -584 0
-539 -585 0
-539 -586 0
-539 -587 0
-539 -588 0
-539 -589 0
-539 -590 0
-539 -591 0
-539 -592 0
-539 -593 0
-539 -594 0
-539 -595 0
-539 -596 0
-539 -597 0
-539 -598 0
-539 -599 0
-539 -600 0
-539 -601 0
-539 -602 0
-539 -603 0
-539 -604 0
-539 -605 0
-539 -606 0
-539 -607 0
-539 -608 0
-539 -609 0
-539 -610 0
-539 -611 0
-539 -612 0
-539 -613 0
-539 -614 0
-539 -615 0
-539 -616 0
-539 -617 0
-539 -618 0
-539 -619 0
-540 -541 0
-540 -542 0
-540 -543 0
-540 -544 0
-540 -545 0
-540 -546 0
-540 -547 0
-540 -548 0
-540 -549 0
-540 -550 0
-540 -551 0
-540 -552 0
-540 -553 0
-540 -554 0
-540 -555 0
-540 -556 0
-540 -557 0
-540 -558 0
-540 -559 0
-540 -560 0
-540 -561 0
-540 -562 0
-540 -563 0
-540 -564 0
-540 -565 0
-540 -566 0
-540 -567 0
-540 -568 0
-540 -569 0
-540 -570 0
-540 -571 0
-540 -572 0
-540 -573 0
-540 -574 0
-540 -575 0
-540 -576 0
-540 -577 0
-540 -578 0
-540 -579 0
-540 -580 0
-540 -581 0
-540 -582 0
-540 -583 0
-540 -584 0
-540 -585 0
-540 -586 0
-540 -587 0
-540 -588 0
-540 -589 0
-540 -590 0
-540 -591 0
-540 -592 0
-540 -593 0
-540 -594 0
-540 -595 0
-540 -596 0
-540 -597 0
-540 -598 0
-540 -599 0
-540 -600 0
-540 -601 0
-540 -602 0
-540 -603 0
-540 -604 0
-540 -605 0
-540 -606 0
-540 -607 0
-540 -608 0
-540 -609 0
-540 -610 0
-540 -611 0
-540 -612 0
-540 -613 0
-540 -614 0
-540 -615 0
-540 -616 0
-540 -617 0
-540 -618 0
-540 -619 0
-541 -542 0
-541 -543 0
-541 -544 0
-541 -545 0
-541 -546 0
-541 -547 0
-541 -548 0
-541 -549 0
-541 -550 0
-541 -551 0
-541 -552 0
-541 -553 0
-541 -554 0
-541 -555 0
-541 -556 0
-541 -557 0
-541 -558 0
-541 -559 0
-541 -560 0
-541 -561 0
-541 -562 0
-541 -563 0
-541 -564 0
-541 -565 0
-541 -566 0
-541 -567 0
-541 -568 0
-541 -569 0
-541 -570 0
-541 -571 0
-541 -572 0
-541 -573 0
-541 -574 0
-541 -575 0
-541 -576 0
-541 -577 0
-541 -578 0
-541 -579 0
-541 -580 0
-541 -581 0
-541 -582 0
-541 -583 0
-541 -584 0
-541 -585 0
-541 -586 0
-541 -587 0
-541 -588 0
-541 -589 0
-541 -590 0
-541 -591 0
-541 -592 0
-541 -593 0
-541 -594 0
-541 -595 0
-541 -596 0
-541 -597 0
-541 -598 0
-541 -599 0
-541 -600 0
-541 -601 0
-541 -602 0
-541 -603 0
-541 -604 0
-541 -605 0
-541 -606 0
-541 -607 0
-541 -608 0
-541 -609 0
-541 -610 0
-541 -611 0
-541 -612 0
-541 -613 0
-541 -614 0
-541 -615 0
-541 -616 0
-541 -617 0
-541 -618 0
-541 -619 0
-542 -543 0
-542 -544 0
-542 -545 0
-542 -546 0
-542 -547 0
-542 -548 0
-542 -549 0
-542 -550 0
-542 -551 0
-542 -552 0
-542 -553 0
-542 -554 0
-542 -555 0
-542 -556 0
-542 -557 0
-542 -558 0
-542 -559 0
-542 -560 0
-542 -561 0
-542 -562 0
-542 -563 0
-542 -564 0
-542 -565 0
-542 -566 0
-542 -567 0
-542 -568 0
-542 -569 0
-542 -570 0
-542 -571 0
-542 -572 0
-542 -573 0
-542 -574 0
-542 -575 0
-542 -576 0
-542 -577 0
-542 -578 0
-542 -579 0
-542 -580 0
-542 -581 0
-542 -582 0
-542 -583 0
-542 -584 0
-542 -585 0
-542 -586 0
-542 -587 0
-542 -588 0
-542 -589 0
-542 -590 0
-542 -591 0
-542 -592 0
-542 -593 0
-542 -594 0
-542 -595 0
-542 -596 0
-542 -597 0
-542 -598 0
-542 -599 0
-542 -600 0
-542 -601 0
-542 -602 0
-542 -603 0
-542 -604 0
-542 -605 0
-542 -606 0
-542 -607 0
-542 -608 0
-542 -609 0
-542 -610 0
-542 -611 0
-542 -612 0
-542 -613 0
-542 -614 0
-542 -615 0
-542 -616 0
-542 -617 0
-542 -618 0
-542 -619 0
-543 -544 0
-543 -545 0
-543 -546 0
-543 -547 0
-543 -548 0
-543 -549 0
-543 -550 0
-543 -551 0
-543 -552 0
-543 -553 0
-543 -554 0
-543 -555 0
-543 -556 0
-543 -557 0
-543 -558 0
-543 -559 0
-543 -560 0
-543 -561 0
-543 -562 0
-543 -563 0
-543 -564 0
-543 -565 0
-543 -566 0
-543 -567 0
-543 -568 0
-543 -569 0
-543 -570 0
-543 -571 0
-543 -572 0
-543 -573 0
-543 -574 0
-543 -575 0
-543 -576 0
-543 -577 0
-543 -578 0
-543 -579 0
-543 -580 0
-543 -581 0
-543 -582 0
-543 -583 0
-543 -584 0
-543 -585 0
-543 -586 0
-543 -587 0
-543 -588 0
-543 -589 0
-543 -590 0
-543 -591 0
-543 -592 0
-543 -593 0
-543 -594 0
-543 -595 0
-543 -596 0
-543 -597 0
-543 -598 0
-543 -599 0
-543 -600 0
-543 -601 0
-543 -602 0
-543 -603 0
-543 -604 0
-543 -605 0
-543 -606 0
-543 -607 0
-543 -608 0
-543 -609 0
-543 -610 0
-543 -611 0
-543 -612 0
-543 -613 0
-543 -614 0
-543 -615 0
-543 -616 0
-543 -617 0
-543 -618 0
-543 -619 0
-544 -545 0
-544 -546 0
-544 -547 0
-544 -548 0
-544 -549 0
-544 -550 0
-544 -551 0
-544 -552 0
-544 -553 0
-544 -554 0
-544 -555 0
-544 -556 0
-544 -557 0
-544 -558 0
-544 -559 0
-544 -560 0
-544 -561 0
-544 -562 0
-544 -563 0
-544 -564 0
-544 -565 0
-544 -566 0
-544 -567 0
-544 -568 0
-544 -569 0
-544 -570 0
-544 -571 0
-544 -572 0
-544 -573 0
-544 -574 0
-544 -575 0
-544 -576 0
-544 -577 0
-544 -578 0
-544 -579 0
-544 -580 0
-544 -581 0
-544 -582 0
-544 -583 0
-544 -584 0
-544 -585 0
-544 -586 0
-544 -587 0
-544 -588 0
-544 -589 0
-544 -590 0
-544 -591 0
-544 -592 0
-544 -593 0
-544 -594 0
-544 -595 0
-544 -596 0
-544 -597 0
-544 -598 0
-544 -599 0
-544 -600 0
-544 -601 0
-544 -602 0
-544 -603 0
-544 -604 0
-544 -605 0
-544 -606 0
-544 -607 0
-544 -608 0
-544 -609 0
-544 -610 0
-544 -611 0
-544 -612 0
-544 -613 0
-544 -614 0
-544 -615 0
-544 -616 0
-544 -617 0
-544 -618 0
-544 -619 0
-545 -546 0
-545 -547 0
-545 -548 0
-545 -549 0
-545 -550 0
-545 -551 0
-545 -552 0
-545 -553 0
-545 -554 0
-545 -555 0
-545 -556 0
-545 -557 0
-545 -558 0
-545 -559 0
-545 -560 0
-545 -561 0
-545 -562 0
-545 -563 0
-545 -564 0
-545 -565 0
-545 -566 0
-545 -567 0
-545 -568 0
-545 -569 0
-545 -570 0
-545 -571 0
-545 -572 0
-545 -573 0
-545 -574 0
-545 -575 0
-545 -576 0
-545 -577 0
-545 -578 0
-545 -579 0
-545 -580 0
-545 -581 0
-545 -582 0
-545 -583 0
-545 -584 0
-545 -585 0
-545 -586 0
-545 -587 0
-545 -588 0
-545 -589 0
-545 -590 0
-545 -591 0
-545 -592 0
-545 -593 0
-545 -594 0
-545 -595 0
-545 -596 0
-545 -597 0
-545 -598 0
-545 -599 0
-545 -600 0
-545 -601 0
-545 -602 0
-545 -603 0
-545 -604 0
-545 -605 0
-545 -606 0
-545 -607 0
-545 -608 0
-545 -609 0
-545 -610 0
-545 -611 0
-545 -612 0
-545 -613 0
-545 -614 0
-545 -615 0
-545 -616 0
-545 -617 0
-545 -618 0
-545 -619 0
-546 -547 0
-546 -548 0
-546 -549 0
-546 -550 0
-546 -551 0
-546 -552 0
-546 -553 0
-546 -554 0
-546 -555 0
-546 -556 0
-546 -557 0
-546 -558 0
-546 -559 0
-546 -560 0
-546 -561 0
-546 -562 0
-546 -563 0
-546 -564 0
-546 -565 0
-546 -566 0
-546 -567 0
-546 -568 0
-546 -569 0
-546 -570 0
-546 -571 0
-546 -572 0
-546 -573 0
-546 -574 0
-546 -575 0
-546 -576 0
-546 -577 0
-546 -578 0
-546 -579 0
-546 -580 0
-546 -581 0
-546 -582 0
-546 -583 0
-546 -584 0
-546 -585 0
-546 -586 0
-546 -587 0
-546 -588 0
-546 -589 0
-546 -590 0
-546 -591 0
-546 -592 0
-546 -593 0
-546 -594 0
-546 -595 0
-546 -596 0
-546 -597 0
-546 -598 0
-546 -599 0
-546 -600 0
-546 -601 0
-546 -602 0
-546 -603 0
-546 -604 0
-546 -605 0
-546 -606 0
-546 -607 0
-546 -608 0
-546 -609 0
-546 -610 0
-546 -611 0
-546 -612 0
-546 -613 0
-546 -614 0
-546 -615 0
-546 -616 0
-546 -617 0
-546 -618 0
-546 -619 0
-547 -548 0
-547 -549 0
-547 -550 0
-547 -551 0
-547 -552 0
-547 -553 0
-547 -554 0
-547 -555 0
-547 -556 0
-547 -557 0
-547 -558 0
-547 -559 0
-547 -560 0
-547 -561 0
-547 -562 0
-547 -563 0
-547 -564 0
-547 -565 0
-547 -566 0
-547 -567 0
-547 -568 0
-547 -569 0
-547 -570 0
-547 -571 0
-547 -572 0
-547 -573 0
-547 -574 0
-547 -575 0
-547 -576 0
-547 -577 0
-547 -578 0
-547 -579 0
-547 -580 0
-547 -581 0
-547 -582 0
-547 -583 0
-547 -584 0
-547 -585 0
-547 -586 0
-547 -587 0
-547 -588 0
-547 -589 0
-547 -590 0
-547 -591 0
-547 -592 0
-547 -593 0
-547 -594 0
-547 -595 0
-547 -596 0
-547 -597 0
-547 -598 0
-547 -599 0
-547 -600 0
-547 -601 0
-547 -602 0
-547 -603 0
-547 -604 0
-547 -605 0
-547 -606 0
-547 -607 0
-547 -608 0
-547 -609 0
-547 -610 0
-547 -611 0
-547 -612 0
-547 -613 0
-547 -614 0
-547 -615 0
-547 -616 0
-547 -617 0
-547 -618 0
-547 -619 0
-548 -549 0
-548 -550 0
-548 -551 0
-548 -552 0
-548 -553 0
-548 -554 0
-548 -555 0
-548 -556 0
-548 -557 0
-548 -558 0
-548 -559 0
-548 -560 0
-548 -561 0
-548 -562 0
-548 -563 0
-548 -564 0
-548 -565 0
-548 -566 0
-548 -567 0
-548 -568 0
-548 -569 0
-548 -570 0
-548 -571 0
-548 -572 0
-548 -573 0
-548 -574 0
-548 -575 0
-548 -576 0
-548 -577 0
-548 -578 0
-548 -579 0
-548 -580 0
-548 -581 0
-548 -582 0
-548 -583 0
-548 -584 0
-548 -585 0
-548 -586 0
-548 -587 0
-548 -588 0
-548 -589 0
-548 -590 0
-548 -591 0
-548 -592 0
-548 -593 0
-548 -594 0
-548 -595 0
-548 -596 0
-548 -597 0
-548 -598 0
-548 -599 0
-548 -600 0
-548 -601 0
-548 -602 0
-548 -603 0
-548 -604 0
-548 -605 0
-548 -606 0
-548 -607 0
-548 -608 0
-548 -609 0
-548 -610 0
-548 -611 0
-548 -612 0
-548 -613 0
-548 -614 0
-548 -615 0
-548 -616 0
-548 -617 0
-548 -618 0
-548 -619 0
-549 -550 0
-549 -551 0
-549 -552 0
-549 -553 0
-549 -554 0
-549 -555 0
-549 -556 0
-549 -557 0
-549 -558 0
-549 -559 0
-549 -560 0
-549 -561 0
-549 -562 0
-549 -563 0
-549 -564 0
-549 -565 0
-549 -566 0
-549 -567 0
-549 -568 0
-549 -569 0
-549 -570 0
-549 -571 0
-549 -572 0
-549 -573 0
-549 -574 0
-549 -575 0
-549 -576 0
-549 -577 0
-549 -578 0
-549 -579 0
-549 -580 0
-549 -581 0
-549 -582 0
-549 -583 0
-549 -584 0
-549 -585 0
-549 -586 0
-549 -587 0
-549 -588 0
-549 -589 0
-549 -590 0
-549 -591 0
-549 -592 0
-549 -593 0
-549 -594 0
-549 -595 0
-549 -596 0
-549 -597 0
-549 -598 0
-549 -599 0
-549 -600 0
-549 -601 0
-549 -602 0
-549 -603 0
-549 -604 0
-549 -605 0
-549 -606 0
-549 -607 0
-549 -608 0
-549 -609 0
-549 -610 0
-549 -611 0
-549 -612 0
-549 -613 0
-549 -614 0
-549 -615 0
-549 -616 0
-549 -617 0
-549 -618 0
-549 -619 0
-550 -551 0
-550 -552 0
-550 -553 0
-550 -554 0
-550 -555 0
-550 -556 0
-550 -557 0
-550 -558 0
-550 -559 0
-550 -560 0
-550 -561 0
-550 -562 0
-550 -563 0
-550 -564 0
-550 -565 0
-550 -566 0
-550 -567 0
-550 -568 0
-550 -569 0
-550 -570 0
-550 -571 0
-550 -572 0
-550 -573 0
-550 -574 0
-550 -575 0
-550 -576 0
-550 -577 0
-550 -578 0
-550 -579 0
-550 -580 0
-550 -581 0
-550 -582 0
-550 -583 0
-550 -584 0
-550 -585 0
-550 -586 0
-550 -587 0
-550 -588 0
-550 -589 0
-550 -590 0
-550 -591 0
-550 -592 0
-550 -593 0
-550 -594 0
-550 -595 0
-550 -596 0
-550 -597 0
-550 -598 0
-550 -599 0
-550 -600 0
-550 -601 0
-550 -602 0
-550 -603 0
-550 -604 0
-550 -605 0
-550 -606 0
-550 -607 0
-550 -608 0
-550 -609 0
-550 -610 0
-550 -611 0
-550 -612 0
-550 -613 0
-550 -614 0
-550 -615 0
-550 -616 0
-550 -617 0
-550 -618 0
-550 -619 0
-551 -552 0
-551 -553 0
-551 -554 0
-551 -555 0
-551 -556 0
-551 -557 0
-551 -558 0
-551 -559 0
-551 -560 0
-551 -561 0
-551 -562 0
-551 -563 0
-551 -564 0
-551 -565 0
-551 -566 0
-551 -567 0
-551 -568 0
-551 -569 0
-551 -570 0
-551 -571 0
-551 -572 0
-551 -573 0
-551 -574 0
-551 -575 0
-551 -576 0
-551 -577 0
-551 -578 0
-551 -579 0
-551 -580 0
-551 -581 0
-551 -582 0
-551 -583 0
-551 -584 0
-551 -585 0
-551 -586 0
-551 -587 0
-551 -588 0
-551 -589 0
-551 -590 0
-551 -591 0
-551 -592 0
-551 -593 0
-551 -594 0
-551 -595 0
-551 -596 0
-551 -597 0
-551 -598 0
-551 -599 0
-551 -600 0
-551 -601 0
-551 -602 0
-551 -603 0
-551 -604 0
-551 -605 0
-551 -606 0
-551 -607 0
-551 -608 0
-551 -609 0
-551 -610 0
-551 -611 0
-551 -612 0
-551 -613 0
-551 -614 0
-551 -615 0
-551 -616 0
-551 -617 0
-551 -618 0
-551 -619 0
-552 -553 0
-552 -554 0
-552 -555 0
-552 -556 0
-552 -557 0
-552 -558 0
-552 -559 0
-552 -560 0
-552 -561 0
-552 -562 0
-552 -563 0
-552 -564 0
-552 -565 0
-552 -566 0
-552 -567 0
-552 -568 0
-552 -569 0
-552 -570 0
-552 -571 0
-552 -572 0
-552 -573 0
-552 -574 0
-552 -575 0
-552 -576 0
-552 -577 0
-552 -578 0
-552 -579 0
-552 -580 0
-552 -581 0
-552 -582 0
-552 -583 0
-552 -584 0
-552 -585 0
-552 -586 0
-552 -587 0
-552 -588 0
-552 -589 0
-552 -590 0
-552 -591 0
-552 -592 0
-552 -593 0
-552 -594 0
-552 -595 0
-552 -596 0
-552 -597 0
-552 -598 0
-552 -599 0
-552 -600 0
-552 -601 0
-552 -602 0
-552 -603 0
-552 -604 0
-552 -605 0
-552 -606 0
-552 -607 0
-552 -608 0
-552 -609 0
-552 -610 0
-552 -611 0
-552 -612 0
-552 -613 0
-552 -614 0
-552 -615 0
-552 -616 0
-552 -617 0
-552 -618 0
-552 -619 0
-553 -554 0
-553 -555 0
-553 -556 0
-553 -557 0
-553 -558 0
-553 -559 0
-553 -560 0
-553 -561 0
-553 -562 0
-553 -563 0
-553 -564 0
-553 -565 0
-553 -566 0
-553 -567 0
-553 -568 0
-553 -569 0
-553 -570 0
-553 -571 0
-553 -572 0
-553 -573 0
-553 -574 0
-553 -575 0
-553 -576 0
-553 -577 0
-553 -578 0
-553 -579 0
-553 -580 0
-553 -581 0
-553 -582 0
-553 -583 0
-553 -584 0
-553 -585 0
-553 -586 0
-553 -587 0
-553 -588 0
-553 -589 0
-553 -590 0
-553 -591 0
-553 -592 0
-553 -593 0
-553 -594 0
-553 -595 0
-553 -596 0
-553 -597 0
-553 -598 0
-553 -599 0
-553 -600 0
-553 -601 0
-553 -602 0
-553 -603 0
-553 -604 0
-553 -605 0
-553 -606 0
-553 -607 0
-553 -608 0
-553 -609 0
-553 -610 0
-553 -611 0
-553 -612 0
-553 -613 0
-553 -614 0
-553 -615 0
-553 -616 0
-553 -617 0
-553 -618 0
-553 -619 0
-554 -555 0
-554 -556 0
-554 -557 0
-554 -558 0
-554 -559 0
-554 -560 0
-554 -561 0
-554 -562 0
-554 -563 0
-554 -564 0
-554 -565 0
-554 -566 0
-554 -567 0
-554 -568 0
-554 -569 0
-554 -570 0
-554 -571 0
-554 -572 0
-554 -573 0
-554 -574 0
-554 -575 0
-554 -576 0
-554 -577 0
-554 -578 0
-554 -579 0
-554 -580 0
-554 -581 0
-554 -582 0
-554 -583 0
-554 -584 0
-554 -585 0
-554 -586 0
-554 -587 0
-554 -588 0
-554 -589 0
-554 -590 0
-554 -591 0
-554 -592 0
-554 -593 0
-554 -594 0
-554 -595 0
-554 -596 0
-554 -597 0
-554 -598 0
-554 -599 0
-554 -600 0
-554 -601 0
-554 -602 0
-554 -603 0
-554 -604 0
-554 -605 0
-554 -606 0
-554 -607 0
-554 -608 0
-554 -609 0
-554 -610 0
-554 -611 0
-554 -612 0
-554 -613 0
-554 -614 0
-554 -615 0
-554 -616 0
-554 -617 0
-554 -618 0
-554 -619 0
-555 -556 0
-555 -557 0
-555 -558 0
-555 -559 0
-555 -560 0
-555 -561 0
-555 -562 0
-555 -563 0
-555 -564 0
-555 -565 0
-555 -566 0
-555 -567 0
-555 -568 0
-555 -569 0
-555 -570 0
-555 -571 0
-555 -572 0
-555 -573 0
-555 -574 0
-555 -575 0
-555 -576 0
-555 -577 0
-555 -578 0
-555 -579 0
-555 -580 0
-555 -581 0
-555 -582 0
-555 -583 0
-555 -584 0
-555 -585 0
-555 -586 0
-555 -587 0
-555 -588 0
-555 -589 0
-555 -590 0
-555 -591 0
-555 -592 0
-555 -593 0
-555 -594 0
-555 -595 0
-555 -596 0
-555 -597 0
-555 -598 0
-555 -599 0
-555 -600 0
-555 -601 0
-555 -602 0
-555 -603 0
-555 -604 0
-555 -605 0
-555 -606 0
-555 -607 0
-555 -608 0
-555 -609 0
-555 -610 0
-555 -611 0
-555 -612 0
-555 -613 0
-555 -614 0
-555 -615 0
-555 -616 0
-555 -617 0
-555 -618 0
-555 -619 0
-556 -557 0
-556 -558 0
-556 -559 0
-556 -560 0
-556 -561 0
-556 -562 0
-556 -563 0
-556 -564 0
-556 -565 0
-556 -566 0
-556 -567 0
-556 -568 0
-556 -569 0
-556 -570 0
-556 -571 0
-556 -572 0
-556 -573 0
-556 -574 0
-556 -575 0
-556 -576 0
-556 -577 0
-556 -578 0
-556 -579 0
-556 -580 0
-556 -581 0
-556 -582 0
-556 -583 0
-556 -584 0
-556 -585 0
-556 -586 0
-556 -587 0
-556 -588 0
-556 -589 0
-556 -590 0
-556 -591 0
-556 -592 0
-556 -593 0
-556 -594 0
-556 -595 0
-556 -596 0
-556 -597 0
-556 -598 0
-556 -599 0
-556 -600 0
-556 -601 0
-556 -602 0
-556 -603 0
-556 -604 0
-556 -605 0
-556 -606 0
-556 -607 0
-556 -608 0
-556 -609 0
-556 -610 0
-556 -611 0
-556 -612 0
-556 -613 0
-556 -614 0
-556 -615 0
-556 -616 0
-556 -617 0
-556 -618 0
-556 -619 0
-557 -558 0
-557 -559 0
-557 -560 0
-557 -561 0
-557 -562 0
-557 -563 0
-557 -564 0
-557 -565 0
-557 -566 0
-557 -567 0
-557 -568 0
-557 -569 0
-557 -570 0
-557 -571 0
-557 -572 0
-557 -573 0
-557 -574 0
-557 -575 0
-557 -576 0
-557 -577 0
-557 -578 0
-557 -579 0
-557 -580 0
-557 -581 0
-557 -582 0
-557 -583 0
-557 -584 0
-557 -585 0
-557 -586 0
-557 -587 0
-557 -588 0
-557 -589 0
-557 -590 0
-557 -591 0
-557 -592 0
-557 -593 0
-557 -594 0
-557 -595 0
-557 -596 0
-557 -597 0
-557 -598 0
-557 -599 0
-557 -600 0
-557 -601 0
-557 -602 0
-557 -603 0
-557 -604 0
-557 -605 0
-557 -606 0
-557 -607 0
-557 -608 0
-557 -609 0
-557 -610 0
-557 -611 0
-557 -612 0
-557 -613 0
-557 -614 0
-557 -615 0
-557 -616 0
-557 -617 0
-557 -618 0
-557 -619 0
-558 -559 0
-558 -560 0
-558 -561 0
-558 -562 0
-558 -563 0
-558 -564 0
-558 -565 0
-558 -566 0
-558 -567 0
-558 -568 0
-558 -569 0
-558 -570 0
-558 -571 0
-558 -572 0
-558 -573 0
-558 -574 0
-558 -575 0
-558 -576 0
-558 -577 0
-558 -578 0
-558 -579 0
-558 -580 0
-558 -581 0
-558 -582 0
-558 -583 0
-558 -584 0
-558 -585 0
-558 -586 0
-558 -587 0
-558 -588 0
-558 -589 0
-558 -590 0
-558 -591 0
-558 -592 0
-558 -593 0
-558 -594 0
-558 -595 0
-558 -596 0
-558 -597 0
-558 -598 0
-558 -599 0
-558 -600 0
-558 -601 0
-558 -602 0
-558 -603 0
-558 -604 0
-558 -605 0
-558 -606 0
-558 -607 0
-558 -608 0
-558 -609 0
-558 -610 0
-558 -611 0
-558 -612 0
-558 -613 0
-558 -614 0
-558 -615 0
-558 -616 0
-558 -617 0
-558 -618 0
-558 -619 0
-559 -560 0
-559 -561 0
-559 -562 0
-559 -563 0
-559 -564 0
-559 -565 0
-559 -566 0
-559 -567 0
-559 -568 0
-559 -569 0
-559 -570 0
-559 -571 0
-559 -572 0
-559 -573 0
-559 -574 0
-559 -575 0
-559 -576 0
-559 -577 0
-559 -578 0
-559 -579 0
-559 -580 0
-559 -581 0
-559 -582 0
-559 -583 0
-559 -584 0
-559 -585 0
-559 -586 0
-559 -587 0
-559 -588 0
-559 -589 0
-559 -590 0
-559 -591 0
-559 -592 0
-559 -593 0
-559 -594 0
-559 -595 0
-559 -596 0
-559 -597 0
-559 -598 0
-559 -599 0
-559 -600 0
-559 -601 0
-559 -602 0
-559 -603 0
-559 -604 0
-559 -605 0
-559 -606 0
-559 -607 0
-559 -608 0
-559 -609 0
-559 -610 0
-559 -611 0
-559 -612 0
-559 -613 0
-559 -614 0
-559 -615 0
-559 -616 0
-559 -617 0
-559 -618 0
-559 -619 0
-560 -561 0
-560 -562 0
-560 -563 0
-560 -564 0
-560 -565 0
-560 -566 0
-560 -567 0
-560 -568 0
-560 -569 0
-560 -570 0
-560 -571 0
-560 -572 0
-560 -573 0
-560 -574 0
-560 -575 0
-560 -576 0
-560 -577 0
-560 -578 0
-560 -579 0
-560 -580 0
-560 -581 0
-560 -582 0
-560 -583 0
-560 -584 0
-560 -585 0
-560 -586 0
-560 -587 0
-560 -588 0
-560 -589 0
-560 -590 0
-560 -591 0
-560 -592 0
-560 -593 0
-560 -594 0
-560 -595 0
-560 -596 0
-560 -597 0
-560 -598 0
-560 -599 0
-560 -600 0
-560 -601 0
-560 -602 0
-560 -603 0
-560 -604 0
-560 -605 0
-560 -606 0
-560 -607 0
-560 -608 0
-560 -609 0
-560 -610 0
-560 -611 0
-560 -612 0
-560 -613 0
-560 -614 0
-560 -615 0
-560 -616 0
-560 -617 0
-560 -618 0
-560 -619 0
-561 -562 0
-561 -563 0
-561 -564 0
-561 -565 0
-561 -566 0
-561 -567 0
-561 -568 0
-561 -569 0
-561 -570 0
-561 -571 0
-561 -572 0
-561 -573 0
-561 -574 0
-561 -575 0
-561 -576 0
-561 -577 0
-561 -578 0
-561 -579 0
-561 -580 0
-561 -581 0
-561 -582 0
-561 -583 0
-561 -584 0
-561 -585 0
-561 -586 0
-561 -587 0
-561 -588 0
-561 -589 0
-561 -590 0
-561 -591 0
-561 -592 0
-561 -593 0
-561 -594 0
-561 -595 0
-561 -596 0
-561 -597 0
-561 -598 0
-561 -599 0
-561 -600 0
-561 -601 0
-561 -602 0
-561 -603 0
-561 -604 0
-561 -605 0
-561 -606 0
-561 -607 0
-561 -608 0
-561 -609 0
-561 -610 0
-561 -611 0
-561 -612 0
-561 -613 0
-561 -614 0
-561 -615 0
-561 -616 0
-561 -617 0
-561 -618 0
-561 -619 0
-562 -563 0
-562 -564 0
-562 -565 0
-562 -566 0
-562 -567 0
-562 -568 0
-562 -569 0
-562 -570 0
-562 -571 0
-562 -572 0
-562 -573 0
-562 -574 0
-562 -575 0
-562 -576 0
-562 -577 0
-562 -578 0
-562 -579 0
-562 -580 0
-562 -581 0
-562 -582 0
-562 -583 0
-562 -584 0
-562 -585 0
-562 -586 0
-562 -587 0
-562 -588 0
-562 -589 0
-562 -590 0
-562 -591 0
-562 -592 0
-562 -593 0
-562 -594 0
-562 -595 0
-562 -596 0
-562 -597 0
-562 -598 0
-562 -599 0
-562 -600 0
-562 -601 0
-562 -602 0
-562 -603 0
-562 -604 0
-562 -605 0
-562 -606 0
-562 -607 0
-562 -608 0
-562 -609 0
-562 -610 0
-562 -611 0
-562 -612 0
-562 -613 0
-562 -614 0
-562 -615 0
-562 -616 0
-562 -617 0
-562 -618 0
-562 -619 0
-563 -564 0
-563 -565 0
-563 -566 0
-563 -567 0
-563 -568 0
-563 -569 0
-563 -570 0
-563 -571 0
-563 -572 0
-563 -573 0
-563 -574 0
-563 -575 0
-563 -576 0
-563 -577 0
-563 -578 0
-563 -579 0
-563 -580 0
-563 -581 0
-563 -582 0
-563 -583 0
-563 -584 0
-563 -585 0
-563 -586 0
-563 -587 0
-563 -588 0
-563 -589 0
-563 -590 0
-563 -591 0
-563 -592 0
-563 -593 0
-563 -594 0
-563 -595 0
-563 -596 0
-563 -597 0
-563 -598 0
-563 -599 0
-563 -600 0
-563 -601 0
-563 -602 0
-563 -603 0
-563 -604 0
-563 -605 0
-563 -606 0
-563 -607 0
-563 -608 0
-563 -609 0
-563 -610 0
-563 -611 0
-563 -612 0
-563 -613 0
-563 -614 0
-563 -615 0
-563 -616 0
-563 -617 0
-563 -618 0
-563 -619 0
-564 -565 0
-564 -566 0
-564 -567 0
-564 -568 0
-564 -569 0
-564 -570 0
-564 -571 0
-564 -572 0
-564 -573 0
-564 -574 0
-564 -575 0
-564 -576 0
-564 -577 0
-564 -578 0
-564 -579 0
-564 -580 0
-564 -581 0
-564 -582 0
-564 -583 0
-564 -584 0
-564 -585 0
-564 -586 0
-564 -587 0
-564 -588 0
-564 -589 0
-564 -590 0
-564 -591 0
-564 -592 0
-564 -593 0
-564 -594 0
-564 -595 0
-564 -596 0
-564 -597 0
-564 -598 0
-564 -599 0
-564 -600 0
-564 -601 0
-564 -602 0
-564 -603 0
-564 -604 0
-564 -605 0
-564 -606 0
-564 -607 0
-564 -608 0
-564 -609 0
-564 -610 0
-564 -611 0
-564 -612 0
-564 -613 0
-564 -614 0
-564 -615 0
-564 -616 0
-564 -617 0
-564 -618 0
-564 -619 0
-565 -566 0
-565 -567 0
-565 -568 0
-565 -569 0
-565 -570 0
-565 -571 0
-565 -572 0
-565 -573 0
-565 -574 0
-565 -575 0
-565 -576 0
-565 -577 0
-565 -578 0
-565 -579 0
-565 -580 0
-565 -581 0
-565 -582 0
-565 -583 0
-565 -584 0
-565 -585 0
-565 -586 0
-565 -587 0
-565 -588 0
-565 -589 0
-565 -590 0
-565 -591 0
-565 -592 0
-565 -593 0
-565 -594 0
-565 -595 0
-565 -596 0
-565 -597 0
-565 -598 0
-565 -599 0
-565 -600 0
-565 -601 0
-565 -602 0
-565 -603 0
-565 -604 0
-565 -605 0
-565 -606 0
-565 -607 0
-565 -608 0
-565 -609 0
-565 -610 0
-565 -611 0
-565 -612 0
-565 -613 0
-565 -614 0
-565 -615 0
-565 -616 0
-565 -617 0
-565 -618 0
-565 -619 0
-566 -567 0
-566 -568 0
-566 -569 0
-566 -570 0
-566 -571 0
-566 -572 0
-566 -573 0
-566 -574 0
-566 -575 0
-566 -576 0
-566 -577 0
-566 -578 0
-566 -579 0
-566 -580 0
-566 -581 0
-566 -582 0
-566 -583 0
-566 -584 0
-566 -585 0
-566 -586 0
-566 -587 0
-566 -588 0
-566 -589 0
-566 -590 0
-566 -591 0
-566 -592 0
-566 -593 0
-566 -594 0
-566 -595 0
-566 -596 0
-566 -597 0
-566 -598 0
-566 -599 0
-566 -600 0
-566 -601 0
-566 -602 0
-566 -603 0
-566 -604 0
-566 -605 0
-566 -606 0
-566 -607 0
-566 -608 0
-566 -609 0
-566 -610 0
-566 -611 0
-566 -612 0
-566 -613 0
-566 -614 0
-566 -615 0
-566 -616 0
-566 -617 0
-566 -618 0
-566 -619 0
-567 -568 0
-567 -569 0
-567 -570 0
-567 -571 0
-567 -572 0
-567 -573 0
-567 -574 0
-567 -575 0
-567 -576 0
-567 -577 0
-567 -578 0
-567 -579 0
-567 -580 0
-567 -581 0
-567 -582 0
-567 -583 0
-567 -584 0
-567 -585 0
-567 -586 0
-567 -587 0
-567 -588 0
-567 -589 0
-567 -590 0
-567 -591 0
-567 -592 0
-567 -593 0
-567 -594 0
-567 -595 0
-567 -596 0
-567 -597 0
-567 -598 0
-567 -599 0
-567 -600 0
-567 -601 0
-567 -602 0
-567 -603 0
-567 -604 0
-567 -605 0
-567 -606 0
-567 -607 0
-567 -608 0
-567 -609 0
-567 -610 0
-567 -611 0
-567 -612 0
-567 -613 0
-567 -614 0
-567 -615 0
-567 -616 0
-567 -617 0
-567 -618 0
-567 -619 0
-568 -569 0
-568 -570 0
-568 -571 0
-568 -572 0
-568 -573 0
-568 -574 0
-568 -575 0
-568 -576 0
-568 -577 0
-568 -578 0
-568 -579 0
-568 -580 0
-568 -581 0
-568 -582 0
-568 -583 0
-568 -584 0
-568 -585 0
-568 -586 0
-568 -587 0
-568 -588 0
-568 -589 0
-568 -590 0
-568 -591 0
-568 -592 0
-568 -593 0
-568 -594 0
-568 -595 0
-568 -596 0
-568 -597 0
-568 -598 0
-568 -599 0
-568 -600 0
-568 -601 0
-568 -602 0
-568 -603 0
-568 -604 0
-568 -605 0
-568 -606 0
-568 -607 0
-568 -608 0
-568 -609 0
-568 -610 0
-568 -611 0
-568 -612 0
-568 -613 0
-568 -614 0
-568 -615 0
-568 -616 0
-568 -617 0
-568 -618 0
-568 -619 0
-569 -570 0
-569 -571 0
-569 -572 0
-569 -573 0
-569 -574 0
-569 -575 0
-569 -576 0
-569 -577 0
-569 -578 0
-569 -579 0
-569 -580 0
-569 -581 0
-569 -582 0
-569 -583 0
-569 -584 0
-569 -585 0
-569 -586 0
-569 -587 0
-569 -588 0
-569 -589 0
-569 -590 0
-569 -591 0
-569 -592 0
-569 -593 0
-569 -594 0
-569 -595 0
-569 -596 0
-569 -597 0
-569 -598 0
-569 -599 0
-569 -600 0
-569 -601 0
-569 -602 0
-569 -603 0
-569 -604 0
-569 -605 0
-569 -606 0
-569 -607 0
-569 -608 0
-569 -609 0
-569 -610 0
-569 -611 0
-569 -612 0
-569 -613 0
-569 -614 0
-569 -615 0
-569 -616 0
-569 -617 0
-569 -618 0
-569 -619 0
-570 -571 0
-570 -572 0
-570 -573 0
-570 -574 0
-570 -575 0
-570 -576 0
-570 -577 0
-570 -578 0
-570 -579 0
-570 -580 0
-570 -581 0
-570 -582 0
-570 -583 0
-570 -584 0
-570 -585 0
-570 -586 0
-570 -587 0
-570 -588 0
-570 -589 0
-570 -590 0
-570 -591 0
-570 -592 0
-570 -593 0
-570 -594 0
-570 -595 0
-570 -596 0
-570 -597 0
-570 -598 0
-570 -599 0
-570 -600 0
-570 -601 0
-570 -602 0
-570 -603 0
-570 -604 0
-570 -605 0
-570 -606 0
-570 -607 0
-570 -608 0
-570 -609 0
-570 -610 0
-570 -611 0
-570 -612 0
-570 -613 0
-570 -614 0
-570 -615 0
-570 -616 0
-570 -617 0
-570 -618 0
-570 -619 0
-571 -572 0
-571 -573 0
-571 -574 0
-571 -575 0
-571 -576 0
-571 -577 0
-571 -578 0
-571 -579 0
-571 -580 0
-571 -581 0
-571 -582 0
-571 -583 0
-571 -584 0
-571 -585 0
-571 -586 0
-571 -587 0
-571 -588 0
-571 -589 0
-571 -590 0
-571 -591 0
-571 -592 0
-571 -593 0
-571 -594 0
-571 -595 0
-571 -596 0
-571 -597 0
-571 -598 0
-571 -599 0
-571 -600 0
-571 -601 0
-571 -602 0
-571 -603 0
-571 -604 0
-571 -605 0
-571 -606 0
-571 -607 0
-571 -608 0
-571 -609 0
-571 -610 0
-571 -611 0
-571 -612 0
-571 -613 0
-571 -614 0
-571 -615 0
-571 -616 0
-571 -617 0
-571 -618 0
-571 -619 0
-572 -573 0
-572 -574 0
-572 -575 0
-572 -576 0
-572 -577 0
-572 -578 0
-572 -579 0
-572 -580 0
-572 -581 0
-572 -582 0
-572 -583 0
-572 -584 0
-572 -585 0
-572 -586 0
-572 -587 0
-572 -588 0
-572 -589 0
-572 -590 0
-572 -591 0
-572 -592 0
-572 -593 0
-572 -594 0
-572 -595 0
-572 -596 0
-572 -597 0
-572 -598 0
-572 -599 0
-572 -600 0
-572 -601 0
-572 -602 0
-572 -603 0
-572 -604 0
-572 -605 0
-572 -606 0
-572 -607 0
-572 -608 0
-572 -609 0
-572 -610 0
-572 -611 0
-572 -612 0
-572 -613 0
-572 -614 0
-572 -615 0
-572 -616 0
-572 -617 0
-572 -618 0
-572 -619 0
-573 -574 0
-573 -575 0
-573 -576 0
-573 -577 0
-573 -578 0
-573 -579 0
-573 -580 0
-573 -581 0
-573 -582 0
-573 -583 0
-573 -584 0
-573 -585 0
-573 -586 0
-573 -587 0
-573 -588 0
-573 -589 0
-573 -590 0
-573 -591 0
-573 -592 0
-573 -593 0
-573 -594 0
-573 -595 0
-573 -596 0
-573 -597 0
-573 -598 0
-573 -599 0
-573 -600 0
-573 -601 0
-573 -602 0
-573 -603 0
-573 -604 0
-573 -605 0
-573 -606 0
-573 -607 0
-573 -608 0
-573 -609 0
-573 -610 0
-573 -611 0
-573 -612 0
-573 -613 0
-573 -614 0
-573 -615 0
-573 -616 0
-573 -617 0
-573 -618 0
-573 -619 0
-574 -575 0
-574 -576 0
-574 -577 0
-574 -578 0
-574 -579 0
-574 -580 0
-574 -581 0
-574 -582 0
-574 -583 0
-574 -584 0
-574 -585 0
-574 -586 0
-574 -587 0
-574 -588 0
-574 -589 0
-574 -590 0
-574 -591 0
-574 -592 0
-574 -593 0
-574 -594 0
-574 -595 0
-574 -596 0
-574 -597 0
-574 -598 0
-574 -599 0
-574 -600 0
-574 -601 0
-574 -602 0
-574 -603 0
-574 -604 0
-574 -605 0
-574 -606 0
-574 -607 0
-574 -608 0
-574 -609 0
-574 -610 0
-574 -611 0
-574 -612 0
-574 -613 0
-574 -614 0
-574 -615 0
-574 -616 0
-574 -617 0
-574 -618 0
-574 -619 0
-575 -576 0
-575 -577 0
-575 -578 0
-575 -579 0
-575 -580 0
-575 -581 0
-575 -582 0
-575 -583 0
-575 -584 0
-575 -585 0
-575 -586 0
-575 -587 0
-575 -588 0
-575 -589 0
-575 -590 0
-575 -591 0
-575 -592 0
-575 -593 0
-575 -594 0
-575 -595 0
-575 -596 0
-575 -597 0
-575 -598 0
-575 -599 0
-575 -600 0
-575 -601 0
-575 -602 0
-575 -603 0
-575 -604 0
-575 -605 0
-575 -606 0
-575 -607 0
-575 -608 0
-575 -609 0
-575 -610 0
-575 -611 0
-575 -612 0
-575 -613 0
-575 -614 0
-575 -615 0
-575 -616 0
-575 -617 0
-575 -618 0
-575 -619 0
-576 -577 0
-576 -578 0
-576 -579 0
-576 -580 0
-576 -581 0
-576 -582 0
-576 -583 0
-576 -584 0
-576 -585 0
-576 -586 0
-576 -587 0
-576 -588 0
-576 -589 0
-576 -590 0
-576 -591 0
-576 -592 0
-576 -593 0
-576 -594 0
-576 -595 0
-576 -596 0
-576 -597 0
-576 -598 0
-576 -599 0
-576 -600 0
-576 -601 0
-576 -602 0
-576 -603 0
-576 -604 0
-576 -605 0
-576 -606 0
-576 -607 0
-576 -608 0
-576 -609 0
-576 -610 0
-576 -611 0
-576 -612 0
-576 -613 0
-576 -614 0
-576 -615 0
-576 -616 0
-576 -617 0
-576 -618 0
-576 -619 0
-577 -578 0
-577 -579 0
-577 -580 0
-577 -581 0
-577 -582 0
-577 -583 0
-577 -584 0
-577 -585 0
-577 -586 0
-577 -587 0
-577 -588 0
-577 -589 0
-577 -590 0
-577 -591 0
-577 -592 0
-577 -593 0
-577 -594 0
-577 -595 0
-577 -596 0
-577 -597 0
-577 -598 0
-577 -599 0
-577 -600 0
-577 -601 0
-577 -602 0
-577 -603 0
-577 -604 0
-577 -605 0
-577 -606 0
-577 -607 0
-577 -608 0
-577 -609 0
-577 -610 0
-577 -611 0
-577 -612 0
-577 -613 0
-577 -614 0
-577 -615 0
-577 -616 0
-577 -617 0
-577 -618 0
-577 -619 0
-578 -579 0
-578 -580 0
-578 -581 0
-578 -582 0
-578 -583 0
-578 -584 0
-578 -585 0
-578 -586 0
-578 -587 0
-578 -588 0
-578 -589 0
-578 -590 0
-578 -591 0
-578 -592 0
-578 -593 0
-578 -594 0
-578 -595 0
-578 -596 0
-578 -597 0
-578 -598 0
-578 -599 0
-578 -600 0
-578 -601 0
-578 -602 0
-578 -603 0
-578 -604 0
-578 -605 0
-578 -606 0
-578 -607 0
-578 -608 0
-578 -609 0
-578 -610 0
-578 -611 0
-578 -612 0
-578 -613 0
-578 -614 0
-578 -615 0
-578 -616 0
-578 -617 0
-578 -618 0
-578 -619 0
-579 -580 0
-579 -581 0
-579 -582 0
-579 -583 0
-579 -584 0
-579 -585 0
-579 -586 0
-579 -587 0
-579 -588 0
-579 -589 0
-579 -590 0
-579 -591 0
-579 -592 0
-579 -593 0
-579 -594 0
-579 -595 0
-579 -596 0
-579 -597 0
-579 -598 0
-579 -599 0
-579 -600 0
-579 -601 0
-579 -602 0
-579 -603 0
-579 -604 0
-579 -605 0
-579 -606 0
-579 -607 0
-579 -608 0
-579 -609 0
-579 -610 0
-579 -611 0
-579 -612 0
-579 -613 0
-579 -614 0
-579 -615 0
-579 -616 0
-579 -617 0
-579 -618 0
-579 -619 0
-580 -581 0
-580 -582 0
-580 -583 0
-580 -584 0
-580 -585 0
-580 -586 0
-580 -587 0
-580 -588 0
-580 -589 0
-580 -590 0
-580 -591 0
-580 -592 0
-580 -593 0
-580 -594 0
-580 -595 0
-580 -596 0
-580 -597 0
-580 -598 0
-580 -599 0
-580 -600 0
-580 -601 0
-580 -602 0
-580 -603 0
-580 -604 0
-580 -605 0
-580 -606 0
-580 -607 0
-580 -608 0
-580 -609 0
-580 -610 0
-580 -611 0
-580 -612 0
-580 -613 0
-580 -614 0
-580 -615 0
-580 -616 0
-580 -617 0
-580 -618 0
-580 -619 0
-581 -582 0
-581 -583 0
-581 -584 0
-581 -585 0
-581 -586 0
-581 -587 0
-581 -588 0
-581 -589 0
-581 -590 0
-581 -591 0
-581 -592 0
-581 -593 0
-581 -594 0
-581 -595 0
-581 -596 0
-581 -597 0
-581 -598 0
-581 -599 0
-581 -600 0
-581 -601 0
-581 -602 0
-581 -603 0
-581 -604 0
-581 -605 0
-581 -606 0
-581 -607 0
-581 -608 0
-581 -609 0
-581 -610 0
-581 -611 0
-581 -612 0
-581 -613 0
-581 -614 0
-581 -615 0
-581 -616 0
-581 -617 0
-581 -618 0
-581 -619 0
-582 -583 0
-582 -584 0
-582 -585 0
-582 -586 0
-582 -587 0
-582 -588 0
-582 -589 0
-582 -590 0
-582 -591 0
-582 -592 0
-582 -593 0
-582 -594 0
-582 -595 0
-582 -596 0
-582 -597 0
-582 -598 0
-582 -599 0
-582 -600 0
-582 -601 0
-582 -602 0
-582 -603 0
-582 -604 0
-582 -605 0
-582 -606 0
-582 -607 0
-582 -608 0
-582 -609 0
-582 -610 0
-582 -611 0
-582 -612 0
-582 -613 0
-582 -614 0
-582 -615 0
-582 -616 0
-582 -617 0
-582 -618 0
-582 -619 0
-583 -584 0
-583 -585 0
-583 -586 0
-583 -587 0
-583 -588 0
-583 -589 0
-583 -590 0
-583 -591 0
-583 -592 0
-583 -593 0
-583 -594 0
-583 -595 0
-583 -596 0
-583 -597 0
-583 -598 0
-583 -599 0
-583 -600 0
-583 -601 0
-583 -602 0
-583 -603 0
-583 -604 0
-583 -605 0
-583 -606 0
-583 -607 0
-583 -608 0
-583 -609 0
-583 -610 0
-583 -611 0
-583 -612 0
-583 -613 0
-583 -614 0
-583 -615 0
-583 -616 0
-583 -617 0
-583 -618 0
-583 -619 0
-584 -585 0
-584 -586 0
-584 -587 0
-584 -588 0
-584 -589 0
-584 -590 0
-584 -591 0
-584 -592 0
-584 -593 0
-584 -594 0
-584 -595 0
-584 -596 0
-584 -597 0
-584 -598 0
-584 -599 0
-584 -600 0
-584 -601 0
-584 -602 0
-584 -603 0
-584 -604 0
-584 -605 0
-584 -606 0
-584 -607 0
-584 -608 0
-584 -609 0
-584 -610 0
-584 -611 0
-584 -612 0
-584 -613 0
-584 -614 0
-584 -615 0
-584 -616 0
-584 -617 0
-584 -618 0
-584 -619 0
-585 -586 0
-585 -587 0
-585 -588 0
-585 -589 0
-585 -590 0
-585 -591 0
-585 -592 0
-585 -593 0
-585 -594 0
-585 -595 0
-585 -596 0
-585 -597 0
-585 -598 0
-585 -599 0
-585 -600 0
-585 -601 0
-585 -602 0
-585 -603 0
-585 -604 0
-585 -605 0
-585 -606 0
-585 -607 0
-585 -608 0
-585 -609 0
-585 -610 0
-585 -611 0
-585 -612 0
-585 -613 0
-585 -614 0
-585 -615 0
-585 -616 0
-585 -617 0
-585 -618 0
-585 -619 0
-586 -587 0
-586 -588 0
-586 -589 0
-586 -590 0
-586 -591 0
-586 -592 0
-586 -593 0
-586 -594 0
-586 -595 0
-586 -596 0
-586 -597 0
-586 -598 0
-586 -599 0
-586 -600 0
-586 -601 0
-586 -602 0
-586 -603 0
-586 -604 0
-586 -605 0
-586 -606 0
-586 -607 0
-586 -608 0
-586 -609 0
-586 -610 0
-586 -611 0
-586 -612 0
-586 -613 0
-586 -614 0
-586 -615 0
-586 -616 0
-586 -617 0
-586 -618 0
-586 -619 0
-587 -588 0
-587 -589 0
-587 -590 0
-587 -591 0
-587 -592 0
-587 -593 0
-587 -594 0
-587 -595 0
-587 -596 0
-587 -597 0
-587 -598 0
-587 -599 0
-587 -600 0
-587 -601 0
-587 -602 0
-587 -603 0
-587 -604 0
-587 -605 0
-587 -606 0
-587 -607 0
-587 -608 0
-587 -609 0
-587 -610 0
-587 -611 0
-587 -612 0
-587 -613 0
-587 -614 0
-587 -615 0
-587 -616 0
-587 -617 0
-587 -618 0
-587 -619 0
-588 -589 0
-588 -590 0
-588 -591 0
-588 -592 0
-588 -593 0
-588 -594 0
-588 -595 0
-588 -596 0
-588 -597 0
-588 -598 0
-588 -599 0
-588 -600 0
-588 -601 0
-588 -602 0
-588 -603 0
-588 -604 0
-588 -605 0
-588 -606 0
-588 -607 0
-588 -608 0
-588 -609 0
-588 -610 0
-588 -611 0
-588 -612 0
-588 -613 0
-588 -614 0
-588 -615 0
-588 -616 0
-588 -617 0
-588 -618 0
-588 -619 0
-589 -590 0
-589 -591 0
-589 -592 0
-589 -593 0
-589 -594 0
-589 -595 0
-589 -596 0
-589 -597 0
-589 -598 0
-589 -599 0
-589 -600 0
-589 -601 0
-589 -602 0
-589 -603 0
-589 -604 0
-589 -605 0
-589 -606 0
-589 -607 0
-589 -608 0
-589 -609 0
-589 -610 0
-589 -611 0
-589 -612 0
-589 -613 0
-589 -614 0
-589 -615 0
-589 -616 0
-589 -617 0
-589 -618 0
-589 -619 0
-590 -591 0
-590 -592 0
-590 -593 0
-590 -594 0
-590 -595 0
-590 -596 0
-590 -597 0
-590 -598 0
-590 -599 0
-590 -600 0
-590 -601 0
-590 -602 0
-590 -603 0
-590 -604 0
-590 -605 0
-590 -606 0
-590 -607 0
-590 -608 0
-590 -609 0
-590 -610 0
-590 -611 0
-590 -612 0
-590 -613 0
-590 -614 0
-590 -615 0
-590 -616 0
-590 -617 0
-590 -618 0
-590 -619 0
-591 -592 0
-591 -593 0
-591 -594 0
-591 -595 0
-591 -596 0
-591 -597 0
-591 -598 0
-591 -599 0
-591 -600 0
-591 -601 0
-591 -602 0
-591 -603 0
-591 -604 0
-591 -605 0
-591 -606 0
-591 -607 0
-591 -608 0
-591 -609 0
-591 -610 0
-591 -611 0
-591 -612 0
-591 -613 0
-591 -614 0
-591 -615 0
-591 -616 0
-591 -617 0
-591 -618 0
-591 -619 0
-592 -593 0
-592 -594 0
-592 -595 0
-592 -596 0
-592 -597 0
-592 -598 0
-592 -599 0
-592 -600 0
-592 -601 0
-592 -602 0
-592 -603 0
-592 -604 0
-592 -605 0
-592 -606 0
-592 -607 0
-592 -608 0
-592 -609 0
-592 -610 0
-592 -611 0
-592 -612 0
-592 -613 0
-592 -614 0
-592 -615 0
-592 -616 0
-592 -617 0
-592 -618 0
-592 -619 0
-593 -594 0
-593 -595 0
-593 -596 0
-593 -597 0
-593 -598 0
-593 -599 0
-593 -600 0
-593 -601 0
-593 -602 0
-593 -603 0
-593 -604 0
-593 -605 0
-593 -606 0
-593 -607 0
-593 -608 0
-593 -609 0
-593 -610 0
-593 -611 0
-593 -612 0
-593 -613 0
-593 -614 0
-593 -615 0
-593 -616 0
-593 -617 0
-593 -618 0
-593 -619 0
-594 -595 0
-594 -596 0
-594 -597 0
-594 -598 0
-594 -599 0
-594 -600 0
-594 -601 0
-594 -602 0
-594 -603 0
-594 -604 0
-594 -605 0
-594 -606 0
-594 -607 0
-594 -608 0
-594 -609 0
-594 -610 0
-594 -611 0
-594 -612 0
-594 -613 0
-594 -614 0
-594 -615 0
-594 -616 0
-594 -617 0
-594 -618 0
-594 -619 0
-595 -596 0
-595 -597 0
-595 -598 0
-595 -599 0
-595 -600 0
-595 -601 0
-595 -602 0
-595 -603 0
-595 -604 0
-595 -605 0
-595 -606 0
-595 -607 0
-595 -608 0
-595 -609 0
-595 -610 0
-595 -611 0
-595 -612 0
-595 -613 0
-595 -614 0
-595 -615 0
-595 -616 0
-595 -617 0
-595 -618 0
-595 -619 0
-596 -597 0
-596 -598 0
-596 -599 0
-596 -600 0
-596 -601 0
-596 -602 0
-596 -603 0
-596 -604 0
-596 -605 0
-596 -606 0
-596 -607 0
-596 -608 0
-596 -609 0
-596 -610 0
-596 -611 0
-596 -612 0
-596 -613 0
-596 -614 0
-596 -615 0
-596 -616 0
-596 -617 0
-596 -618 0
-596 -619 0
-597 -598 0
-597 -599 0
-597 -600 0
-597 -601 0
-597 -602 0
-597 -603 0
-597 -604 0
-597 -605 0
-597 -606 0
-597 -607 0
-597 -608 0
-597 -609 0
-597 -610 0
-597 -611 0
-597 -612 0
-597 -613 0
-597 -614 0
-597 -615 0
-597 -616 0
-597 -617 0
-597 -618 0
-597 -619 0
-598 -599 0
-598 -600 0
-598 -601 0
-598 -602 0
-598 -603 0
-598 -604 0
-598 -605 0
-598 -606 0
-598 -607 0
-598 -608 0
-598 -609 0
-598 -610 0
-598 -611 0
-598 -612 0
-598 -613 0
-598 -614 0
-598 -615 0
-598 -616 0
-598 -617 0
-598 -618 0
-598 -619 0
-599 -600 0
-599 -601 0
-599 -602 0
-599 -603 0
-599 -604 0
-599 -605 0
-599 -606 0
-599 -607 0
-599 -608 0
-599 -609 0
-599 -610 0
-599 -611 0
-599 -612 0
-599 -613 0
-599 -614 0
-599 -615 0
-599 -616 0
-599 -617 0
-599 -618 0
-599 -619 0
-600 -601 0
-600 -602 0
-600 -603 0
-600 -604 0
-600 -605 0
-600 -606 0
-600 -607 0
-600 -608 0
-600 -609 0
-600 -610 0
-600 -611 0
-600 -612 0
-600 -613 0
-600 -614 0
-600 -615 0
-600 -616 0
-600 -617 0
-600 -618 0
-600 -619 0
-601 -602 0
-601 -603 0
-601 -604 0
-601 -605 0
-601 -606 0
-601 -607 0
-601 -608 0
-601 -609 0
-601 -610 0
-601 -611 0
-601 -612 0
-601 -613 0
-601 -614 0
-601 -615 0
-601 -616 0
-601 -617 0
-601 -618 0
-601 -619 0
-602 -603 0
-602 -604 0
-602 -605 0
-602 -606 0
-602 -607 0
-602 -608 0
-602 -609 0
-602 -610 0
-602 -611 0
-602 -612 0
-602 -613 0
-602 -614 0
-602 -615 0
-602 -616 0
-602 -617 0
-602 -618 0
-602 -619 0
-603 -604 0
-603 -605 0
-603 -606 0
-603 -607 0
-603 -608 0
-603 -609 0
-603 -610 0
-603 -611 0
-603 -612 0
-603 -613 0
-603 -614 0
-603 -615 0
-603 -616 0
-603 -617 0
-603 -618 0
-603 -619 0
-604 -605 0
-604 -606 0
-604 -607 0
-604 -608 0
-604 -609 0
-604 -610 0
-604 -611 0
-604 -612 0
-604 -613 0
-604 -614 0
-604 -615 0
-604 -616 0
-604 -617 0
-604 -618 0
-604 -619 0
-605 -606 0
-605 -607 0
-605 -608 0
-605 -609 0
-605 -610 0
-605 -611 0
-605 -612 0
-605 -613 0
-605 -614 0
-605 -615 0
-605 -616 0
-605 -617 0
-605 -618 0
-605 -619 0
-606 -607 0
-606 -608 0
-606 -609 0
-606 -610 0
-606 -611 0
-606 -612 0
-606 -613 0
-606 -614 0
-606 -615 0
-606 -616 0
-606 -617 0
-606 -618 0
-606 -619 0
-607 -608 0
-607 -609 0
-607 -610 0
-607 -611 0
-607 -612 0
-607 -613 0
-607 -614 0
-607 -615 0
-607 -616 0
-607 -617 0
-607 -618 0
-607 -619 0
-608 -609 0
-608 -610 0
-608 -611 0
-608 -612 0
-608 -613 0
-608 -614 0
-608 -615 0
-608 -616 0
-608 -617 0
-608 -618 0
-608 -619 0
-609 -610 0
-609 -611 0
-609 -612 0
-609 -613 0
-609 -614 0
-609 -615 0
-609 -616 0
-609 -617 0
-609 -618 0
-609 -619 0
-610 -611 0
-610 -612 0
-610 -613 0
-610 -614 0
-610 -615 0
-610 -616 0
-610 -617 0
-610 -618 0
-610 -619 0
-611 -612 0
-611 -613 0
-611 -614 0
-611 -615 0
-611 -616 0
-611 -617 0
-611 -618 0
-611 -619 0
-612 -613 0
-612 -614 0
-612 -615 0
-612 -616 0
-612 -617 0
-612 -618 0
-612 -619 0
-613 -614 0
-613 -615 0
-613 -616 0
-613 -617 0
-613 -618 0
-613 -619 0
-614 -615 0
-614 -616 0
-614 -617 0
-614 -618 0
-614 -619 0
-615 -616 0
-615 -617 0
-615 -618 0
-615 -619 0
-616 -617 0
-616 -618 0
-616 -619 0
-617 -618 0
-617 -619 0
-618 -619 0
-620 536 537 538 539 540 541 542 543 544 545 546 547 548 549 550 551 552 553 554 555 556 557 558 559 0
-536 620 0
-537 620 0
-538 620 0
-539 620 0
-540 620 0
-541 620 0
-542 620 0
-543 620 0
-544 620 0
-545 620 0
-546 620 0
-547 620 0
-548 620 0
-549 620 0
-550 620 0
-551 620 0
-552 620 0
-553 620 0
-554 620 0
-555 620 0
-556 620 0
-557 620 0
-558 620 0
-559 620 0
620 -150 299 0
620 150 -299 0
620 -151 300 0
620 151 -300 0
620 -152 301 0
620 152 -301 0
620 -153 302 0
620 153 -302 0
620 -154 303 0
620 154 -303 0
620 -155 304 0
620 155 -304 0
620 -156 305 0
620 156 -305 0
620 -157 306 0
620 157 -306 0
620 -158 307 0
620 158 -307 0
620 -159 308 0
620 159 -308 0
-621 560 561 562 563 564 565 566 567 568 569 570 571 572 573 574 575 576 577 578 579 580 581 582 583 0
-560 621 0
-561 621 0
-562 621 0
-563 621 0
-564 621 0
-565 621 0
-566 621 0
-567 621 0
-568 621 0
-569 621 0
-570 621 0
-571 621 0
-572 621 0
-573 621 0
-574 621 0
-575 621 0
-576 621 0
-577 621 0
-578 621 0
-579 621 0
-580 621 0
-581 621 0
-582 621 0
-583 621 0
621 -160 309 0
621 160 -309 0
621 -161 310 0
621 161 -310 0
621 -162 311 0
621 162 -311 0
621 -163 312 0
621 163 -312 0
621 -164 313 0
621 164 -313 0
621 -165 314 0
621 165 -314 0
621 -166 315 0
621 166 -315 0
621 -167 316 0
621 167 -316 0
621 -168 317 0
621 168 -317 0
621 -169 318 0
621 169 -318 0
-622 584 585 586 587 588 589 590 591 592 593 594 595 596 597 598 599 600 601 602 603 0
-584 622 0
-585 622 0
-586 622 0
-587 622 0
-588 622 0
-589 622 0
-590 622 0
-591 622 0
-592 622 0
-593 622 0
-594 622 0
-595 622 0
-596 622 0
-597 622 0
-598 622 0
-599 622 0
-600 622 0
-601 622 0
-602 622 0
-603 622 0
622 -170 319 0
622 170 -319 0
622 -171 320 0
622 171 -320 0
622 -172 321 0
622 172 -321 0
622 -173 322 0
622 173 -322 0
622 -174 323 0
622 174 -323 0
622 -175 324 0
622 175 -324 0
622 -176 325 0
622 176 -325 0
622 -177 326 0
622 177 -326 0
622 -178 327 0
622 178 -327 0
-623 604 605 606 607 608 609 610 611 612 613 614 615 616 617 618 619 0
-604 623 0
-605 623 0
-606 623 0
-607 623 0
-608 623 0
-609 623 0
-610 623 0
-611 623 0
-612 623 0
-613 623 0
-614 623 0
-615 623 0
-616 623 0
-617 623 0
-618 623 0
-619 623 0
623 -179 328 0
623 179 -328 0
623 -180 329 0
623 180 -329 0
623 -181 330 0
623 181 -330 0
623 -182 331 0
623 182 -331 0
623 -183 332 0
623 183 -332 0
623 -184 333 0
623 184 -333 0
623 -185 334 0
623 185 -334 0
623 -186 335 0
623 186 -335 0
-536 295 0
-536 299 0
-536 -161 0
-536 -162 0
-536 -163 0
-536 -164 0
-536 -165 0
-536 -169 0
-536 -166 306 0
-536 -166 -150 -157 0
-536 -166 -212 0
-536 -166 -213 0
-536 -166 -214 0
-536 -166 -236 0
-536 -166 -237 0
-536 -166 -238 0
-536 -166 -256 0
-536 -166 -257 0
-536 -166 -258 0
-536 -167 307 0
-536 -167 -150 -158 0
-536 -167 -213 0
-536 -167 -214 0
-536 -167 -237 0
-536 -167 -238 0
-536 -167 -257 0
-536 -167 -258 0
-536 -168 308 0
-536 -168 -150 -159 0
-536 -168 -214 0
-536 -168 -238 0
-536 -168 -258 0
-537 295 0
-537 300 0
-537 -160 0
-537 -162 0
-537 -163 0
-537 -164 0
-537 -165 0
-537 -169 0
-537 -166 306 0
-537 -166 -151 -157 0
-537 -166 -216 0
-537 -166 -217 0
-537 -166 -218 0
-537 -166 -236 0
-537 -166 -237 0
-537 -166 -238 0
-537 -166 -240 0
-537 -166 -241 0
-537 -166 -242 0
-537 -166 -256 0
-537 -166 -257 0
-537 -166 -258 0
-537 -166 -260 0
-537 -166 -261 0
-537 -166 -262 0
-537 -167 307 0
-537 -167 -151 -158 0
-537 -167 -217 0
-537 -167 -218 0
-537 -167 -237 0
-537 -167 -238 0
-537 -167 -241 0
-537 -167 -242 0
-537 -167 -257 0
-537 -167 -258 0
-537 -167 -261 0
-537 -167 -262 0
-537 -168 308 0
-537 -168 -151 -159 0
-537 -168 -218 0
-537 -168 -238 0
-537 -168 -242 0
-537 -168 -258 0
-537 -168 -262 0
-538 295 0
-538 301 0
-538 -160 0
-538 -161 0
-538 -163 0
-538 -164 0
-538 -165 0
-538 -169 0
-538 -166 306 0
-538 -166 -152 -157 0
-538 -166 -220 0
-538 -166 -221 0
-538 -166 -222 0
-538 -166 -240 0
-538 -166 -241 0
-538 -166 -242 0
-538 -166 -244 0
-538 -166 -245 0
-538 -166 -246 0
-538 -166 -256 0
-538 -166 -257 0
-538 -166 -258 0
-538 -166 -260 0
-538 -166 -261 0
-538 -166 -262 0
-538 -166 -264 0
-538 -166 -265 0
-538 -166 -266 0
-538 -167 307 0
-538 -167 -152 -158 0
-538 -167 -221 0
-538 -167 -222 0
-538 -167 -241 0
-538 -167 -242 0
-538 -167 -245 0
-538 -167 -246 0
-538 -167 -257 0
-538 -167 -258 0
-538 -167 -261 0
-538 -167 -262 0
-538 -167 -265 0
-538 -167 -266 0
-538 -168 308 0
-538 -168 -152 -159 0
-538 -168 -222 0
-538 -168 -242 0
-538 -168 -246 0
-538 -168 -258 0
-538 -168 -262 0
-538 -168 -266 0
-539 295 0
-539 302 0
-539 -160 0
-539 -161 0
-539 -162 0
-539 -164 0
-539 -165 0
-539 -169 0
-539 -166 306 0
-539 -166 -153 -157 0
-539 -166 -224 0
-539 -166 -225 0
-539 -166 -226 0
-539 -166 -244 0
-539 -166 -245 0
-539 -166 -246 0
-539 -166 -248 0
-539 -166 -249 0
-539 -166 -250 0
-539 -166 -260 0
-539 -166 -261 0
-539 -166 -262 0
-539 -166 -264 0
-539 -166 -265 0
-539 -166 -266 0
-539 -166 -268 0
-539 -166 -269 0
-539 -166 -270 0
-539 -167 307 0
-539 -167 -153 -158 0
-539 -167 -225 0
-539 -167 -226 0
-539 -167 -245 0
-539 -167 -246 0
-539 -167 -249 0
-539 -167 -250 0
-539 -167 -261 0
-539 -167 -262 0
-539 -167 -265 0
-539 -167 -266 0
-539 -167 -269 0
-539 -167 -270 0
-539 -168 308 0
-539 -168 -153 -159 0
-539 -168 -226 0
-539 -168 -246 0
-539 -168 -250 0
-539 -168 -262 0
-539 -168 -266 0
-539 -168 -270 0
-540 295 0
-540 303 0
-540 -160 0
-540 -161 0
-540 -162 0
-540 -163 0
-540 -165 0
-540 -169 0
-540 -166 306 0
-540 -166 -154 -157 0
-540 -166 -228 0
-540 -166 -229 0
-540 -166 -230 0
-540 -166 -248 0
-540 -166 -249 0
-540 -166 -250 0
-540 -166 -252 0
-540 -166 -253 0
-540 -166 -254 0
-540 -166 -264 0
-540 -166 -265 0
-540 -166 -266 0
-540 -166 -268 0
-540 -166 -269 0
-540 -166 -270 0
-540 -167 307 0
-540 -167 -154 -158 0
-540 -167 -229 0
-540 -167 -230 0
-540 -167 -249 0
-540 -167 -250 0
-540 -167 -253 0
-540 -167 -254 0
-540 -167 -265 0
-540 -167 -266 0
-540 -167 -269 0
-540 -167 -270 0
-540 -168 308 0
-540 -168 -154 -159 0
-540 -168 -230 0
-540 -168 -250 0
-540 -168 -254 0
-540 -168 -266 0
-540 -168 -270 0
-541 295 0
-541 304 0
-541 -160 0
-541 -161 0
-541 -162 0
-541 -163 0
-541 -164 0
-541 -169 0
-541 -166 306 0
-541 -166 -155 -157 0
-541 -166 -232 0
-541 -166 -233 0
-541 -166 -234 0
-541 -166 -252 0
-541 -166 -253 0
-541 -166 -254 0
-541 -166 -268 0
-541 -166 -269 0
-541 -166 -270 0
-541 -167 307 0
-541 -167 -155 -158 0
-541 -167 -233 0
-541 -167 -234 0
-541 -167 -253 0
-541 -167 -254 0
-541 -167 -269 0
-541 -167 -270 0
-541 -168 308 0
-541 -168 -155 -159 0
-541 -168 -234 0
-541 -168 -254 0
-541 -168 -270 0
-542 295 0
-542 299 0
-542 -171 0
-542 -172 0
-542 -173 0
-542 -174 0
-542 -178 0
-542 -175 306 0
-542 -175 -150 -157 0
-542 -175 -212 0
-542 -175 -213 0
-542 -175 -214 0
-542 -175 -236 0
-542 -175 -237 0
-542 -175 -238 0
-542 -175 -256 0
-542 -175 -257 0
-542 -175 -258 0
-542 -176 307 0
-542 -176 -150 -158 0
-542 -176 -213 0
-542 -176 -214 0
-542 -176 -237 0
-542 -176 -238 0
-542 -176 -257 0
-542 -176 -258 0
-542 -177 308 0
-542 -177 -150 -159 0
-542 -177 -214 0
-542 -177 -238 0
-542 -177 -258 0
-543 295 0
-543 300 0
-543 -172 0
-543 -173 0
-543 -174 0
-543 -178 0
-543 -175 306 0
-543 -175 -151 -157 0
-543 -175 -216 0
-543 -175 -217 0
-543 -175 -218 0
-543 -175 -236 0
-543 -175 -237 0
-543 -175 -238 0
-543 -175 -240 0
-543 -175 -241 0
-543 -175 -242 0
-543 -175 -256 0
-543 -175 -257 0
-543 -175 -258 0
-543 -175 -260 0
-543 -175 -261 0
-543 -175 -262 0
-543 -176 307 0
-543 -176 -151 -158 0
-543 -176 -217 0
-543 -176 -218 0
-543 -176 -237 0
-543 -176 -238 0
-543 -176 -241 0
-543 -176 -242 0
-543 -176 -257 0
-543 -176 -258 0
-543 -176 -261 0
-543 -176 -262 0
-543 -177 308 0
-543 -177 -151 -159 0
-543 -177 -218 0
-543 -177 -238 0
-543 -177 -242 0
-543 -177 -258 0
-543 -177 -262 0
-544 295 0
-544 301 0
-544 -170 0
-544 -173 0
-544 -174 0
-544 -178 0
-544 -175 306 0
-544 -175 -152 -157 0
-544 -175 -220 0
-544 -175 -221 0
-544 -175 -222 0
-544 -175 -240 0
-544 -175 -241 0
-544 -175 -242 0
-544 -175 -244 0
-544 -175 -245 0
-544 -175 -246 0
-544 -175 -256 0
-544 -175 -257 0
-544 -175 -258 0
-544 -175 -260 0
-544 -175 -261 0
-544 -175 -262 0
-544 -175 -264 0
-544 -175 -265 0
-544 -175 -266 0
-544 -176 307 0
-544 -176 -152 -158 0
-544 -176 -221 0
-544 -176 -222 0
-544 -176 -241 0
-544 -176 -242 0
-544 -176 -245 0
-544 -176 -246 0
-544 -176 -257 0
-544 -176 -258 0
-544 -176 -261 0
-544 -176 -262 0
-544 -176 -265 0
-544 -176 -266 0
-544 -177 308 0
-544 -177 -152 -159 0
-544 -177 -222 0
-544 -177 -242 0
-544 -177 -246 0
-544 -177 -258 0
-544 -177 -262 0
-544 -177 -266 0
-545 295 0
-545 302 0
-545 -170 0
-545 -171 0
-545 -174 0
-545 -178 0
-545 -175 306 0
-545 -175 -153 -157 0
-545 -175 -224 0
-545 -175 -225 0
-545 -175 -226 0
-545 -175 -244 0
-545 -175 -245 0
-545 -175 -246 0
-545 -175 -248 0
-545 -175 -249 0
-545 -175 -250 0
-545 -175 -260 0
-545 -175 -261 0
-545 -175 -262 0
-545 -175 -264 0
-545 -175 -265 0
-545 -175 -266 0
-545 -175 -268 0
-545 -175 -269 0
-545 -175 -270 0
-545 -176 307 0
-545 -176 -153 -158 0
-545 -176 -225 0
-545 -176 -226 0
-545 -176 -245 0
-545 -176 -246 0
-545 -176 -249 0
-545 -176 -250 0
-545 -176 -261 0
-545 -176 -262 0
-545 -176 -265 0
-545 -176 -266 0
-545 -176 -269 0
-545 -176 -270 0
-545 -177 308 0
-545 -177 -153 -159 0
-545 -177 -226 0
-545 -177 -246 0
-545 -177 -250 0
-545 -177 -262 0
-545 -177 -266 0
-545 -177 -270 0
-546 295 0
-546 303 0
-546 -170 0
-546 -171 0
-546 -172 0
-546 -178 0
-546 -175 306 0
-546 -175 -154 -157 0
-546 -175 -228 0
-546 -175 -229 0
-546 -175 -230 0
-546 -175 -248 0
-546 -175 -249 0
-546 -175 -250 0
-546 -175 -252 0
-546 -175 -253 0
-546 -175 -254 0
-546 -175 -264 0
-546 -175 -265 0
-546 -175 -266 0
-546 -175 -268 0
-546 -175 -269 0
-546 -175 -270 0
-546 -176 307 0
-546 -176 -154 -158 0
-546 -176 -229 0
-546 -176 -230 0
-546 -176 -249 0
-546 -176 -250 0
-546 -176 -253 0
-546 -176 -254 0
-546 -176 -265 0
-546 -176 -266 0
-546 -176 -269 0
-546 -176 -270 0
-546 -177 308 0
-546 -177 -154 -159 0
-546 -177 -230 0
-546 -177 -250 0
-546 -177 -254 0
-546 -177 -266 0
-546 -177 -270 0
-547 295 0
-547 304 0
-547 -170 0
-547 -171 0
-547 -172 0
-547 -173 0
-547 -178 0
-547 -175 306 0
-547 -175 -155 -157 0
-547 -175 -232 0
-547 -175 -233 0
-547 -175 -234 0
-547 -175 -252 0
-547 -175 -253 0
-547 -175 -254 0
-547 -175 -268 0
-547 -175 -269 0
-547 -175 -270 0
-547 -176 307 0
-547 -176 -155 -158 0
-547 -176 -233 0
-547 -176 -234 0
-547 -176 -253 0
-547 -176 -254 0
-547 -176 -269 0
-547 -176 -270 0
-547 -177 308 0
-547 -177 -155 -159 0
-547 -177 -234 0
-547 -177 -254 0
-547 -177 -270 0
-548 295 0
-548 299 0
-548 -180 0
-548 -181 0
-548 -182 0
-548 -186 0
-548 -183 306 0
-548 -183 -150 -157 0
-548 -183 -212 0
-548 -183 -213 0
-548 -183 -214 0
-548 -183 -236 0
-548 -183 -237 0
-548 -183 -238 0
-548 -183 -256 0
-548 -183 -257 0
-548 -183 -258 0
-548 -184 307 0
-548 -184 -150 -158 0
-548 -184 -213 0
-548 -184 -214 0
-548 -184 -237 0
-548 -184 -238 0
-548 -184 -257 0
-548 -184 -258 0
-548 -185 308 0
-548 -185 -150 -159 0
-548 -185 -214 0
-548 -185 -238 0
-548 -185 -258 0
-549 295 0
-549 300 0
-549 -181 0
-549 -182 0
-549 -186 0
-549 -183 306 0
-549 -183 -151 -157 0
-549 -183 -216 0
-549 -183 -217 0
-549 -183 -218 0
-549 -183 -236 0
-549 -183 -237 0
-549 -183 -238 0
-549 -183 -240 0
-549 -183 -241 0
-549 -183 -242 0
-549 -183 -256 0
-549 -183 -257 0
-549 -183 -258 0
-549 -183 -260 0
-549 -183 -261 0
-549 -183 -262 0
-549 -184 307 0
-549 -184 -151 -158 0
-549 -184 -217 0
-549 -184 -218 0
-549 -184 -237 0
-549 -184 -238 0
-549 -184 -241 0
-549 -184 -242 0
-549 -184 -257 0
-549 -184 -258 0
-549 -184 -261 0
-549 -184 -262 0
-549 -185 308 0
-549 -185 -151 -159 0
-549 -185 -218 0
-549 -185 -238 0
-549 -185 -242 0
-549 -185 -258 0
-549 -185 -262 0
-550 295 0
-550 301 0
-550 -182 0
-550 -186 0
-550 -183 306 0
-550 -183 -152 -157 0
-550 -183 -220 0
-550 -183 -221 0
-550 -183 -222 0
-550 -183 -240 0
-550 -183 -241 0
-550 -183 -242 0
-550 -183 -244 0
-550 -183 -245 0
-550 -183 -246 0
-550 -183 -256 0
-550 -183 -257 0
-550 -183 -258 0
-550 -183 -260 0
-550 -183 -261 0
-550 -183 -262 0
-550 -183 -264 0
-550 -183 -265 0
-550 -183 -266 0
-550 -184 307 0
-550 -184 -152 -158 0
-550 -184 -221 0
-550 -184 -222 0
-550 -184 -241 0
-550 -184 -242 0
-550 -184 -245 0
-550 -184 -246 0
-550 -184 -257 0
-550 -184 -258 0
-550 -184 -261 0
-550 -184 -262 0
-550 -184 -265 0
-550 -184 -266 0
-550 -185 308 0
-550 -185 -152 -159 0
-550 -185 -222 0
-550 -185 -242 0
-550 -185 -246 0
-550 -185 -258 0
-550 -185 -262 0
-550 -185 -266 0
-551 295 0
-551 302 0
-551 -179 0
-551 -186 0
-551 -183 306 0
-551 -183 -153 -157 0
-551 -183 -224 0
-551 -183 -225 0
-551 -183 -226 0
-551 -183 -244 0
-551 -183 -245 0
-551 -183 -246 0
-551 -183 -248 0
-551 -183 -249 0
-551 -183 -250 0
-551 -183 -260 0
-551 -183 -261 0
-551 -183 -262 0
-551 -183 -264 0
-551 -183 -265 0
-551 -183 -266 0
-551 -183 -268 0
-551 -183 -269 0
-551 -183 -270 0
-551 -184 307 0
-551 -184 -153 -158 0
-551 -184 -225 0
-551 -184 -226 0
-551 -184 -245 0
-551 -184 -246 0
-551 -184 -249 0
-551 -184 -250 0
-551 -184 -261 0
-551 -184 -262 0
-551 -184 -265 0
-551 -184 -266 0
-551 -184 -269 0
-551 -184 -270 0
-551 -185 308 0
-551 -185 -153 -159 0
-551 -185 -226 0
-551 -185 -246 0
-551 -185 -250 0
-551 -185 -262 0
-551 -185 -266 0
-551 -185 -270 0
-552 295 0
-552 303 0
-552 -179 0
-552 -180 0
-552 -186 0
-552 -183 306 0
-552 -183 -154 -157 0
-552 -183 -228 0
-552 -183 -229 0
-552 -183 -230 0
-552 -183 -248 0
-552 -183 -249 0
-552 -183 -250 0
-552 -183 -252 0
-552 -183 -253 0
-552 -183 -254 0
-552 -183 -264 0
-552 -183 -265 0
-552 -183 -266 0
-552 -183 -268 0
-552 -183 -269 0
-552 -183 -270 0
-552 -184 307 0
-552 -184 -154 -158 0
-552 -184 -229 0
-552 -184 -230 0
-552 -184 -249 0
-552 -184 -250 0
-552 -184 -253 0
-552 -184 -254 0
-552 -184 -265 0
-552 -184 -266 0
-552 -184 -269 0
-552 -184 -270 0
-552 -185 308 0
-552 -185 -154 -159 0
-552 -185 -230 0
-552 -185 -250 0
-552 -185 -254 0
-552 -185 -266 0
-552 -185 -270 0
-553 295 0
-553 304 0
-553 -179 0
-553 -180 0
-553 -181 0
-553 -186 0
-553 -183 306 0
-553 -183 -155 -157 0
-553 -183 -232 0
-553 -183 -233 0
-553 -183 -234 0
-553 -183 -252 0
-553 -183 -253 0
-553 -183 -254 0
-553 -183 -268 0
-553 -183 -269 0
-553 -183 -270 0
-553 -184 307 0
-553 -184 -155 -158 0
-553 -184 -233 0
-553 -184 -234 0
-553 -184 -253 0
-553 -184 -254 0
-553 -184 -269 0
-553 -184 -270 0
-553 -185 308 0
-553 -185 -155 -159 0
-553 -185 -234 0
-553 -185 -254 0
-553 -185 -270 0
-554 295 0
-554 299 0
-554 305 0
-554 -150 -156 0
-554 -211 0
-554 -212 0
-554 -213 0
-554 -214 0
-554 -235 0
-554 -236 0
-554 -237 0
-554 -238 0
-554 -255 0
-554 -256 0
-554 -257 0
-554 -258 0
-555 295 0
-555 300 0
-555 305 0
-555 -151 -156 0
-555 -215 0
-555 -216 0
-555 -217 0
-555 -218 0
-555 -235 0
-555 -236 0
-555 -237 0
-555 -238 0
-555 -239 0
-555 -240 0
-555 -241 0
-555 -242 0
-555 -255 0
-555 -256 0
-555 -257 0
-555 -258 0
-555 -259 0
-555 -260 0
-555 -261 0
-555 -262 0
-556 295 0
-556 301 0
-556 305 0
-556 -152 -156 0
-556 -219 0
-556 -220 0
-556 -221 0
-556 -222 0
-556 -239 0
-556 -240 0
-556 -241 0
-556 -242 0
-556 -243 0
-556 -244 0
-556 -245 0
-556 -246 0
-556 -255 0
-556 -256 0
-556 -257 0
-556 -258 0
-556 -259 0
-556 -260 0
-556 -261 0
-556 -262 0
-556 -263 0
-556 -264 0
-556 -265 0
-556 -266 0
-557 295 0
-557 302 0
-557 305 0
-557 -153 -156 0
-557 -223 0
-557 -224 0
-557 -225 0
-557 -226 0
-557 -243 0
-557 -244 0
-557 -245 0
-557 -246 0
-557 -247 0
-557 -248 0
-557 -249 0
-557 -250 0
-557 -259 0
-557 -260 0
-557 -261 0
-557 -262 0
-557 -263 0
-557 -264 0
-557 -265 0
-557 -266 0
-557 -267 0
-557 -268 0
-557 -269 0
-557 -270 0
-558 295 0
-558 303 0
-558 305 0
-558 -154 -156 0
-558 -227 0
-558 -228 0
-558 -229 0
-558 -230 0
-558 -247 0
-558 -248 0
-558 -249 0
-558 -250 0
-558 -251 0
-558 -252 0
-558 -253 0
-558 -254 0
-558 -263 0
-558 -264 0
-558 -265 0
-558 -266 0
-558 -267 0
-558 -268 0
-558 -269 0
-558 -270 0
-559 295 0
-559 304 0
-559 305 0
-559 -155 -156 0
-559 -231 0
-559 -232 0
-559 -233 0
-559 -234 0
-559 -251 0
-559 -252 0
-559 -253 0
-559 -254 0
-559 -267 0
-559 -268 0
-559 -269 0
-559 -270 0
-560 296 0
-560 309 0
-560 -151 0
-560 -152 0
-560 -153 0
-560 -154 0
-560 -155 0
-560 -159 0
-560 -156 316 0
-560 -156 -160 -167 0
-560 -156 -188 0
-560 -156 -189 0
-560 -156 -190 0
-560 -156 -236 0
-560 -156 -237 0
-560 -156 -238 0
-560 -156 -256 0
-560 -156 -257 0
-560 -156 -258 0
-560 -157 317 0
-560 -157 -160 -168 0
-560 -157 -189 0
-560 -157 -190 0
-560 -157 -237 0
-560 -157 -238 0
-560 -157 -257 0
-560 -157 -258 0
-560 -158 318 0
-560 -158 -160 -169 0
-560 -158 -190 0
-560 -158 -238 0
-560 -158 -258 0
-561 296 0
-561 310 0
-561 -150 0
-561 -152 0
-561 -153 0
-561 -154 0
-561 -155 0
-561 -159 0
-561 -156 316 0
-561 -156 -161 -167 0
-561 -156 -192 0
-561 -156 -193 0
-561 -156 -194 0
-561 -156 -236 0
-561 -156 -237 0
-561 -156 -238 0
-561 -156 -240 0
-561 -156 -241 0
-561 -156 -242 0
-561 -156 -256 0
-561 -156 -257 0
-561 -156 -258 0
-561 -156 -260 0
-561 -156 -261 0
-561 -156 -262 0
-561 -157 317 0
-561 -157 -161 -168 0
-561 -157 -193 0
-561 -157 -194 0
-561 -157 -237 0
-561 -157 -238 0
-561 -157 -241 0
-561 -157 -242 0
-561 -157 -257 0
-561 -157 -258 0
-561 -157 -261 0
-561 -157 -262 0
-561 -158 318 0
-561 -158 -161 -169 0
-561 -158 -194 0
-561 -158 -238 0
-561 -158 -242 0
-561 -158 -258 0
-561 -158 -262 0
-562 296 0
-562 311 0
-562 -150 0
-562 -151 0
-562 -153 0
-562 -154 0
-562 -155 0
-562 -159 0
-562 -156 316 0
-562 -156 -162 -167 0
-562 -156 -196 0
-562 -156 -197 0
-562 -156 -198 0
-562 -156 -240 0
-562 -156 -241 0
-562 -156 -242 0
-562 -156 -244 0
-562 -156 -245 0
-562 -156 -246 0
-562 -156 -256 0
-562 -156 -257 0
-562 -156 -258 0
-562 -156 -260 0
-562 -156 -261 0
-562 -156 -262 0
-562 -156 -264 0
-562 -156 -265 0
-562 -156 -266 0
-562 -157 317 0
-562 -157 -162 -168 0
-562 -157 -197 0
-562 -157 -198 0
-562 -157 -241 0
-562 -157 -242 0
-562 -157 -245 0
-562 -157 -246 0
-562 -157 -257 0
-562 -157 -258 0
-562 -157 -261 0
-562 -157 -262 0
-562 -157 -265 0
-562 -157 -266 0
-562 -158 318 0
-562 -158 -162 -169 0
-562 -158 -198 0
-562 -158 -242 0
-562 -158 -246 0
-562 -158 -258 0
-562 -158 -262 0
-562 -158 -266 0
-563 296 0
-563 312 0
-563 -150 0
-563 -151 0
-563 -152 0
-563 -154 0
-563 -155 0
-563 -159 0
-563 -156 316 0
-563 -156 -163 -167 0
-563 -156 -200 0
-563 -156 -201 0
-563 -156 -202 0
-563 -156 -244 0
-563 -156 -245 0
-563 -156 -246 0
-563 -156 -248 0
-563 -156 -249 0
-563 -156 -250 0
-563 -156 -260 0
-563 -156 -261 0
-563 -156 -262 0
-563 -156 -264 0
-563 -156 -265 0
-563 -156 -266 0
-563 -156 -268 0
-563 -156 -269 0
-563 -156 -270 0
-563 -157 317 0
-563 -157 -163 -168 0
-563 -157 -201 0
-563 -157 -202 0
-563 -157 -245 0
-563 -157 -246 0
-563 -157 -249 0
-563 -157 -250 0
-563 -157 -261 0
-563 -157 -262 0
-563 -157 -265 0
-563 -157 -266 0
-563 -157 -269 0
-563 -157 -270 0
-563 -158 318 0
-563 -158 -163 -169 0
-563 -158 -202 0
-563 -158 -246 0
-563 -158 -250 0
-563 -158 -262 0
-563 -158 -266 0
-563 -158 -270 0
-564 296 0
-564 313 0
-564 -150 0
-564 -151 0
-564 -152 0
-564 -153 0
-564 -155 0
-564 -159 0
-564 -156 316 0
-564 -156 -164 -167 0
-564 -156 -204 0
-564 -156 -205 0
-564 -156 -206 0
-564 -156 -248 0
-564 -156 -249 0
-564 -156 -250 0
-564 -156 -252 0
-564 -156 -253 0
-564 -156 -254 0
-564 -156 -264 0
-564 -156 -265 0
-564 -156 -266 0
-564 -156 -268 0
-564 -156 -269 0
-564 -156 -270 0
-564 -157 317 0
-564 -157 -164 -168 0
-564 -157 -205 0
-564 -157 -206 0
-564 -157 -249 0
-564 -157 -250 0
-564 -157 -253 0
-564 -157 -254 0
-564 -157 -265 0
-564 -157 -266 0
-564 -157 -269 0
-564 -157 -270 0
-564 -158 318 0
-564 -158 -164 -169 0
-564 -158 -206 0
-564 -158 -250 0
-564 -158 -254 0
-564 -158 -266 0
-564 -158 -270 0
-565 296 0
-565 314 0
-565 -150 0
-565 -151 0
-565 -152 0
-565 -153 0
-565 -154 0
-565 -159 0
-565 -156 316 0
-565 -156 -165 -167 0
-565 -156 -208 0
-565 -156 -209 0
-565 -156 -210 0
-565 -156 -252 0
-565 -156 -253 0
-565 -156 -254 0
-565 -156 -268 0
-565 -156 -269 0
-565 -156 -270 0
-565 -157 317 0
-565 -157 -165 -168 0
-565 -157 -209 0
-565 -157 -210 0
-565 -157 -253 0
-565 -157 -254 0
-565 -157 -269 0
-565 -157 -270 0
-565 -158 318 0
-565 -158 -165 -169 0
-565 -158 -210 0
-565 -158 -254 0
-565 -158 -270 0
-566 296 0
-566 309 0
-566 -171 0
-566 -172 0
-566 -173 0
-566 -174 0
-566 -178 0
-566 -175 316 0
-566 -175 -160 -167 0
-566 -175 -188 0
-566 -175 -189 0
-566 -175 -190 0
-566 -175 -236 0
-566 -175 -237 0
-566 -175 -238 0
-566 -175 -256 0
-566 -175 -257 0
-566 -175 -258 0
-566 -176 317 0
-566 -176 -160 -168 0
-566 -176 -189 0
-566 -176 -190 0
-566 -176 -237 0
-566 -176 -238 0
-566 -176 -257 0
-566 -176 -258 0
-566 -177 318 0
-566 -177 -160 -169 0
-566 -177 -190 0
-566 -177 -238 0
-566 -177 -258 0
-567 296 0
-567 310 0
-567 -172 0
-567 -173 0
-567 -174 0
-567 -178 0
-567 -175 316 0
-567 -175 -161 -167 0
-567 -175 -192 0
-567 -175 -193 0
-567 -175 -194 0
-567 -175 -236 0
-567 -175 -237 0
-567 -175 -238 0
-567 -175 -240 0
-567 -175 -241 0
-567 -175 -242 0
-567 -175 -256 0
-567 -175 -257 0
-567 -175 -258 0
-567 -175 -260 0
-567 -175 -261 0
-567 -175 -262 0
-567 -176 317 0
-567 -176 -161 -168 0
-567 -176 -193 0
-567 -176 -194 0
-567 -176 -237 0
-567 -176 -238 0
-567 -176 -241 0
-567 -176 -242 0
-567 -176 -257 0
-567 -176 -258 0
-567 -176 -261 0
-567 -176 -262 0
-567 -177 318 0
-567 -177 -161 -169 0
-567 -177 -194 0
-567 -177 -238 0
-567 -177 -242 0
-567 -177 -258 0
-567 -177 -262 0
-568 296 0
-568 311 0
-568 -170 0
-568 -173 0
-568 -174 0
-568 -178 0
-568 -175 316 0
-568 -175 -162 -167 0
-568 -175 -196 0
-568 -175 -197 0
-568 -175 -198 0
-568 -175 -240 0
-568 -175 -241 0
-568 -175 -242 0
-568 -175 -244 0
-568 -175 -245 0
-568 -175 -246 0
-568 -175 -256 0
-568 -175 -257 0
-568 -175 -258 0
-568 -175 -260 0
-568 -175 -261 0
-568 -175 -262 0
-568 -175 -264 0
-568 -175 -265 0
-568 -175 -266 0
-568 -176 317 0
-568 -176 -162 -168 0
-568 -176 -197 0
-568 -176 -198 0
-568 -176 -241 0
-568 -176 -242 0
-568 -176 -245 0
-568 -176 -246 0
-568 -176 -257 0
-568 -176 -258 0
-568 -176 -261 0
-568 -176 -262 0
-568 -176 -265 0
-568 -176 -266 0
-568 -177 318 0
-568 -177 -162 -169 0
-568 -177 -198 0
-568 -177 -242 0
-568 -177 -246 0
-568 -177 -258 0
-568 -177 -262 0
-568 -177 -266 0
-569 296 0
-569 312 0
-569 -170 0
-569 -171 0
-569 -174 0
-569 -178 0
-569 -175 316 0
-569 -175 -163 -167 0
-569 -175 -200 0
-569 -175 -201 0
-569 -175 -202 0
-569 -175 -244 0
-569 -175 -245 0
-569 -175 -246 0
-569 -175 -248 0
-569 -175 -249 0
-569 -175 -250 0
-569 -175 -260 0
-569 -175 -261 0
-569 -175 -262 0
-569 -175 -264 0
-569 -175 -265 0
-569 -175 -266 0
-569 -175 -268 0
-569 -175 -269 0
-569 -175 -270 0
-569 -176 317 0
-569 -176 -163 -168 0
-569 -176 -201 0
-569 -176 -202 0
-569 -176 -245 0
-569 -176 -246 0
-569 -176 -249 0
-569 -176 -250 0
-569 -176 -261 0
-569 -176 -262 0
-569 -176 -265 0
-569 -176 -266 0
-569 -176 -269 0
-569 -176 -270 0
-569 -177 318 0
-569 -177 -163 -169 0
-569 -177 -202 0
-569 -177 -246 0
-569 -177 -250 0
-569 -177 -262 0
-569 -177 -266 0
-569 -177 -270 0
-570 296 0
-570 313 0
-570 -170 0
-570 -171 0
-570 -172 0
-570 -178 0
-570 -175 316 0
-570 -175 -164 -167 0
-570 -175 -204 0
-570 -175 -205 0
-570 -175 -206 0
-570 -175 -248 0
-570 -175 -249 0
-570 -175 -250 0
-570 -175 -252 0
-570 -175 -253 0
-570 -175 -254 0
-570 -175 -264 0
-570 -175 -265 0
-570 -175 -266 0
-570 -175 -268 0
-570 -175 -269 0
-570 -175 -270 0
-570 -176 317 0
-570 -176 -164 -168 0
-570 -176 -205 0
-570 -176 -206 0
-570 -176 -249 0
-570 -176 -250 0
-570 -176 -253 0
-570 -176 -254 0
-570 -176 -265 0
-570 -176 -266 0
-570 -176 -269 0
-570 -176 -270 0
-570 -177 318 0
-570 -177 -164 -169 0
-570 -177 -206 0
-570 -177 -250 0
-570 -177 -254 0
-570 -177 -266 0
-570 -177 -270 0
-571 296 0
-571 314 0
-571 -170 0
-571 -171 0
-571 -172 0
-571 -173 0
-571 -178 0
-571 -175 316 0
-571 -175 -165 -167 0
-571 -175 -208 0
-571 -175 -209 0
-571 -175 -210 0
-571 -175 -252 0
-571 -175 -253 0
-571 -175 -254 0
-571 -175 -268 0
-571 -175 -269 0
-571 -175 -270 0
-571 -176 317 0
-571 -176 -165 -168 0
-571 -176 -209 0
-571 -176 -210 0
-571 -176 -253 0
-571 -176 -254 0
-571 -176 -269 0
-571 -176 -270 0
-571 -177 318 0
-571 -177 -165 -169 0
-571 -177 -210 0
-571 -177 -254 0
-571 -177 -270 0
-572 296 0
-572 309 0
-572 -180 0
-572 -181 0
-572 -182 0
-572 -186 0
-572 -183 316 0
-572 -183 -160 -167 0
-572 -183 -188 0
-572 -183 -189 0
-572 -183 -190 0
-572 -183 -236 0
-572 -183 -237 0
-572 -183 -238 0
-572 -183 -256 0
-572 -183 -257 0
-572 -183 -258 0
-572 -184 317 0
-572 -184 -160 -168 0
-572 -184 -189 0
-572 -184 -190 0
-572 -184 -237 0
-572 -184 -238 0
-572 -184 -257 0
-572 -184 -258 0
-572 -185 318 0
-572 -185 -160 -169 0
-572 -185 -190 0
-572 -185 -238 0
-572 -185 -258 0
-573 296 0
-573 310 0
-573 -181 0
-573 -182 0
-573 -186 0
-573 -183 316 0
-573 -183 -161 -167 0
-573 -183 -192 0
-573 -183 -193 0
-573 -183 -194 0
-573 -183 -236 0
-573 -183 -237 0
-573 -183 -238 0
-573 -183 -240 0
-573 -183 -241 0
-573 -183 -242 0
-573 -183 -256 0
-573 -183 -257 0
-573 -183 -258 0
-573 -183 -260 0
-573 -183 -261 0
-573 -183 -262 0
-573 -184 317 0
-573 -184 -161 -168 0
-573 -184 -193 0
-573 -184 -194 0
-573 -184 -237 0
-573 -184 -238 0
-573 -184 -241 0
-573 -184 -242 0
-573 -184 -257 0
-573 -184 -258 0
-573 -184 -261 0
-573 -184 -262 0
-573 -185 318 0
-573 -185 -161 -169 0
-573 -185 -194 0
-573 -185 -238 0
-573 -185 -242 0
-573 -185 -258 0
-573 -185 -262 0
-574 296 0
-574 311 0
-574 -182 0
-574 -186 0
-574 -183 316 0
-574 -183 -162 -167 0
-574 -183 -196 0
-574 -183 -197 0
-574 -183 -198 0
-574 -183 -240 0
-574 -183 -241 0
-574 -183 -242 0
-574 -183 -244 0
-574 -183 -245 0
-574 -183 -246 0
-574 -183 -256 0
-574 -183 -257 0
-574 -183 -258 0
-574 -183 -260 0
-574 -183 -261 0
-574 -183 -262 0
-574 -183 -264 0
-574 -183 -265 0
-574 -183 -266 0
-574 -184 317 0
-574 -184 -162 -168 0
-574 -184 -197 0
-574 -184 -198 0
-574 -184 -241 0
-574 -184 -242 0
-574 -184 -245 0
-574 -184 -246 0
-574 -184 -257 0
-574 -184 -258 0
-574 -184 -261 0
-574 -184 -262 0
-574 -184 -265 0
-574 -184 -266 0
-574 -185 318 0
-574 -185 -162 -169 0
-574 -185 -198 0
-574 -185 -242 0
-574 -185 -246 0
-574 -185 -258 0
-574 -185 -262 0
-574 -185 -266 0
-575 296 0
-575 312 0
-575 -179 0
-575 -186 0
-575 -183 316 0
-575 -183 -163 -167 0
-575 -183 -200 0
-575 -183 -201 0
-575 -183 -202 0
-575 -183 -244 0
-575 -183 -245 0
-575 -183 -246 0
-575 -183 -248 0
-575 -183 -249 0
-575 -183 -250 0
-575 -183 -260 0
-575 -183 -261 0
-575 -183 -262 0
-575 -183 -264 0
-575 -183 -265 0
-575 -183 -266 0
-575 -183 -268 0
-575 -183 -269 0
-575 -183 -270 0
-575 -184 317 0
-575 -184 -163 -168 0
-575 -184 -201 0
-575 -184 -202 0
-575 -184 -245 0
-575 -184 -246 0
-575 -184 -249 0
-575 -184 -250 0
-575 -184 -261 0
-575 -184 -262 0
-575 -184 -265 0
-575 -184 -266 0
-575 -184 -269 0
-575 -184 -270 0
-575 -185 318 0
-575 -185 -163 -169 0
-575 -185 -202 0
-575 -185 -246 0
-575 -185 -250 0
-575 -185 -262 0
-575 -185 -266 0
-575 -185 -270 0
-576 296 0
-576 313 0
-576 -179 0
-576 -180 0
-576 -186 0
-576 -183 316 0
-576 -183 -164 -167 0
-576 -183 -204 0
-576 -183 -205 0
-576 -183 -206 0
-576 -183 -248 0
-576 -183 -249 0
-576 -183 -250 0
-576 -183 -252 0
-576 -183 -253 0
-576 -183 -254 0
-576 -183 -264 0
-576 -183 -265 0
-576 -183 -266 0
-576 -183 -268 0
-576 -183 -269 0
-576 -183 -270 0
-576 -184 317 0
-576 -184 -164 -168 0
-576 -184 -205 0
-576 -184 -206 0
-576 -184 -249 0
-576 -184 -250 0
-576 -184 -253 0
-576 -184 -254 0
-576 -184 -265 0
-576 -184 -266 0
-576 -184 -269 0
-576 -184 -270 0
-576 -185 318 0
-576 -185 -164 -169 0
-576 -185 -206 0
-576 -185 -250 0
-576 -185 -254 0
-576 -185 -266 0
-576 -185 -270 0
-577 296 0
-577 314 0
-577 -179 0
-577 -180 0
-577 -181 0
-577 -186 0
-577 -183 316 0
-577 -183 -165 -167 0
-577 -183 -208 0
-577 -183 -209 0
-577 -183 -210 0
-577 -183 -252 0
-577 -183 -253 0
-577 -183 -254 0
-577 -183 -268 0
-577 -183 -269 0
-577 -183 -270 0
-577 -184 317 0
-577 -184 -165 -168 0
-577 -184 -209 0
-577 -184 -210 0
-577 -184 -253 0
-577 -184 -254 0
-577 -184 -269 0
-577 -184 -270 0
-577 -185 318 0
-577 -185 -165 -169 0
-577 -185 -210 0
-577 -185 -254 0
-577 -185 -270 0
-578 296 0
-578 309 0
-578 315 0
-578 -160 -166 0
-578 -187 0
-578 -188 0
-578 -189 0
-578 -190 0
-578 -235 0
-578 -236 0
-578 -237 0
-578 -238 0
-578 -255 0
-578 -256 0
-578 -257 0
-578 -258 0
-579 296 0
-579 310 0
-579 315 0
-579 -161 -166 0
-579 -191 0
-579 -192 0
-579 -193 0
-579 -194 0
-579 -235 0
-579 -236 0
-579 -237 0
-579 -238 0
-579 -239 0
-579 -240 0
-579 -241 0
-579 -242 0
-579 -255 0
-579 -256 0
-579 -257 0
-579 -258 0
-579 -259 0
-579 -260 0
-579 -261 0
-579 -262 0
-580 296 0
-580 311 0
-580 315 0
-580 -162 -166 0
-580 -195 0
-580 -196 0
-580 -197 0
-580 -198 0
-580 -239 0
-580 -240 0
-580 -241 0
-580 -242 0
-580 -243 0
-580 -244 0
-580 -245 0
-580 -246 0
-580 -255 0
-580 -256 0
-580 -257 0
-580 -258 0
-580 -259 0
-580 -260 0
-580 -261 0
-580 -262 0
-580 -263 0
-580 -264 0
-580 -265 0
-580 -266 0
-581 296 0
-581 312 0
-581 315 0
-581 -163 -166 0
-581 -199 0
-581 -200 0
-581 -201 0
-581 -202 0
-581 -243 0
-581 -244 0
-581 -245 0
-581 -246 0
-581 -247 0
-581 -248 0
-581 -249 0
-581 -250 0
-581 -259 0
-581 -260 0
-581 -261 0
-581 -262 0
-581 -263 0
-581 -264 0
-581 -265 0
-581 -266 0
-581 -267 0
-581 -268 0
-581 -269 0
-581 -270 0
-582 296 0
-582 313 0
-582 315 0
-582 -164 -166 0
-582 -203 0
-582 -204 0
-582 -205 0
-582 -206 0
-582 -247 0
-582 -248 0
-582 -249 0
-582 -250 0
-582 -251 0
-582 -252 0
-582 -253 0
-582 -254 0
-582 -263 0
-582 -264 0
-582 -265 0
-582 -266 0
-582 -267 0
-582 -268 0
-582 -269 0
-582 -270 0
-583 296 0
-583 314 0
-583 315 0
-583 -165 -166 0
-583 -207 0
-583 -208 0
-583 -209 0
-583 -210 0
-583 -251 0
-583 -252 0
-583 -253 0
-583 -254 0
-583 -267 0
-583 -268 0
-583 -269 0
-583 -270 0
-584 297 0
-584 319 0
-584 -152 0
-584 -153 0
-584 -154 0
-584 -155 0
-584 -159 0
-584 -156 325 0
-584 -156 -170 -176 0
-584 -156 -188 0
-584 -156 -189 0
-584 -156 -190 0
-584 -156 -192 0
-584 -156 -193 0
-584 -156 -194 0
-584 -156 -212 0
-584 -156 -213 0
-584 -156 -214 0
-584 -156 -216 0
-584 -156 -217 0
-584 -156 -218 0
-584 -156 -256 0
-584 -156 -257 0
-584 -156 -258 0
-584 -156 -260 0
-584 -156 -261 0
-584 -156 -262 0
-584 -157 326 0
-584 -157 -170 -177 0
-584 -157 -189 0
-584 -157 -190 0
-584 -157 -193 0
-584 -157 -194 0
-584 -157 -213 0
-584 -157 -214 0
-584 -157 -217 0
-584 -157 -218 0
-584 -157 -257 0
-584 -157 -258 0
-584 -157 -261 0
-584 -157 -262 0
-584 -158 327 0
-584 -158 -170 -178 0
-584 -158 -190 0
-584 -158 -194 0
-584 -158 -214 0
-584 -158 -218 0
-584 -158 -258 0
-584 -158 -262 0
-585 297 0
-585 320 0
-585 -150 0
-585 -153 0
-585 -154 0
-585 -155 0
-585 -159 0
-585 -156 325 0
-585 -156 -171 -176 0
-585 -156 -192 0
-585 -156 -193 0
-585 -156 -194 0
-585 -156 -196 0
-585 -156 -197 0
-585 -156 -198 0
-585 -156 -216 0
-585 -156 -217 0
-585 -156 -218 0
-585 -156 -220 0
-585 -156 -221 0
-585 -156 -222 0
-585 -156 -256 0
-585 -156 -257 0
-585 -156 -258 0
-585 -156 -260 0
-585 -156 -261 0
-585 -156 -262 0
-585 -156 -264 0
-585 -156 -265 0
-585 -156 -266 0
-585 -157 326 0
-585 -157 -171 -177 0
-585 -157 -193 0
-585 -157 -194 0
-585 -157 -197 0
-585 -157 -198 0
-585 -157 -217 0
-585 -157 -218 0
-585 -157 -221 0
-585 -157 -222 0
-585 -157 -257 0
-585 -157 -258 0
-585 -157 -261 0
-585 -157 -262 0
-585 -157 -265 0
-585 -157 -266 0
-585 -158 327 0
-585 -158 -171 -178 0
-585 -158 -194 0
-585 -158 -198 0
-585 -158 -218 0
-585 -158 -222 0
-585 -158 -258 0
-585 -158 -262 0
-585 -158 -266 0
-586 297 0
-586 321 0
-586 -150 0
-586 -151 0
-586 -154 0
-586 -155 0
-586 -159 0
-586 -156 325 0
-586 -156 -172 -176 0
-586 -156 -196 0
-586 -156 -197 0
-586 -156 -198 0
-586 -156 -200 0
-586 -156 -201 0
-586 -156 -202 0
-586 -156 -220 0
-586 -156 -221 0
-586 -156 -222 0
-586 -156 -224 0
-586 -156 -225 0
-586 -156 -226 0
-586 -156 -256 0
-586 -156 -257 0
-586 -156 -258 0
-586 -156 -260 0
-586 -156 -261 0
-586 -156 -262 0
-586 -156 -264 0
-586 -156 -265 0
-586 -156 -266 0
-586 -156 -268 0
-586 -156 -269 0
-586 -156 -270 0
-586 -157 326 0
-586 -157 -172 -177 0
-586 -157 -197 0
-586 -157 -198 0
-586 -157 -201 0
-586 -157 -202 0
-586 -157 -221 0
-586 -157 -222 0
-586 -157 -225 0
-586 -157 -226 0
-586 -157 -257 0
-586 -157 -258 0
-586 -157 -261 0
-586 -157 -262 0
-586 -157 -265 0
-586 -157 -266 0
-586 -157 -269 0
-586 -157 -270 0
-586 -158 327 0
-586 -158 -172 -178 0
-586 -158 -198 0
-586 -158 -202 0
-586 -158 -222 0
-586 -158 -226 0
-586 -158 -258 0
-586 -158 -262 0
-586 -158 -266 0
-586 -158 -270 0
-587 297 0
-587 322 0
-587 -150 0
-587 -151 0
-587 -152 0
-587 -155 0
-587 -159 0
-587 -156 325 0
-587 -156 -173 -176 0
-587 -156 -200 0
-587 -156 -201 0
-587 -156 -202 0
-587 -156 -204 0
-587 -156 -205 0
-587 -156 -206 0
-587 -156 -224 0
-587 -156 -225 0
-587 -156 -226 0
-587 -156 -228 0
-587 -156 -229 0
-587 -156 -230 0
-587 -156 -260 0
-587 -156 -261 0
-587 -156 -262 0
-587 -156 -264 0
-587 -156 -265 0
-587 -156 -266 0
-587 -156 -268 0
-587 -156 -269 0
-587 -156 -270 0
-587 -157 326 0
-587 -157 -173 -177 0
-587 -157 -201 0
-587 -157 -202 0
-587 -157 -205 0
-587 -157 -206 0
-587 -157 -225 0
-587 -157 -226 0
-587 -157 -229 0
-587 -157 -230 0
-587 -157 -261 0
-587 -157 -262 0
-587 -157 -265 0
-587 -157 -266 0
-587 -157 -269 0
-587 -157 -270 0
-587 -158 327 0
-587 -158 -173 -178 0
-587 -158 -202 0
-587 -158 -206 0
-587 -158 -226 0
-587 -158 -230 0
-587 -158 -262 0
-587 -158 -266 0
-587 -158 -270 0
-588 297 0
-588 323 0
-588 -150 0
-588 -151 0
-588 -152 0
-588 -153 0
-588 -159 0
-588 -156 325 0
-588 -156 -174 -176 0
-588 -156 -204 0
-588 -156 -205 0
-588 -156 -206 0
-588 -156 -208 0
-588 -156 -209 0
-588 -156 -210 0
-588 -156 -228 0
-588 -156 -229 0
-588 -156 -230 0
-588 -156 -232 0
-588 -156 -233 0
-588 -156 -234 0
-588 -156 -264 0
-588 -156 -265 0
-588 -156 -266 0
-588 -156 -268 0
-588 -156 -269 0
-588 -156 -270 0
-588 -157 326 0
-588 -157 -174 -177 0
-588 -157 -205 0
-588 -157 -206 0
-588 -157 -209 0
-588 -157 -210 0
-588 -157 -229 0
-588 -157 -230 0
-588 -157 -233 0
-588 -157 -234 0
-588 -157 -265 0
-588 -157 -266 0
-588 -157 -269 0
-588 -157 -270 0
-588 -158 327 0
-588 -158 -174 -178 0
-588 -158 -206 0
-588 -158 -210 0
-588 -158 -230 0
-588 -158 -234 0
-588 -158 -266 0
-588 -158 -270 0
-589 297 0
-589 319 0
-589 -162 0
-589 -163 0
-589 -164 0
-589 -165 0
-589 -169 0
-589 -166 325 0
-589 -166 -170 -176 0
-589 -166 -188 0
-589 -166 -189 0
-589 -166 -190 0
-589 -166 -192 0
-589 -166 -193 0
-589 -166 -194 0
-589 -166 -212 0
-589 -166 -213 0
-589 -166 -214 0
-589 -166 -216 0
-589 -166 -217 0
-589 -166 -218 0
-589 -166 -256 0
-589 -166 -257 0
-589 -166 -258 0
-589 -166 -260 0
-589 -166 -261 0
-589 -166 -262 0
-589 -167 326 0
-589 -167 -170 -177 0
-589 -167 -189 0
-589 -167 -190 0
-589 -167 -193 0
-589 -167 -194 0
-589 -167 -213 0
-589 -167 -214 0
-589 -167 -217 0
-589 -167 -218 0
-589 -167 -257 0
-589 -167 -258 0
-589 -167 -261 0
-589 -167 -262 0
-589 -168 327 0
-589 -168 -170 -178 0
-589 -168 -190 0
-589 -168 -194 0
-589 -168 -214 0
-589 -168 -218 0
-589 -168 -258 0
-589 -168 -262 0
-590 297 0
-590 320 0
-590 -160 0
-590 -163 0
-590 -164 0
-590 -165 0
-590 -169 0
-590 -166 325 0
-590 -166 -171 -176 0
-590 -166 -192 0
-590 -166 -193 0
-590 -166 -194 0
-590 -166 -196 0
-590 -166 -197 0
-590 -166 -198 0
-590 -166 -216 0
-590 -166 -217 0
-590 -166 -218 0
-590 -166 -220 0
-590 -166 -221 0
-590 -166 -222 0
-590 -166 -256 0
-590 -166 -257 0
-590 -166 -258 0
-590 -166 -260 0
-590 -166 -261 0
-590 -166 -262 0
-590 -166 -264 0
-590 -166 -265 0
-590 -166 -266 0
-590 -167 326 0
-590 -167 -171 -177 0
-590 -167 -193 0
-590 -167 -194 0
-590 -167 -197 0
-590 -167 -198 0
-590 -167 -217 0
-590 -167 -218 0
-590 -167 -221 0
-590 -167 -222 0
-590 -167 -257 0
-590 -167 -258 0
-590 -167 -261 0
-590 -167 -262 0
-590 -167 -265 0
-590 -167 -266 0
-590 -168 327 0
-590 -168 -171 -178 0
-590 -168 -194 0
-590 -168 -198 0
-590 -168 -218 0
-590 -168 -222 0
-590 -168 -258 0
-590 -168 -262 0
-590 -168 -266 0
-591 297 0
-591 321 0
-591 -160 0
-591 -161 0
-591 -164 0
-591 -165 0
-591 -169 0
-591 -166 325 0
-591 -166 -172 -176 0
-591 -166 -196 0
-591 -166 -197 0
-591 -166 -198 0
-591 -166 -200 0
-591 -166 -201 0
-591 -166 -202 0
-591 -166 -220 0
-591 -166 -221 0
-591 -166 -222 0
-591 -166 -224 0
-591 -166 -225 0
-591 -166 -226 0
-591 -166 -256 0
-591 -166 -257 0
-591 -166 -258 0
-591 -166 -260 0
-591 -166 -261 0
-591 -166 -262 0
-591 -166 -264 0
-591 -166 -265 0
-591 -166 -266 0
-591 -166 -268 0
-591 -166 -269 0
-591 -166 -270 0
-591 -167 326 0
-591 -167 -172 -177 0
-591 -167 -197 0
-591 -167 -198 0
-591 -167 -201 0
-591 -167 -202 0
-591 -167 -221 0
-591 -167 -222 0
-591 -167 -225 0
-591 -167 -226 0
-591 -167 -257 0
-591 -167 -258 0
-591 -167 -261 0
-591 -167 -262 0
-591 -167 -265 0
-591 -167 -266 0
-591 -167 -269 0
-591 -167 -270 0
-591 -168 327 0
-591 -168 -172 -178 0
-591 -168 -198 0
-591 -168 -202 0
-591 -168 -222 0
-591 -168 -226 0
-591 -168 -258 0
-591 -168 -262 0
-591 -168 -266 0
-591 -168 -270 0
-592 297 0
-592 322 0
-592 -160 0
-592 -161 0
-592 -162 0
-592 -165 0
-592 -169 0
-592 -166 325 0
-592 -166 -173 -176 0
-592 -166 -200 0
-592 -166 -201 0
-592 -166 -202 0
-592 -166 -204 0
-592 -166 -205 0
-592 -166 -206 0
-592 -166 -224 0
-592 -166 -225 0
-592 -166 -226 0
-592 -166 -228 0
-592 -166 -229 0
-592 -166 -230 0
-592 -166 -260 0
-592 -166 -261 0
-592 -166 -262 0
-592 -166 -264 0
-592 -166 -265 0
-592 -166 -266 0
-592 -166 -268 0
-592 -166 -269 0
-592 -166 -270 0
-592 -167 326 0
-592 -167 -173 -177 0
-592 -167 -201 0
-592 -167 -202 0
-592 -167 -205 0
-592 -167 -206 0
-592 -167 -225 0
-592 -167 -226 0
-592 -167 -229 0
-592 -167 -230 0
-592 -167 -261 0
-592 -167 -262 0
-592 -167 -265 0
-592 -167 -266 0
-592 -167 -269 0
-592 -167 -270 0
-592 -168 327 0
-592 -168 -173 -178 0
-592 -168 -202 0
-592 -168 -206 0
-592 -168 -226 0
-592 -168 -230 0
-592 -168 -262 0
-592 -168 -266 0
-592 -168 -270 0
-593 297 0
-593 323 0
-593 -160 0
-593 -161 0
-593 -162 0
-593 -163 0
-593 -169 0
-593 -166 325 0
-593 -166 -174 -176 0
-593 -166 -204 0
-593 -166 -205 0
-593 -166 -206 0
-593 -166 -208 0
-593 -166 -209 0
-593 -166 -210 0
-593 -166 -228 0
-593 -166 -229 0
-593 -166 -230 0
-593 -166 -232 0
-593 -166 -233 0
-593 -166 -234 0
-593 -166 -264 0
-593 -166 -265 0
-593 -166 -266 0
-593 -166 -268 0
-593 -166 -269 0
-593 -166 -270 0
-593 -167 326 0
-593 -167 -174 -177 0
-593 -167 -205 0
-593 -167 -206 0
-593 -167 -209 0
-593 -167 -210 0
-593 -167 -229 0
-593 -167 -230 0
-593 -167 -233 0
-593 -167 -234 0
-593 -167 -265 0
-593 -167 -266 0
-593 -167 -269 0
-593 -167 -270 0
-593 -168 327 0
-593 -168 -174 -178 0
-593 -168 -206 0
-593 -168 -210 0
-593 -168 -230 0
-593 -168 -234 0
-593 -168 -266 0
-593 -168 -270 0
-594 297 0
-594 319 0
-594 -181 0
-594 -182 0
-594 -186 0
-594 -183 325 0
-594 -183 -170 -176 0
-594 -183 -188 0
-594 -183 -189 0
-594 -183 -190 0
-594 -183 -192 0
-594 -183 -193 0
-594 -183 -194 0
-594 -183 -212 0
-594 -183 -213 0
-594 -183 -214 0
-594 -183 -216 0
-594 -183 -217 0
-594 -183 -218 0
-594 -183 -256 0
-594 -183 -257 0
-594 -183 -258 0
-594 -183 -260 0
-594 -183 -261 0
-594 -183 -262 0
-594 -184 326 0
-594 -184 -170 -177 0
-594 -184 -189 0
-594 -184 -190 0
-594 -184 -193 0
-594 -184 -194 0
-594 -184 -213 0
-594 -184 -214 0
-594 -184 -217 0
-594 -184 -218 0
-594 -184 -257 0
-594 -184 -258 0
-594 -184 -261 0
-594 -184 -262 0
-594 -185 327 0
-594 -185 -170 -178 0
-594 -185 -190 0
-594 -185 -194 0
-594 -185 -214 0
-594 -185 -218 0
-594 -185 -258 0
-594 -185 -262 0
-595 297 0
-595 320 0
-595 -182 0
-595 -186 0
-595 -183 325 0
-595 -183 -171 -176 0
-595 -183 -192 0
-595 -183 -193 0
-595 -183 -194 0
-595 -183 -196 0
-595 -183 -197 0
-595 -183 -198 0
-595 -183 -216 0
-595 -183 -217 0
-595 -183 -218 0
-595 -183 -220 0
-595 -183 -221 0
-595 -183 -222 0
-595 -183 -256 0
-595 -183 -257 0
-595 -183 -258 0
-595 -183 -260 0
-595 -183 -261 0
-595 -183 -262 0
-595 -183 -264 0
-595 -183 -265 0
-595 -183 -266 0
-595 -184 326 0
-595 -184 -171 -177 0
-595 -184 -193 0
-595 -184 -194 0
-595 -184 -197 0
-595 -184 -198 0
-595 -184 -217 0
-595 -184 -218 0
-595 -184 -221 0
-595 -184 -222 0
-595 -184 -257 0
-595 -184 -258 0
-595 -184 -261 0
-595 -184 -262 0
-595 -184 -265 0
-595 -184 -266 0
-595 -185 327 0
-595 -185 -171 -178 0
-595 -185 -194 0
-595 -185 -198 0
-595 -185 -218 0
-595 -185 -222 0
-595 -185 -258 0
-595 -185 -262 0
-595 -185 -266 0
-596 297 0
-596 321 0
-596 -186 0
-596 -183 325 0
-596 -183 -172 -176 0
-596 -183 -196 0
-596 -183 -197 0
-596 -183 -198 0
-596 -183 -200 0
-596 -183 -201 0
-596 -183 -202 0
-596 -183 -220 0
-596 -183 -221 0
-596 -183 -222 0
-596 -183 -224 0
-596 -183 -225 0
-596 -183 -226 0
-596 -183 -256 0
-596 -183 -257 0
-596 -183 -258 0
-596 -183 -260 0
-596 -183 -261 0
-596 -183 -262 0
-596 -183 -264 0
-596 -183 -265 0
-596 -183 -266 0
-596 -183 -268 0
-596 -183 -269 0
-596 -183 -270 0
-596 -184 326 0
-596 -184 -172 -177 0
-596 -184 -197 0
-596 -184 -198 0
-596 -184 -201 0
-596 -184 -202 0
-596 -184 -221 0
-596 -184 -222 0
-596 -184 -225 0
-596 -184 -226 0
-596 -184 -257 0
-596 -184 -258 0
-596 -184 -261 0
-596 -184 -262 0
-596 -184 -265 0
-596 -184 -266 0
-596 -184 -269 0
-596 -184 -270 0
-596 -185 327 0
-596 -185 -172 -178 0
-596 -185 -198 0
-596 -185 -202 0
-596 -185 -222 0
-596 -185 -226 0
-596 -185 -258 0
-596 -185 -262 0
-596 -185 -266 0
-596 -185 -270 0
-597 297 0
-597 322 0
-597 -179 0
-597 -186 0
-597 -183 325 0
-597 -183 -173 -176 0
-597 -183 -200 0
-597 -183 -201 0
-597 -183 -202 0
-597 -183 -204 0
-597 -183 -205 0
-597 -183 -206 0
-597 -183 -224 0
-597 -183 -225 0
-597 -183 -226 0
-597 -183 -228 0
-597 -183 -229 0
-597 -183 -230 0
-597 -183 -260 0
-597 -183 -261 0
-597 -183 -262 0
-597 -183 -264 0
-597 -183 -265 0
-597 -183 -266 0
-597 -183 -268 0
-597 -183 -269 0
-597 -183 -270 0
-597 -184 326 0
-597 -184 -173 -177 0
-597 -184 -201 0
-597 -184 -202 0
-597 -184 -205 0
-597 -184 -206 0
-597 -184 -225 0
-597 -184 -226 0
-597 -184 -229 0
-597 -184 -230 0
-597 -184 -261 0
-597 -184 -262 0
-597 -184 -265 0
-597 -184 -266 0
-597 -184 -269 0
-597 -184 -270 0
-597 -185 327 0
-597 -185 -173 -178 0
-597 -185 -202 0
-597 -185 -206 0
-597 -185 -226 0
-597 -185 -230 0
-597 -185 -262 0
-597 -185 -266 0
-597 -185 -270 0
-598 297 0
-598 323 0
-598 -179 0
-598 -180 0
-598 -186 0
-598 -183 325 0
-598 -183 -174 -176 0
-598 -183 -204 0
-598 -183 -205 0
-598 -183 -206 0
-598 -183 -208 0
-598 -183 -209 0
-598 -183 -210 0
-598 -183 -228 0
-598 -183 -229 0
-598 -183 -230 0
-598 -183 -232 0
-598 -183 -233 0
-598 -183 -234 0
-598 -183 -264 0
-598 -183 -265 0
-598 -183 -266 0
-598 -183 -268 0
-598 -183 -269 0
-598 -183 -270 0
-598 -184 326 0
-598 -184 -174 -177 0
-598 -184 -205 0
-598 -184 -206 0
-598 -184 -209 0
-598 -184 -210 0
-598 -184 -229 0
-598 -184 -230 0
-598 -184 -233 0
-598 -184 -234 0
-598 -184 -265 0
-598 -184 -266 0
-598 -184 -269 0
-598 -184 -270 0
-598 -185 327 0
-598 -185 -174 -178 0
-598 -185 -206 0
-598 -185 -210 0
-598 -185 -230 0
-598 -185 -234 0
-598 -185 -266 0
-598 -185 -270 0
-599 297 0
-599 319 0
-599 324 0
-599 -170 -175 0
-599 -187 0
-599 -188 0
-599 -189 0
-599 -190 0
-599 -191 0
-599 -192 0
-599 -193 0
-599 -194 0
-599 -211 0
-599 -212 0
-599 -213 0
-599 -214 0
-599 -215 0
-599 -216 0
-599 -217 0
-599 -218 0
-599 -255 0
-599 -256 0
-599 -257 0
-599 -258 0
-599 -259 0
-599 -260 0
-599 -261 0
-599 -262 0
-600 297 0
-600 320 0
-600 324 0
-600 -171 -175 0
-600 -191 0
-600 -192 0
-600 -193 0
-600 -194 0
-600 -195 0
-600 -196 0
-600 -197 0
-600 -198 0
-600 -215 0
-600 -216 0
-600 -217 0
-600 -218 0
-600 -219 0
-600 -220 0
-600 -221 0
-600 -222 0
-600 -255 0
-600 -256 0
-600 -257 0
-600 -258 0
-600 -259 0
-600 -260 0
-600 -261 0
-600 -262 0
-600 -263 0
-600 -264 0
-600 -265 0
-600 -266 0
-601 297 0
-601 321 0
-601 324 0
-601 -172 -175 0
-601 -195 0
-601 -196 0
-601 -197 0
-601 -198 0
-601 -199 0
-601 -200 0
-601 -201 0
-601 -202 0
-601 -219 0
-601 -220 0
-601 -221 0
-601 -222 0
-601 -223 0
-601 -224 0
-601 -225 0
-601 -226 0
-601 -255 0
-601 -256 0
-601 -257 0
-601 -258 0
-601 -259 0
-601 -260 0
-601 -261 0
-601 -262 0
-601 -263 0
-601 -264 0
-601 -265 0
-601 -266 0
-601 -267 0
-601 -268 0
-601 -269 0
-601 -270 0
-602 297 0
-602 322 0
-602 324 0
-602 -173 -175 0
-602 -199 0
-602 -200 0
-602 -201 0
-602 -202 0
-602 -203 0
-602 -204 0
-602 -205 0
-602 -206 0
-602 -223 0
-602 -224 0
-602 -225 0
-602 -226 0
-602 -227 0
-602 -228 0
-602 -229 0
-602 -230 0
-602 -259 0
-602 -260 0
-602 -261 0
-602 -262 0
-602 -263 0
-602 -264 0
-602 -265 0
-602 -266 0
-602 -267 0
-602 -268 0
-602 -269 0
-602 -270 0
-603 297 0
-603 323 0
-603 324 0
-603 -174 -175 0
-603 -203 0
-603 -204 0
-603 -205 0
-603 -206 0
-603 -207 0
-603 -208 0
-603 -209 0
-603 -210 0
-603 -227 0
-603 -228 0
-603 -229 0
-603 -230 0
-603 -231 0
-603 -232 0
-603 -233 0
-603 -234 0
-603 -263 0
-603 -264 0
-603 -265 0
-603 -266 0
-603 -267 0
-603 -268 0
-603 -269 0
-603 -270 0
-604 298 0
-604 328 0
-604 -153 0
-604 -154 0
-604 -155 0
-604 -159 0
-604 -156 333 0
-604 -156 -179 -184 0
-604 -156 -188 0
-604 -156 -189 0
-604 -156 -190 0
-604 -156 -192 0
-604 -156 -193 0
-604 -156 -194 0
-604 -156 -196 0
-604 -156 -197 0
-604 -156 -198 0
-604 -156 -212 0
-604 -156 -213 0
-604 -156 -214 0
-604 -156 -216 0
-604 -156 -217 0
-604 -156 -218 0
-604 -156 -220 0
-604 -156 -221 0
-604 -156 -222 0
-604 -156 -236 0
-604 -156 -237 0
-604 -156 -238 0
-604 -156 -240 0
-604 -156 -241 0
-604 -156 -242 0
-604 -156 -244 0
-604 -156 -245 0
-604 -156 -246 0
-604 -157 334 0
-604 -157 -179 -185 0
-604 -157 -189 0
-604 -157 -190 0
-604 -157 -193 0
-604 -157 -194 0
-604 -157 -197 0
-604 -157 -198 0
-604 -157 -213 0
-604 -157 -214 0
-604 -157 -217 0
-604 -157 -218 0
-604 -157 -221 0
-604 -157 -222 0
-604 -157 -237 0
-604 -157 -238 0
-604 -157 -241 0
-604 -157 -242 0
-604 -157 -245 0
-604 -157 -246 0
-604 -158 335 0
-604 -158 -179 -186 0
-604 -158 -190 0
-604 -158 -194 0
-604 -158 -198 0
-604 -158 -214 0
-604 -158 -218 0
-604 -158 -222 0
-604 -158 -238 0
-604 -158 -242 0
-604 -158 -246 0
-605 298 0
-605 329 0
-605 -150 0
-605 -154 0
-605 -155 0
-605 -159 0
-605 -156 333 0
-605 -156 -180 -184 0
-605 -156 -192 0
-605 -156 -193 0
-605 -156 -194 0
-605 -156 -196 0
-605 -156 -197 0
-605 -156 -198 0
-605 -156 -200 0
-605 -156 -201 0
-605 -156 -202 0
-605 -156 -216 0
-605 -156 -217 0
-605 -156 -218 0
-605 -156 -220 0
-605 -156 -221 0
-605 -156 -222 0
-605 -156 -224 0
-605 -156 -225 0
-605 -156 -226 0
-605 -156 -236 0
-605 -156 -237 0
-605 -156 -238 0
-605 -156 -240 0
-605 -156 -241 0
-605 -156 -242 0
-605 -156 -244 0
-605 -156 -245 0
-605 -156 -246 0
-605 -156 -248 0
-605 -156 -249 0
-605 -156 -250 0
-605 -157 334 0
-605 -157 -180 -185 0
-605 -157 -193 0
-605 -157 -194 0
-605 -157 -197 0
-605 -157 -198 0
-605 -157 -201 0
-605 -157 -202 0
-605 -157 -217 0
-605 -157 -218 0
-605 -157 -221 0
-605 -157 -222 0
-605 -157 -225 0
-605 -157 -226 0
-605 -157 -237 0
-605 -157 -238 0
-605 -157 -241 0
-605 -157 -242 0
-605 -157 -245 0
-605 -157 -246 0
-605 -157 -249 0
-605 -157 -250 0
-605 -158 335 0
-605 -158 -180 -186 0
-605 -158 -194 0
-605 -158 -198 0
-605 -158 -202 0
-605 -158 -218 0
-605 -158 -222 0
-605 -158 -226 0
-605 -158 -238 0
-605 -158 -242 0
-605 -158 -246 0
-605 -158 -250 0
-606 298 0
-606 330 0
-606 -150 0
-606 -151 0
-606 -155 0
-606 -159 0
-606 -156 333 0
-606 -156 -181 -184 0
-606 -156 -196 0
-606 -156 -197 0
-606 -156 -198 0
-606 -156 -200 0
-606 -156 -201 0
-606 -156 -202 0
-606 -156 -204 0
-606 -156 -205 0
-606 -156 -206 0
-606 -156 -220 0
-606 -156 -221 0
-606 -156 -222 0
-606 -156 -224 0
-606 -156 -225 0
-606 -156 -226 0
-606 -156 -228 0
-606 -156 -229 0
-606 -156 -230 0
-606 -156 -240 0
-606 -156 -241 0
-606 -156 -242 0
-606 -156 -244 0
-606 -156 -245 0
-606 -156 -246 0
-606 -156 -248 0
-606 -156 -249 0
-606 -156 -250 0
-606 -156 -252 0
-606 -156 -253 0
-606 -156 -254 0
-606 -157 334 0
-606 -157 -181 -185 0
-606 -157 -197 0
-606 -157 -198 0
-606 -157 -201 0
-606 -157 -202 0
-606 -157 -205 0
-606 -157 -206 0
-606 -157 -221 0
-606 -157 -222 0
-606 -157 -225 0
-606 -157 -226 0
-606 -157 -229 0
-606 -157 -230 0
-606 -157 -241 0
-606 -157 -242 0
-606 -157 -245 0
-606 -157 -246 0
-606 -157 -249 0
-606 -157 -250 0
-606 -157 -253 0
-606 -157 -254 0
-606 -158 335 0
-606 -158 -181 -186 0
-606 -158 -198 0
-606 -158 -202 0
-606 -158 -206 0
-606 -158 -222 0
-606 -158 -226 0
-606 -158 -230 0
-606 -158 -242 0
-606 -158 -246 0
-606 -158 -250 0
-606 -158 -254 0
-607 298 0
-607 331 0
-607 -150 0
-607 -151 0
-607 -152 0
-607 -159 0
-607 -156 333 0
-607 -156 -182 -184 0
-607 -156 -200 0
-607 -156 -201 0
-607 -156 -202 0
-607 -156 -204 0
-607 -156 -205 0
-607 -156 -206 0
-607 -156 -208 0
-607 -156 -209 0
-607 -156 -210 0
-607 -156 -224 0
-607 -156 -225 0
-607 -156 -226 0
-607 -156 -228 0
-607 -156 -229 0
-607 -156 -230 0
-607 -156 -232 0
-607 -156 -233 0
-607 -156 -234 0
-607 -156 -244 0
-607 -156 -245 0
-607 -156 -246 0
-607 -156 -248 0
-607 -156 -249 0
-607 -156 -250 0
-607 -156 -252 0
-607 -156 -253 0
-607 -156 -254 0
-607 -157 334 0
-607 -157 -182 -185 0
-607 -157 -201 0
-607 -157 -202 0
-607 -157 -205 0
-607 -157 -206 0
-607 -157 -209 0
-607 -157 -210 0
-607 -157 -225 0
-607 -157 -226 0
-607 -157 -229 0
-607 -157 -230 0
-607 -157 -233 0
-607 -157 -234 0
-607 -157 -245 0
-607 -157 -246 0
-607 -157 -249 0
-607 -157 -250 0
-607 -157 -253 0
-607 -157 -254 0
-607 -158 335 0
-607 -158 -182 -186 0
-607 -158 -202 0
-607 -158 -206 0
-607 -158 -210 0
-607 -158 -226 0
-607 -158 -230 0
-607 -158 -234 0
-607 -158 -246 0
-607 -158 -250 0
-607 -158 -254 0
-608 298 0
-608 328 0
-608 -163 0
-608 -164 0
-608 -165 0
-608 -169 0
-608 -166 333 0
-608 -166 -179 -184 0
-608 -166 -188 0
-608 -166 -189 0
-608 -166 -190 0
-608 -166 -192 0
-608 -166 -193 0
-608 -166 -194 0
-608 -166 -196 0
-608 -166 -197 0
-608 -166 -198 0
-608 -166 -212 0
-608 -166 -213 0
-608 -166 -214 0
-608 -166 -216 0
-608 -166 -217 0
-608 -166 -218 0
-608 -166 -220 0
-608 -166 -221 0
-608 -166 -222 0
-608 -166 -236 0
-608 -166 -237 0
-608 -166 -238 0
-608 -166 -240 0
-608 -166 -241 0
-608 -166 -242 0
-608 -166 -244 0
-608 -166 -245 0
-608 -166 -246 0
-608 -167 334 0
-608 -167 -179 -185 0
-608 -167 -189 0
-608 -167 -190 0
-608 -167 -193 0
-608 -167 -194 0
-608 -167 -197 0
-608 -167 -198 0
-608 -167 -213 0
-608 -167 -214 0
-608 -167 -217 0
-608 -167 -218 0
-608 -167 -221 0
-608 -167 -222 0
-608 -167 -237 0
-608 -167 -238 0
-608 -167 -241 0
-608 -167 -242 0
-608 -167 -245 0
-608 -167 -246 0
-608 -168 335 0
-608 -168 -179 -186 0
-608 -168 -190 0
-608 -168 -194 0
-608 -168 -198 0
-608 -168 -214 0
-608 -168 -218 0
-608 -168 -222 0
-608 -168 -238 0
-608 -168 -242 0
-608 -168 -246 0
-609 298 0
-609 329 0
-609 -160 0
-609 -164 0
-609 -165 0
-609 -169 0
-609 -166 333 0
-609 -166 -180 -184 0
-609 -166 -192 0
-609 -166 -193 0
-609 -166 -194 0
-609 -166 -196 0
-609 -166 -197 0
-609 -166 -198 0
-609 -166 -200 0
-609 -166 -201 0
-609 -166 -202 0
-609 -166 -216 0
-609 -166 -217 0
-609 -166 -218 0
-609 -166 -220 0
-609 -166 -221 0
-609 -166 -222 0
-609 -166 -224 0
-609 -166 -225 0
-609 -166 -226 0
-609 -166 -236 0
-609 -166 -237 0
-609 -166 -238 0
-609 -166 -240 0
-609 -166 -241 0
-609 -166 -242 0
-609 -166 -244 0
-609 -166 -245 0
-609 -166 -246 0
-609 -166 -248 0
-609 -166 -249 0
-609 -166 -250 0
-609 -167 334 0
-609 -167 -180 -185 0
-609 -167 -193 0
-609 -167 -194 0
-609 -167 -197 0
-609 -167 -198 0
-609 -167 -201 0
-609 -167 -202 0
-609 -167 -217 0
-609 -167 -218 0
-609 -167 -221 0
-609 -167 -222 0
-609 -167 -225 0
-609 -167 -226 0
-609 -167 -237 0
-609 -167 -238 0
-609 -167 -241 0
-609 -167 -242 0
-609 -167 -245 0
-609 -167 -246 0
-609 -167 -249 0
-609 -167 -250 0
-609 -168 335 0
-609 -168 -180 -186 0
-609 -168 -194 0
-609 -168 -198 0
-609 -168 -202 0
-609 -168 -218 0
-609 -168 -222 0
-609 -168 -226 0
-609 -168 -238 0
-609 -168 -242 0
-609 -168 -246 0
-609 -168 -250 0
-610 298 0
-610 330 0
-610 -160 0
-610 -161 0
-610 -165 0
-610 -169 0
-610 -166 333 0
-610 -166 -181 -184 0
-610 -166 -196 0
-610 -166 -197 0
-610 -166 -198 0
-610 -166 -200 0
-610 -166 -201 0
-610 -166 -202 0
-610 -166 -204 0
-610 -166 -205 0
-610 -166 -206 0
-610 -166 -220 0
-610 -166 -221 0
-610 -166 -222 0
-610 -166 -224 0
-610 -166 -225 0
-610 -166 -226 0
-610 -166 -228 0
-610 -166 -229 0
-610 -166 -230 0
-610 -166 -240 0
-610 -166 -241 0
-610 -166 -242 0
-610 -166 -244 0
-610 -166 -245 0
-610 -166 -246 0
-610 -166 -248 0
-610 -166 -249 0
-610 -166 -250 0
-610 -166 -252 0
-610 -166 -253 0
-610 -166 -254 0
-610 -167 334 0
-610 -167 -181 -185 0
-610 -167 -197 0
-610 -167 -198 0
-610 -167 -201 0
-610 -167 -202 0
-610 -167 -205 0
-610 -167 -206 0
-610 -167 -221 0
-610 -167 -222 0
-610 -167 -225 0
-610 -167 -226 0
-610 -167 -229 0
-610 -167 -230 0
-610 -167 -241 0
-610 -167 -242 0
-610 -167 -245 0
-610 -167 -246 0
-610 -167 -249 0
-610 -167 -250 0
-610 -167 -253 0
-610 -167 -254 0
-610 -168 335 0
-610 -168 -181 -186 0
-610 -168 -198 0
-610 -168 -202 0
-610 -168 -206 0
-610 -168 -222 0
-610 -168 -226 0
-610 -168 -230 0
-610 -168 -242 0
-610 -168 -246 0
-610 -168 -250 0
-610 -168 -254 0
-611 298 0
-611 331 0
-611 -160 0
-611 -161 0
-611 -162 0
-611 -169 0
-611 -166 333 0
-611 -166 -182 -184 0
-611 -166 -200 0
-611 -166 -201 0
-611 -166 -202 0
-611 -166 -204 0
-611 -166 -205 0
-611 -166 -206 0
-611 -166 -208 0
-611 -166 -209 0
-611 -166 -210 0
-611 -166 -224 0
-611 -166 -225 0
-611 -166 -226 0
-611 -166 -228 0
-611 -166 -229 0
-611 -166 -230 0
-611 -166 -232 0
-611 -166 -233 0
-611 -166 -234 0
-611 -166 -244 0
-611 -166 -245 0
-611 -166 -246 0
-611 -166 -248 0
-611 -166 -249 0
-611 -166 -250 0
-611 -166 -252 0
-611 -166 -253 0
-611 -166 -254 0
-611 -167 334 0
-611 -167 -182 -185 0
-611 -167 -201 0
-611 -167 -202 0
-611 -167 -205 0
-611 -167 -206 0
-611 -167 -209 0
-611 -167 -210 0
-611 -167 -225 0
-611 -167 -226 0
-611 -167 -229 0
-611 -167 -230 0
-611 -167 -233 0
-611 -167 -234 0
-611 -167 -245 0
-611 -167 -246 0
-611 -167 -249 0
-611 -167 -250 0
-611 -167 -253 0
-611 -167 -254 0
-611 -168 335 0
-611 -168 -182 -186 0
-611 -168 -202 0
-611 -168 -206 0
-611 -168 -210 0
-611 -168 -226 0
-611 -168 -230 0
-611 -168 -234 0
-611 -168 -246 0
-611 -168 -250 0
-611 -168 -254 0
-612 298 0
-612 328 0
-612 -173 0
-612 -174 0
-612 -178 0
-612 -175 333 0
-612 -175 -179 -184 0
-612 -175 -188 0
-612 -175 -189 0
-612 -175 -190 0
-612 -175 -192 0
-612 -175 -193 0
-612 -175 -194 0
-612 -175 -196 0
-612 -175 -197 0
-612 -175 -198 0
-612 -175 -212 0
-612 -175 -213 0
-612 -175 -214 0
-612 -175 -216 0
-612 -175 -217 0
-612 -175 -218 0
-612 -175 -220 0
-612 -175 -221 0
-612 -175 -222 0
-612 -175 -236 0
-612 -175 -237 0
-612 -175 -238 0
-612 -175 -240 0
-612 -175 -241 0
-612 -175 -242 0
-612 -175 -244 0
-612 -175 -245 0
-612 -175 -246 0
-612 -176 334 0
-612 -176 -179 -185 0
-612 -176 -189 0
-612 -176 -190 0
-612 -176 -193 0
-612 -176 -194 0
-612 -176 -197 0
-612 -176 -198 0
-612 -176 -213 0
-612 -176 -214 0
-612 -176 -217 0
-612 -176 -218 0
-612 -176 -221 0
-612 -176 -222 0
-612 -176 -237 0
-612 -176 -238 0
-612 -176 -241 0
-612 -176 -242 0
-612 -176 -245 0
-612 -176 -246 0
-612 -177 335 0
-612 -177 -179 -186 0
-612 -177 -190 0
-612 -177 -194 0
-612 -177 -198 0
-612 -177 -214 0
-612 -177 -218 0
-612 -177 -222 0
-612 -177 -238 0
-612 -177 -242 0
-612 -177 -246 0
-613 298 0
-613 329 0
-613 -174 0
-613 -178 0
-613 -175 333 0
-613 -175 -180 -184 0
-613 -175 -192 0
-613 -175 -193 0
-613 -175 -194 0
-613 -175 -196 0
-613 -175 -197 0
-613 -175 -198 0
-613 -175 -200 0
-613 -175 -201 0
-613 -175 -202 0
-613 -175 -216 0
-613 -175 -217 0
-613 -175 -218 0
-613 -175 -220 0
-613 -175 -221 0
-613 -175 -222 0
-613 -175 -224 0
-613 -175 -225 0
-613 -175 -226 0
-613 -175 -236 0
-613 -175 -237 0
-613 -175 -238 0
-613 -175 -240 0
-613 -175 -241 0
-613 -175 -242 0
-613 -175 -244 0
-613 -175 -245 0
-613 -175 -246 0
-613 -175 -248 0
-613 -175 -249 0
-613 -175 -250 0
-613 -176 334 0
-613 -176 -180 -185 0
-613 -176 -193 0
-613 -176 -194 0
-613 -176 -197 0
-613 -176 -198 0
-613 -176 -201 0
-613 -176 -202 0
-613 -176 -217 0
-613 -176 -218 0
-613 -176 -221 0
-613 -176 -222 0
-613 -176 -225 0
-613 -176 -226 0
-613 -176 -237 0
-613 -176 -238 0
-613 -176 -241 0
-613 -176 -242 0
-613 -176 -245 0
-613 -176 -246 0
-613 -176 -249 0
-613 -176 -250 0
-613 -177 335 0
-613 -177 -180 -186 0
-613 -177 -194 0
-613 -177 -198 0
-613 -177 -202 0
-613 -177 -218 0
-613 -177 -222 0
-613 -177 -226 0
-613 -177 -238 0
-613 -177 -242 0
-613 -177 -246 0
-613 -177 -250 0
-614 298 0
-614 330 0
-614 -170 0
-614 -178 0
-614 -175 333 0
-614 -175 -181 -184 0
-614 -175 -196 0
-614 -175 -197 0
-614 -175 -198 0
-614 -175 -200 0
-614 -175 -201 0
-614 -175 -202 0
-614 -175 -204 0
-614 -175 -205 0
-614 -175 -206 0
-614 -175 -220 0
-614 -175 -221 0
-614 -175 -222 0
-614 -175 -224 0
-614 -175 -225 0
-614 -175 -226 0
-614 -175 -228 0
-614 -175 -229 0
-614 -175 -230 0
-614 -175 -240 0
-614 -175 -241 0
-614 -175 -242 0
-614 -175 -244 0
-614 -175 -245 0
-614 -175 -246 0
-614 -175 -248 0
-614 -175 -249 0
-614 -175 -250 0
-614 -175 -252 0
-614 -175 -253 0
-614 -175 -254 0
-614 -176 334 0
-614 -176 -181 -185 0
-614 -176 -197 0
-614 -176 -198 0
-614 -176 -201 0
-614 -176 -202 0
-614 -176 -205 0
-614 -176 -206 0
-614 -176 -221 0
-614 -176 -222 0
-614 -176 -225 0
-614 -176 -226 0
-614 -176 -229 0
-614 -176 -230 0
-614 -176 -241 0
-614 -176 -242 0
-614 -176 -245 0
-614 -176 -246 0
-614 -176 -249 0
-614 -176 -250 0
-614 -176 -253 0
-614 -176 -254 0
-614 -177 335 0
-614 -177 -181 -186 0
-614 -177 -198 0
-614 -177 -202 0
-614 -177 -206 0
-614 -177 -222 0
-614 -177 -226 0
-614 -177 -230 0
-614 -177 -242 0
-614 -177 -246 0
-614 -177 -250 0
-614 -177 -254 0
-615 298 0
-615 331 0
-615 -170 0
-615 -171 0
-615 -178 0
-615 -175 333 0
-615 -175 -182 -184 0
-615 -175 -200 0
-615 -175 -201 0
-615 -175 -202 0
-615 -175 -204 0
-615 -175 -205 0
-615 -175 -206 0
-615 -175 -208 0
-615 -175 -209 0
-615 -175 -210 0
-615 -175 -224 0
-615 -175 -225 0
-615 -175 -226 0
-615 -175 -228 0
-615 -175 -229 0
-615 -175 -230 0
-615 -175 -232 0
-615 -175 -233 0
-615 -175 -234 0
-615 -175 -244 0
-615 -175 -245 0
-615 -175 -246 0
-615 -175 -248 0
-615 -175 -249 0
-615 -175 -250 0
-615 -175 -252 0
-615 -175 -253 0
-615 -175 -254 0
-615 -176 334 0
-615 -176 -182 -185 0
-615 -176 -201 0
-615 -176 -202 0
-615 -176 -205 0
-615 -176 -206 0
-615 -176 -209 0
-615 -176 -210 0
-615 -176 -225 0
-615 -176 -226 0
-615 -176 -229 0
-615 -176 -230 0
-615 -176 -233 0
-615 -176 -234 0
-615 -176 -245 0
-615 -176 -246 0
-615 -176 -249 0
-615 -176 -250 0
-615 -176 -253 0
-615 -176 -254 0
-615 -177 335 0
-615 -177 -182 -186 0
-615 -177 -202 0
-615 -177 -206 0
-615 -177 -210 0
-615 -177 -226 0
-615 -177 -230 0
-615 -177 -234 0
-615 -177 -246 0
-615 -177 -250 0
-615 -177 -254 0
-616 298 0
-616 328 0
-616 332 0
-616 -179 -183 0
-616 -187 0
-616 -188 0
-616 -189 0
-616 -190 0
-616 -191 0
-616 -192 0
-616 -193 0
-616 -194 0
-616 -195 0
-616 -196 0
-616 -197 0
-616 -198 0
-616 -211 0
-616 -212 0
-616 -213 0
-616 -214 0
-616 -215 0
-616 -216 0
-616 -217 0
-616 -218 0
-616 -219 0
-616 -220 0
-616 -221 0
-616 -222 0
-616 -235 0
-616 -236 0
-616 -237 0
-616 -238 0
-616 -239 0
-616 -240 0
-616 -241 0
-616 -242 0
-616 -243 0
-616 -244 0
-616 -245 0
-616 -246 0
-617 298 0
-617 329 0
-617 332 0
-617 -180 -183 0
-617 -191 0
-617 -192 0
-617 -193 0
-617 -194 0
-617 -195 0
-617 -196 0
-617 -197 0
-617 -198 0
-617 -199 0
-617 -200 0
-617 -201 0
-617 -202 0
-617 -215 0
-617 -216 0
-617 -217 0
-617 -218 0
-617 -219 0
-617 -220 0
-617 -221 0
-617 -222 0
-617 -223 0
-617 -224 0
-617 -225 0
-617 -226 0
-617 -235 0
-617 -236 0
-617 -237 0
-617 -238 0
-617 -239 0
-617 -240 0
-617 -241 0
-617 -242 0
-617 -243 0
-617 -244 0
-617 -245 0
-617 -246 0
-617 -247 0
-617 -248 0
-617 -249 0
-617 -250 0
-618 298 0
-618 330 0
-618 332 0
-618 -181 -183 0
-618 -195 0
-618 -196 0
-618 -197 0
-618 -198 0
-618 -199 0
-618 -200 0
-618 -201 0
-618 -202 0
-618 -203 0
-618 -204 0
-618 -205 0
-618 -206 0
-618 -219 0
-618 -220 0
-618 -221 0
-618 -222 0
-618 -223 0
-618 -224 0
-618 -225 0
-618 -226 0
-618 -227 0
-618 -228 0
-618 -229 0
-618 -230 0
-618 -239 0
-618 -240 0
-618 -241 0
-618 -242 0
-618 -243 0
-618 -244 0
-618 -245 0
-618 -246 0
-618 -247 0
-618 -248 0
-618 -249 0
-618 -250 0
-618 -251 0
-618 -252 0
-618 -253 0
-618 -254 0
-619 298 0
-619 331 0
-619 332 0
-619 -182 -183 0
-619 -199 0
-619 -200 0
-619 -201 0
-619 -202 0
-619 -203 0
-619 -204 0
-619 -205 0
-619 -206 0
-619 -207 0
-619 -208 0
-619 -209 0
-619 -210 0
-619 -223 0
-619 -224 0
-619 -225 0
-619 -226 0
-619 -227 0
-619 -228 0
-619 -229 0
-619 -230 0
-619 -231 0
-619 -232 0
-619 -233 0
-619 -234 0
-619 -243 0
-619 -244 0
-619 -245 0
-619 -246 0
-619 -247 0
-619 -248 0
-619 -249 0
-619 -250 0
-619 -251 0
-619 -252 0
-619 -253 0
-619 -254 0
