p cnf 1571 55707
1 2 3 4 5 6 0
-1 -2 0
-1 -3 0
-1 -4 0
-1 -5 0
-1 -6 0
-2 -3 0
-2 -4 0
-2 -5 0
-2 -6 0
-3 -4 0
-3 -5 0
-3 -6 0
-4 -5 0
-4 -6 0
-5 -6 0
7 8 9 10 0
-7 -8 0
-7 -9 0
-7 -10 0
-8 -9 0
-8 -10 0
-9 -10 0
11 12 13 14 15 16 0
-11 -12 0
-11 -13 0
-11 -14 0
-11 -15 0
-11 -16 0
-12 -13 0
-12 -14 0
-12 -15 0
-12 -16 0
-13 -14 0
-13 -15 0
-13 -16 0
-14 -15 0
-14 -16 0
-15 -16 0
17 18 19 20 0
-17 -18 0
-17 -19 0
-17 -20 0
-18 -19 0
-18 -20 0
-19 -20 0
21 22 23 24 25 0
-21 -22 0
-21 -23 0
-21 -24 0
-21 -25 0
-22 -23 0
-22 -24 0
-22 -25 0
-23 -24 0
-23 -25 0
-24 -25 0
26 27 28 29 0
-26 -27 0
-26 -28 0
-26 -29 0
-27 -28 0
-27 -29 0
-28 -29 0
30 31 32 33 0
-30 -31 0
-30 -32 0
-30 -33 0
-31 -32 0
-31 -33 0
-32 -33 0
34 35 36 37 0
-34 -35 0
-34 -36 0
-34 -37 0
-35 -36 0
-35 -37 0
-36 -37 0
-38 1 0
-38 7 0
-1 -7 38 0
-39 1 0
-39 8 0
-1 -8 39 0
-40 1 0
-40 9 0
-1 -9 40 0
-41 1 0
-41 10 0
-1 -10 41 0
-42 2 0
-42 7 0
-2 -7 42 0
-43 2 0
-43 8 0
-2 -8 43 0
-44 2 0
-44 9 0
-2 -9 44 0
-45 2 0
-45 10 0
-2 -10 45 0
-46 3 0
-46 7 0
-3 -7 46 0
-47 3 0
-47 8 0
-3 -8 47 0
-48 3 0
-48 9 0
-3 -9 48 0
-49 3 0
-49 10 0
-3 -10 49 0
-50 4 0
-50 7 0
-4 -7 50 0
-51 4 0
-51 8 0
-4 -8 51 0
-52 4 0
-52 9 0
-4 -9 52 0
-53 4 0
-53 10 0
-4 -10 53 0
-54 5 0
-54 7 0
-5 -7 54 0
-55 5 0
-55 8 0
-5 -8 55 0
-56 5 0
-56 9 0
-5 -9 56 0
-57 5 0
-57 10 0
-5 -10 57 0
-58 6 0
-58 7 0
-6 -7 58 0
-59 6 0
-59 8 0
-6 -8 59 0
-60 6 0
-60 9 0
-6 -9 60 0
-61 6 0
-61 10 0
-6 -10 61 0
-62 11 0
-62 17 0
-11 -17 62 0
-63 11 0
-63 18 0
-11 -18 63 0
-64 11 0
-64 19 0
-11 -19 64 0
-65 11 0
-65 20 0
-11 -20 65 0
-66 12 0
-66 17 0
-12 -17 66 0
-67 12 0
-67 18 0
-12 -18 67 0
-68 12 0
-68 19 0
-12 -19 68 0
-69 12 0
-69 20 0
-12 -20 69 0
-70 13 0
-70 17 0
-13 -17 70 0
-71 13 0
-71 18 0
-13 -18 71 0
-72 13 0
-72 19 0
-13 -19 72 0
-73 13 0
-73 20 0
-13 -20 73 0
-74 14 0
-74 17 0
-14 -17 74 0
-75 14 0
-75 18 0
-14 -18 75 0
-76 14 0
-76 19 0
-14 -19 76 0
-77 14 0
-77 20 0
-14 -20 77 0
-78 15 0
-78 17 0
-15 -17 78 0
-79 15 0
-79 18 0
-15 -18 79 0
-80 15 0
-80 19 0
-15 -19 80 0
-81 15 0
-81 20 0
-15 -20 81 0
-82 16 0
-82 17 0
-16 -17 82 0
-83 16 0
-83 18 0
-16 -18 83 0
-84 16 0
-84 19 0
-16 -19 84 0
-85 16 0
-85 20 0
-16 -20 85 0
-86 21 0
-86 26 0
-21 -26 86 0
-87 21 0
-87 27 0
-21 -27 87 0
-88 21 0
-88 28 0
-21 -28 88 0
-89 21 0
-89 29 0
-21 -29 89 0
-90 22 0
-90 26 0
-22 -26 90 0
-91 22 0
-91 27 0
-22 -27 91 0
-92 22 0
-92 28 0
-22 -28 92 0
-93 22 0
-93 29 0
-22 -29 93 0
-94 23 0
-94 26 0
-23 -26 94 0
-95 23 0
-95 27 0
-23 -27 95 0
-96 23 0
-96 28 0
-23 -28 96 0
-97 23 0
-97 29 0
-23 -29 97 0
-98 24 0
-98 26 0
-24 -26 98 0
-99 24 0
-99 27 0
-24 -27 99 0
-100 24 0
-100 28 0
-24 -28 100 0
-101 24 0
-101 29 0
-24 -29 101 0
-102 25 0
-102 26 0
-25 -26 102 0
-103 25 0
-103 27 0
-25 -27 103 0
-104 25 0
-104 28 0
-25 -28 104 0
-105 25 0
-105 29 0
-25 -29 105 0
-106 30 0
-106 34 0
-30 -34 106 0
-107 30 0
-107 35 0
-30 -35 107 0
-108 30 0
-108 36 0
-30 -36 108 0
-109 30 0
-109 37 0
-30 -37 109 0
-110 31 0
-110 34 0
-31 -34 110 0
-111 31 0
-111 35 0
-31 -35 111 0
-112 31 0
-112 36 0
-31 -36 112 0
-113 31 0
-113 37 0
-31 -37 113 0
-114 32 0
-114 34 0
-32 -34 114 0
-115 32 0
-115 35 0
-32 -35 115 0
-116 32 0
-116 36 0
-32 -36 116 0
-117 32 0
-117 37 0
-32 -37 117 0
-118 33 0
-118 34 0
-33 -34 118 0
-119 33 0
-119 35 0
-33 -35 119 0
-120 33 0
-120 36 0
-33 -36 120 0
-121 33 0
-121 37 0
-33 -37 121 0
-122 38 62 86 106 0
-38 122 0
-62 122 0
-86 122 0
-106 122 0
-123 39 63 87 107 0
-39 123 0
-63 123 0
-87 123 0
-107 123 0
-124 40 64 88 108 0
-40 124 0
-64 124 0
-88 124 0
-108 124 0
-125 41 65 89 109 0
-41 125 0
-65 125 0
-89 125 0
-109 125 0
-126 42 66 86 90 106 110 0
-42 126 0
-66 126 0
-86 126 0
-90 126 0
-106 126 0
-110 126 0
-127 43 67 87 91 107 111 0
-43 127 0
-67 127 0
-87 127 0
-91 127 0
-107 127 0
-111 127 0
-128 44 68 88 92 108 112 0
-44 128 0
-68 128 0
-88 128 0
-92 128 0
-108 128 0
-112 128 0
-129 45 69 89 93 109 113 0
-45 129 0
-69 129 0
-89 129 0
-93 129 0
-109 129 0
-113 129 0
-130 46 70 90 94 106 110 114 0
-46 130 0
-70 130 0
-90 130 0
-94 130 0
-106 130 0
-110 130 0
-114 130 0
-131 47 71 91 95 107 111 115 0
-47 131 0
-71 131 0
-91 131 0
-95 131 0
-107 131 0
-111 131 0
-115 131 0
-132 48 72 92 96 108 112 116 0
-48 132 0
-72 132 0
-92 132 0
-96 132 0
-108 132 0
-112 132 0
-116 132 0
-133 49 73 93 97 109 113 117 0
-49 133 0
-73 133 0
-93 133 0
-97 133 0
-109 133 0
-113 133 0
-117 133 0
-134 50 74 94 98 110 114 118 0
-50 134 0
-74 134 0
-94 134 0
-98 134 0
-110 134 0
-114 134 0
-118 134 0
-135 51 75 95 99 111 115 119 0
-51 135 0
-75 135 0
-95 135 0
-99 135 0
-111 135 0
-115 135 0
-119 135 0
-136 52 76 96 100 112 116 120 0
-52 136 0
-76 136 0
-96 136 0
-100 136 0
-112 136 0
-116 136 0
-120 136 0
-137 53 77 97 101 113 117 121 0
-53 137 0
-77 137 0
-97 137 0
-101 137 0
-113 137 0
-117 137 0
-121 137 0
-138 54 78 98 102 114 118 0
-54 138 0
-78 138 0
-98 138 0
-102 138 0
-114 138 0
-118 138 0
-139 55 79 99 103 115 119 0
-55 139 0
-79 139 0
-99 139 0
-103 139 0
-115 139 0
-119 139 0
-140 56 80 100 104 116 120 0
-56 140 0
-80 140 0
-100 140 0
-104 140 0
-116 140 0
-120 140 0
-141 57 81 101 105 117 121 0
-57 141 0
-81 141 0
-101 141 0
-105 141 0
-117 141 0
-121 141 0
-142 58 82 102 118 0
-58 142 0
-82 142 0
-102 142 0
-118 142 0
-143 59 83 103 119 0
-59 143 0
-83 143 0
-103 143 0
-119 143 0
-144 60 84 104 120 0
-60 144 0
-84 144 0
-104 144 0
-120 144 0
-145 61 85 105 121 0
-61 145 0
-85 145 0
-105 145 0
-121 145 0
-38 -62 0
-38 -86 0
-38 -106 0
-39 -63 0
-39 -87 0
-39 -107 0
-40 -64 0
-40 -88 0
-40 -108 0
-41 -65 0
-41 -89 0
-41 -109 0
-42 -66 0
-42 -86 0
-42 -90 0
-42 -106 0
-42 -110 0
-43 -67 0
-43 -87 0
-43 -91 0
-43 -107 0
-43 -111 0
-44 -68 0
-44 -88 0
-44 -92 0
-44 -108 0
-44 -112 0
-45 -69 0
-45 -89 0
-45 -93 0
-45 -109 0
-45 -113 0
-46 -70 0
-46 -90 0
-46 -94 0
-46 -106 0
-46 -110 0
-46 -114 0
-47 -71 0
-47 -91 0
-47 -95 0
-47 -107 0
-47 -111 0
-47 -115 0
-48 -72 0
-48 -92 0
-48 -96 0
-48 -108 0
-48 -112 0
-48 -116 0
-49 -73 0
-49 -93 0
-49 -97 0
-49 -109 0
-49 -113 0
-49 -117 0
-50 -74 0
-50 -94 0
-50 -98 0
-50 -110 0
-50 -114 0
-50 -118 0
-51 -75 0
-51 -95 0
-51 -99 0
-51 -111 0
-51 -115 0
-51 -119 0
-52 -76 0
-52 -96 0
-52 -100 0
-52 -112 0
-52 -116 0
-52 -120 0
-53 -77 0
-53 -97 0
-53 -101 0
-53 -113 0
-53 -117 0
-53 -121 0
-54 -78 0
-54 -98 0
-54 -102 0
-54 -114 0
-54 -118 0
-55 -79 0
-55 -99 0
-55 -103 0
-55 -115 0
-55 -119 0
-56 -80 0
-56 -100 0
-56 -104 0
-56 -116 0
-56 -120 0
-57 -81 0
-57 -101 0
-57 -105 0
-57 -117 0
-57 -121 0
-58 -82 0
-58 -102 0
-58 -118 0
-59 -83 0
-59 -103 0
-59 -119 0
-60 -84 0
-60 -104 0
-60 -120 0
-61 -85 0
-61 -105 0
-61 -121 0
-62 -86 0
-62 -106 0
-63 -87 0
-63 -107 0
-64 -88 0
-64 -108 0
-65 -89 0
-65 -109 0
-66 -86 0
-66 -90 0
-66 -106 0
-66 -110 0
-67 -87 0
-67 -91 0
-67 -107 0
-67 -111 0
-68 -88 0
-68 -92 0
-68 -108 0
-68 -112 0
-69 -89 0
-69 -93 0
-69 -109 0
-69 -113 0
-70 -90 0
-70 -94 0
-70 -106 0
-70 -110 0
-70 -114 0
-71 -91 0
-71 -95 0
-71 -107 0
-71 -111 0
-71 -115 0
-72 -92 0
-72 -96 0
-72 -108 0
-72 -112 0
-72 -116 0
-73 -93 0
-73 -97 0
-73 -109 0
-73 -113 0
-73 -117 0
-74 -94 0
-74 -98 0
-74 -110 0
-74 -114 0
-74 -118 0
-75 -95 0
-75 -99 0
-75 -111 0
-75 -115 0
-75 -119 0
-76 -96 0
-76 -100 0
-76 -112 0
-76 -116 0
-76 -120 0
-77 -97 0
-77 -101 0
-77 -113 0
-77 -117 0
-77 -121 0
-78 -98 0
-78 -102 0
-78 -114 0
-78 -118 0
-79 -99 0
-79 -103 0
-79 -115 0
-79 -119 0
-80 -100 0
-80 -104 0
-80 -116 0
-80 -120 0
-81 -101 0
-81 -105 0
-81 -117 0
-81 -121 0
-82 -102 0
-82 -118 0
-83 -103 0
-83 -119 0
-84 -104 0
-84 -120 0
-85 -105 0
-85 -121 0
-86 -106 0
-86 -110 0
-87 -107 0
-87 -111 0
-88 -108 0
-88 -112 0
-89 -109 0
-89 -113 0
-90 -106 0
-90 -110 0
-90 -114 0
-91 -107 0
-91 -111 0
-91 -115 0
-92 -108 0
-92 -112 0
-92 -116 0
-93 -109 0
-93 -113 0
-93 -117 0
-94 -106 0
-94 -110 0
-94 -114 0
-94 -118 0
-95 -107 0
-95 -111 0
-95 -115 0
-95 -119 0
-96 -108 0
-96 -112 0
-96 -116 0
-96 -120 0
-97 -109 0
-97 -113 0
-97 -117 0
-97 -121 0
-98 -110 0
-98 -114 0
-98 -118 0
-99 -111 0
-99 -115 0
-99 -119 0
-100 -112 0
-100 -116 0
-100 -120 0
-101 -113 0
-101 -117 0
-101 -121 0
-102 -114 0
-102 -118 0
-103 -115 0
-103 -119 0
-104 -116 0
-104 -120 0
-105 -117 0
-105 -121 0
-38 146 63 64 65 87 88 89 107 108 109 0
-38 -146 -63 0
-38 -146 -64 0
-38 -146 -65 0
-38 -146 -87 0
-38 -146 -88 0
-38 -146 -89 0
-38 -146 -107 0
-38 -146 -108 0
-38 -146 -109 0
-39 122 0
-39 146 64 65 88 89 108 109 0
-39 -146 -64 0
-39 -146 -65 0
-39 -146 -88 0
-39 -146 -89 0
-39 -146 -108 0
-39 -146 -109 0
-40 123 0
-40 146 65 89 109 0
-40 -146 -65 0
-40 -146 -89 0
-40 -146 -109 0
-41 124 0
-41 146 0
-42 146 67 68 69 87 88 89 91 92 93 107 108 109 111 112 113 0
-42 -146 -67 0
-42 -146 -68 0
-42 -146 -69 0
-42 -146 -87 0
-42 -146 -88 0
-42 -146 -89 0
-42 -146 -91 0
-42 -146 -92 0
-42 -146 -93 0
-42 -146 -107 0
-42 -146 -108 0
-42 -146 -109 0
-42 -146 -111 0
-42 -146 -112 0
-42 -146 -113 0
-43 126 0
-43 146 68 69 88 89 92 93 108 109 112 113 0
-43 -146 -68 0
-43 -146 -69 0
-43 -146 -88 0
-43 -146 -89 0
-43 -146 -92 0
-43 -146 -93 0
-43 -146 -108 0
-43 -146 -109 0
-43 -146 -112 0
-43 -146 -113 0
-44 127 0
-44 146 69 89 93 109 113 0
-44 -146 -69 0
-44 -146 -89 0
-44 -146 -93 0
-44 -146 -109 0
-44 -146 -113 0
-45 128 0
-45 146 0
-46 146 71 72 73 91 92 93 95 96 97 107 108 109 111 112 113 115 116 117 0
-46 -146 -71 0
-46 -146 -72 0
-46 -146 -73 0
-46 -146 -91 0
-46 -146 -92 0
-46 -146 -93 0
-46 -146 -95 0
-46 -146 -96 0
-46 -146 -97 0
-46 -146 -107 0
-46 -146 -108 0
-46 -146 -109 0
-46 -146 -111 0
-46 -146 -112 0
-46 -146 -113 0
-46 -146 -115 0
-46 -146 -116 0
-46 -146 -117 0
-47 130 0
-47 146 72 73 92 93 96 97 108 109 112 113 116 117 0
-47 -146 -72 0
-47 -146 -73 0
-47 -146 -92 0
-47 -146 -93 0
-47 -146 -96 0
-47 -146 -97 0
-47 -146 -108 0
-47 -146 -109 0
-47 -146 -112 0
-47 -146 -113 0
-47 -146 -116 0
-47 -146 -117 0
-48 131 0
-48 146 73 93 97 109 113 117 0
-48 -146 -73 0
-48 -146 -93 0
-48 -146 -97 0
-48 -146 -109 0
-48 -146 -113 0
-48 -146 -117 0
-49 132 0
-49 146 0
-50 146 75 76 77 95 96 97 99 100 101 111 112 113 115 116 117 119 120 121 0
-50 -146 -75 0
-50 -146 -76 0
-50 -146 -77 0
-50 -146 -95 0
-50 -146 -96 0
-50 -146 -97 0
-50 -146 -99 0
-50 -146 -100 0
-50 -146 -101 0
-50 -146 -111 0
-50 -146 -112 0
-50 -146 -113 0
-50 -146 -115 0
-50 -146 -116 0
-50 -146 -117 0
-50 -146 -119 0
-50 -146 -120 0
-50 -146 -121 0
-51 134 0
-51 146 76 77 96 97 100 101 112 113 116 117 120 121 0
-51 -146 -76 0
-51 -146 -77 0
-51 -146 -96 0
-51 -146 -97 0
-51 -146 -100 0
-51 -146 -101 0
-51 -146 -112 0
-51 -146 -113 0
-51 -146 -116 0
-51 -146 -117 0
-51 -146 -120 0
-51 -146 -121 0
-52 135 0
-52 146 77 97 101 113 117 121 0
-52 -146 -77 0
-52 -146 -97 0
-52 -146 -101 0
-52 -146 -113 0
-52 -146 -117 0
-52 -146 -121 0
-53 136 0
-53 146 0
-54 146 79 80 81 99 100 101 103 104 105 115 116 117 119 120 121 0
-54 -146 -79 0
-54 -146 -80 0
-54 -146 -81 0
-54 -146 -99 0
-54 -146 -100 0
-54 -146 -101 0
-54 -146 -103 0
-54 -146 -104 0
-54 -146 -105 0
-54 -146 -115 0
-54 -146 -116 0
-54 -146 -117 0
-54 -146 -119 0
-54 -146 -120 0
-54 -146 -121 0
-55 138 0
-55 146 80 81 100 101 104 105 116 117 120 121 0
-55 -146 -80 0
-55 -146 -81 0
-55 -146 -100 0
-55 -146 -101 0
-55 -146 -104 0
-55 -146 -105 0
-55 -146 -116 0
-55 -146 -117 0
-55 -146 -120 0
-55 -146 -121 0
-56 139 0
-56 146 81 101 105 117 121 0
-56 -146 -81 0
-56 -146 -101 0
-56 -146 -105 0
-56 -146 -117 0
-56 -146 -121 0
-57 140 0
-57 146 0
-58 146 83 84 85 103 104 105 119 120 121 0
-58 -146 -83 0
-58 -146 -84 0
-58 -146 -85 0
-58 -146 -103 0
-58 -146 -104 0
-58 -146 -105 0
-58 -146 -119 0
-58 -146 -120 0
-58 -146 -121 0
-59 142 0
-59 146 84 85 104 105 120 121 0
-59 -146 -84 0
-59 -146 -85 0
-59 -146 -104 0
-59 -146 -105 0
-59 -146 -120 0
-59 -146 -121 0
-60 143 0
-60 146 85 105 121 0
-60 -146 -85 0
-60 -146 -105 0
-60 -146 -121 0
-61 144 0
-61 146 0
-62 147 39 40 41 87 88 89 107 108 109 0
-62 -147 -39 0
-62 -147 -40 0
-62 -147 -41 0
-62 -147 -87 0
-62 -147 -88 0
-62 -147 -89 0
-62 -147 -107 0
-62 -147 -108 0
-62 -147 -109 0
-63 122 0
-63 147 40 41 88 89 108 109 0
-63 -147 -40 0
-63 -147 -41 0
-63 -147 -88 0
-63 -147 -89 0
-63 -147 -108 0
-63 -147 -109 0
-64 123 0
-64 147 41 89 109 0
-64 -147 -41 0
-64 -147 -89 0
-64 -147 -109 0
-65 124 0
-65 147 0
-66 147 43 44 45 87 88 89 91 92 93 107 108 109 111 112 113 0
-66 -147 -43 0
-66 -147 -44 0
-66 -147 -45 0
-66 -147 -87 0
-66 -147 -88 0
-66 -147 -89 0
-66 -147 -91 0
-66 -147 -92 0
-66 -147 -93 0
-66 -147 -107 0
-66 -147 -108 0
-66 -147 -109 0
-66 -147 -111 0
-66 -147 -112 0
-66 -147 -113 0
-67 126 0
-67 147 44 45 88 89 92 93 108 109 112 113 0
-67 -147 -44 0
-67 -147 -45 0
-67 -147 -88 0
-67 -147 -89 0
-67 -147 -92 0
-67 -147 -93 0
-67 -147 -108 0
-67 -147 -109 0
-67 -147 -112 0
-67 -147 -113 0
-68 127 0
-68 147 45 89 93 109 113 0
-68 -147 -45 0
-68 -147 -89 0
-68 -147 -93 0
-68 -147 -109 0
-68 -147 -113 0
-69 128 0
-69 147 0
-70 147 47 48 49 91 92 93 95 96 97 107 108 109 111 112 113 115 116 117 0
-70 -147 -47 0
-70 -147 -48 0
-70 -147 -49 0
-70 -147 -91 0
-70 -147 -92 0
-70 -147 -93 0
-70 -147 -95 0
-70 -147 -96 0
-70 -147 -97 0
-70 -147 -107 0
-70 -147 -108 0
-70 -147 -109 0
-70 -147 -111 0
-70 -147 -112 0
-70 -147 -113 0
-70 -147 -115 0
-70 -147 -116 0
-70 -147 -117 0
-71 130 0
-71 147 48 49 92 93 96 97 108 109 112 113 116 117 0
-71 -147 -48 0
-71 -147 -49 0
-71 -147 -92 0
-71 -147 -93 0
-71 -147 -96 0
-71 -147 -97 0
-71 -147 -108 0
-71 -147 -109 0
-71 -147 -112 0
-71 -147 -113 0
-71 -147 -116 0
-71 -147 -117 0
-72 131 0
-72 147 49 93 97 109 113 117 0
-72 -147 -49 0
-72 -147 -93 0
-72 -147 -97 0
-72 -147 -109 0
-72 -147 -113 0
-72 -147 -117 0
-73 132 0
-73 147 0
-74 147 51 52 53 95 96 97 99 100 101 111 112 113 115 116 117 119 120 121 0
-74 -147 -51 0
-74 -147 -52 0
-74 -147 -53 0
-74 -147 -95 0
-74 -147 -96 0
-74 -147 -97 0
-74 -147 -99 0
-74 -147 -100 0
-74 -147 -101 0
-74 -147 -111 0
-74 -147 -112 0
-74 -147 -113 0
-74 -147 -115 0
-74 -147 -116 0
-74 -147 -117 0
-74 -147 -119 0
-74 -147 -120 0
-74 -147 -121 0
-75 134 0
-75 147 52 53 96 97 100 101 112 113 116 117 120 121 0
-75 -147 -52 0
-75 -147 -53 0
-75 -147 -96 0
-75 -147 -97 0
-75 -147 -100 0
-75 -147 -101 0
-75 -147 -112 0
-75 -147 -113 0
-75 -147 -116 0
-75 -147 -117 0
-75 -147 -120 0
-75 -147 -121 0
-76 135 0
-76 147 53 97 101 113 117 121 0
-76 -147 -53 0
-76 -147 -97 0
-76 -147 -101 0
-76 -147 -113 0
-76 -147 -117 0
-76 -147 -121 0
-77 136 0
-77 147 0
-78 147 55 56 57 99 100 101 103 104 105 115 116 117 119 120 121 0
-78 -147 -55 0
-78 -147 -56 0
-78 -147 -57 0
-78 -147 -99 0
-78 -147 -100 0
-78 -147 -101 0
-78 -147 -103 0
-78 -147 -104 0
-78 -147 -105 0
-78 -147 -115 0
-78 -147 -116 0
-78 -147 -117 0
-78 -147 -119 0
-78 -147 -120 0
-78 -147 -121 0
-79 138 0
-79 147 56 57 100 101 104 105 116 117 120 121 0
-79 -147 -56 0
-79 -147 -57 0
-79 -147 -100 0
-79 -147 -101 0
-79 -147 -104 0
-79 -147 -105 0
-79 -147 -116 0
-79 -147 -117 0
-79 -147 -120 0
-79 -147 -121 0
-80 139 0
-80 147 57 101 105 117 121 0
-80 -147 -57 0
-80 -147 -101 0
-80 -147 -105 0
-80 -147 -117 0
-80 -147 -121 0
-81 140 0
-81 147 0
-82 147 59 60 61 103 104 105 119 120 121 0
-82 -147 -59 0
-82 -147 -60 0
-82 -147 -61 0
-82 -147 -103 0
-82 -147 -104 0
-82 -147 -105 0
-82 -147 -119 0
-82 -147 -120 0
-82 -147 -121 0
-83 142 0
-83 147 60 61 104 105 120 121 0
-83 -147 -60 0
-83 -147 -61 0
-83 -147 -104 0
-83 -147 -105 0
-83 -147 -120 0
-83 -147 -121 0
-84 143 0
-84 147 61 105 121 0
-84 -147 -61 0
-84 -147 -105 0
-84 -147 -121 0
-85 144 0
-85 147 0
-86 148 39 40 41 43 44 45 63 64 65 67 68 69 107 108 109 111 112 113 0
-86 -148 -39 0
-86 -148 -40 0
-86 -148 -41 0
-86 -148 -43 0
-86 -148 -44 0
-86 -148 -45 0
-86 -148 -63 0
-86 -148 -64 0
-86 -148 -65 0
-86 -148 -67 0
-86 -148 -68 0
-86 -148 -69 0
-86 -148 -107 0
-86 -148 -108 0
-86 -148 -109 0
-86 -148 -111 0
-86 -148 -112 0
-86 -148 -113 0
-87 122 126 0
-87 148 40 41 44 45 64 65 68 69 108 109 112 113 0
-87 -148 -40 0
-87 -148 -41 0
-87 -148 -44 0
-87 -148 -45 0
-87 -148 -64 0
-87 -148 -65 0
-87 -148 -68 0
-87 -148 -69 0
-87 -148 -108 0
-87 -148 -109 0
-87 -148 -112 0
-87 -148 -113 0
-88 123 127 0
-88 148 41 45 65 69 109 113 0
-88 -148 -41 0
-88 -148 -45 0
-88 -148 -65 0
-88 -148 -69 0
-88 -148 -109 0
-88 -148 -113 0
-89 124 128 0
-89 148 0
-90 148 43 44 45 47 48 49 67 68 69 71 72 73 107 108 109 111 112 113 115 116 117 0
-90 -148 -43 0
-90 -148 -44 0
-90 -148 -45 0
-90 -148 -47 0
-90 -148 -48 0
-90 -148 -49 0
-90 -148 -67 0
-90 -148 -68 0
-90 -148 -69 0
-90 -148 -71 0
-90 -148 -72 0
-90 -148 -73 0
-90 -148 -107 0
-90 -148 -108 0
-90 -148 -109 0
-90 -148 -111 0
-90 -148 -112 0
-90 -148 -113 0
-90 -148 -115 0
-90 -148 -116 0
-90 -148 -117 0
-91 126 130 0
-91 148 44 45 48 49 68 69 72 73 108 109 112 113 116 117 0
-91 -148 -44 0
-91 -148 -45 0
-91 -148 -48 0
-91 -148 -49 0
-91 -148 -68 0
-91 -148 -69 0
-91 -148 -72 0
-91 -148 -73 0
-91 -148 -108 0
-91 -148 -109 0
-91 -148 -112 0
-91 -148 -113 0
-91 -148 -116 0
-91 -148 -117 0
-92 127 131 0
-92 148 45 49 69 73 109 113 117 0
-92 -148 -45 0
-92 -148 -49 0
-92 -148 -69 0
-92 -148 -73 0
-92 -148 -109 0
-92 -148 -113 0
-92 -148 -117 0
-93 128 132 0
-93 148 0
-94 148 47 48 49 51 52 53 71 72 73 75 76 77 107 108 109 111 112 113 115 116 117 119 120 121 0
-94 -148 -47 0
-94 -148 -48 0
-94 -148 -49 0
-94 -148 -51 0
-94 -148 -52 0
-94 -148 -53 0
-94 -148 -71 0
-94 -148 -72 0
-94 -148 -73 0
-94 -148 -75 0
-94 -148 -76 0
-94 -148 -77 0
-94 -148 -107 0
-94 -148 -108 0
-94 -148 -109 0
-94 -148 -111 0
-94 -148 -112 0
-94 -148 -113 0
-94 -148 -115 0
-94 -148 -116 0
-94 -148 -117 0
-94 -148 -119 0
-94 -148 -120 0
-94 -148 -121 0
-95 130 134 0
-95 148 48 49 52 53 72 73 76 77 108 109 112 113 116 117 120 121 0
-95 -148 -48 0
-95 -148 -49 0
-95 -148 -52 0
-95 -148 -53 0
-95 -148 -72 0
-95 -148 -73 0
-95 -148 -76 0
-95 -148 -77 0
-95 -148 -108 0
-95 -148 -109 0
-95 -148 -112 0
-95 -148 -113 0
-95 -148 -116 0
-95 -148 -117 0
-95 -148 -120 0
-95 -148 -121 0
-96 131 135 0
-96 148 49 53 73 77 109 113 117 121 0
-96 -148 -49 0
-96 -148 -53 0
-96 -148 -73 0
-96 -148 -77 0
-96 -148 -109 0
-96 -148 -113 0
-96 -148 -117 0
-96 -148 -121 0
-97 132 136 0
-97 148 0
-98 148 51 52 53 55 56 57 75 76 77 79 80 81 111 112 113 115 116 117 119 120 121 0
-98 -148 -51 0
-98 -148 -52 0
-98 -148 -53 0
-98 -148 -55 0
-98 -148 -56 0
-98 -148 -57 0
-98 -148 -75 0
-98 -148 -76 0
-98 -148 -77 0
-98 -148 -79 0
-98 -148 -80 0
-98 -148 -81 0
-98 -148 -111 0
-98 -148 -112 0
-98 -148 -113 0
-98 -148 -115 0
-98 -148 -116 0
-98 -148 -117 0
-98 -148 -119 0
-98 -148 -120 0
-98 -148 -121 0
-99 134 138 0
-99 148 52 53 56 57 76 77 80 81 112 113 116 117 120 121 0
-99 -148 -52 0
-99 -148 -53 0
-99 -148 -56 0
-99 -148 -57 0
-99 -148 -76 0
-99 -148 -77 0
-99 -148 -80 0
-99 -148 -81 0
-99 -148 -112 0
-99 -148 -113 0
-99 -148 -116 0
-99 -148 -117 0
-99 -148 -120 0
-99 -148 -121 0
-100 135 139 0
-100 148 53 57 77 81 113 117 121 0
-100 -148 -53 0
-100 -148 -57 0
-100 -148 -77 0
-100 -148 -81 0
-100 -148 -113 0
-100 -148 -117 0
-100 -148 -121 0
-101 136 140 0
-101 148 0
-102 148 55 56 57 59 60 61 79 80 81 83 84 85 115 116 117 119 120 121 0
-102 -148 -55 0
-102 -148 -56 0
-102 -148 -57 0
-102 -148 -59 0
-102 -148 -60 0
-102 -148 -61 0
-102 -148 -79 0
-102 -148 -80 0
-102 -148 -81 0
-102 -148 -83 0
-102 -148 -84 0
-102 -148 -85 0
-102 -148 -115 0
-102 -148 -116 0
-102 -148 -117 0
-102 -148 -119 0
-102 -148 -120 0
-102 -148 -121 0
-103 138 142 0
-103 148 56 57 60 61 80 81 84 85 116 117 120 121 0
-103 -148 -56 0
-103 -148 -57 0
-103 -148 -60 0
-103 -148 -61 0
-103 -148 -80 0
-103 -148 -81 0
-103 -148 -84 0
-103 -148 -85 0
-103 -148 -116 0
-103 -148 -117 0
-103 -148 -120 0
-103 -148 -121 0
-104 139 143 0
-104 148 57 61 81 85 117 121 0
-104 -148 -57 0
-104 -148 -61 0
-104 -148 -81 0
-104 -148 -85 0
-104 -148 -117 0
-104 -148 -121 0
-105 140 144 0
-105 148 0
-106 149 39 40 41 43 44 45 47 48 49 63 64 65 67 68 69 71 72 73 87 88 89 91 92 93 95 96 97 0
-106 -149 -39 0
-106 -149 -40 0
-106 -149 -41 0
-106 -149 -43 0
-106 -149 -44 0
-106 -149 -45 0
-106 -149 -47 0
-106 -149 -48 0
-106 -149 -49 0
-106 -149 -63 0
-106 -149 -64 0
-106 -149 -65 0
-106 -149 -67 0
-106 -149 -68 0
-106 -149 -69 0
-106 -149 -71 0
-106 -149 -72 0
-106 -149 -73 0
-106 -149 -87 0
-106 -149 -88 0
-106 -149 -89 0
-106 -149 -91 0
-106 -149 -92 0
-106 -149 -93 0
-106 -149 -95 0
-106 -149 -96 0
-106 -149 -97 0
-107 122 126 0
-107 122 130 0
-107 126 130 0
-107 149 40 41 44 45 48 49 64 65 68 69 72 73 88 89 92 93 96 97 0
-107 -149 -40 0
-107 -149 -41 0
-107 -149 -44 0
-107 -149 -45 0
-107 -149 -48 0
-107 -149 -49 0
-107 -149 -64 0
-107 -149 -65 0
-107 -149 -68 0
-107 -149 -69 0
-107 -149 -72 0
-107 -149 -73 0
-107 -149 -88 0
-107 -149 -89 0
-107 -149 -92 0
-107 -149 -93 0
-107 -149 -96 0
-107 -149 -97 0
-108 123 127 0
-108 123 131 0
-108 127 131 0
-108 149 41 45 49 65 69 73 89 93 97 0
-108 -149 -41 0
-108 -149 -45 0
-108 -149 -49 0
-108 -149 -65 0
-108 -149 -69 0
-108 -149 -73 0
-108 -149 -89 0
-108 -149 -93 0
-108 -149 -97 0
-109 124 128 0
-109 124 132 0
-109 128 132 0
-109 149 0
-110 149 43 44 45 47 48 49 51 52 53 67 68 69 71 72 73 75 76 77 87 88 89 91 92 93 95 96 97 99 100 101 0
-110 -149 -43 0
-110 -149 -44 0
-110 -149 -45 0
-110 -149 -47 0
-110 -149 -48 0
-110 -149 -49 0
-110 -149 -51 0
-110 -149 -52 0
-110 -149 -53 0
-110 -149 -67 0
-110 -149 -68 0
-110 -149 -69 0
-110 -149 -71 0
-110 -149 -72 0
-110 -149 -73 0
-110 -149 -75 0
-110 -149 -76 0
-110 -149 -77 0
-110 -149 -87 0
-110 -149 -88 0
-110 -149 -89 0
-110 -149 -91 0
-110 -149 -92 0
-110 -149 -93 0
-110 -149 -95 0
-110 -149 -96 0
-110 -149 -97 0
-110 -149 -99 0
-110 -149 -100 0
-110 -149 -101 0
-111 126 130 0
-111 126 134 0
-111 130 134 0
-111 149 44 45 48 49 52 53 68 69 72 73 76 77 88 89 92 93 96 97 100 101 0
-111 -149 -44 0
-111 -149 -45 0
-111 -149 -48 0
-111 -149 -49 0
-111 -149 -52 0
-111 -149 -53 0
-111 -149 -68 0
-111 -149 -69 0
-111 -149 -72 0
-111 -149 -73 0
-111 -149 -76 0
-111 -149 -77 0
-111 -149 -88 0
-111 -149 -89 0
-111 -149 -92 0
-111 -149 -93 0
-111 -149 -96 0
-111 -149 -97 0
-111 -149 -100 0
-111 -149 -101 0
-112 127 131 0
-112 127 135 0
-112 131 135 0
-112 149 45 49 53 69 73 77 89 93 97 101 0
-112 -149 -45 0
-112 -149 -49 0
-112 -149 -53 0
-112 -149 -69 0
-112 -149 -73 0
-112 -149 -77 0
-112 -149 -89 0
-112 -149 -93 0
-112 -149 -97 0
-112 -149 -101 0
-113 128 132 0
-113 128 136 0
-113 132 136 0
-113 149 0
-114 149 47 48 49 51 52 53 55 56 57 71 72 73 75 76 77 79 80 81 91 92 93 95 96 97 99 100 101 103 104 105 0
-114 -149 -47 0
-114 -149 -48 0
-114 -149 -49 0
-114 -149 -51 0
-114 -149 -52 0
-114 -149 -53 0
-114 -149 -55 0
-114 -149 -56 0
-114 -149 -57 0
-114 -149 -71 0
-114 -149 -72 0
-114 -149 -73 0
-114 -149 -75 0
-114 -149 -76 0
-114 -149 -77 0
-114 -149 -79 0
-114 -149 -80 0
-114 -149 -81 0
-114 -149 -91 0
-114 -149 -92 0
-114 -149 -93 0
-114 -149 -95 0
-114 -149 -96 0
-114 -149 -97 0
-114 -149 -99 0
-114 -149 -100 0
-114 -149 -101 0
-114 -149 -103 0
-114 -149 -104 0
-114 -149 -105 0
-115 130 134 0
-115 130 138 0
-115 134 138 0
-115 149 48 49 52 53 56 57 72 73 76 77 80 81 92 93 96 97 100 101 104 105 0
-115 -149 -48 0
-115 -149 -49 0
-115 -149 -52 0
-115 -149 -53 0
-115 -149 -56 0
-115 -149 -57 0
-115 -149 -72 0
-115 -149 -73 0
-115 -149 -76 0
-115 -149 -77 0
-115 -149 -80 0
-115 -149 -81 0
-115 -149 -92 0
-115 -149 -93 0
-115 -149 -96 0
-115 -149 -97 0
-115 -149 -100 0
-115 -149 -101 0
-115 -149 -104 0
-115 -149 -105 0
-116 131 135 0
-116 131 139 0
-116 135 139 0
-116 149 49 53 57 73 77 81 93 97 101 105 0
-116 -149 -49 0
-116 -149 -53 0
-116 -149 -57 0
-116 -149 -73 0
-116 -149 -77 0
-116 -149 -81 0
-116 -149 -93 0
-116 -149 -97 0
-116 -149 -101 0
-116 -149 -105 0
-117 132 136 0
-117 132 140 0
-117 136 140 0
-117 149 0
-118 149 51 52 53 55 56 57 59 60 61 75 76 77 79 80 81 83 84 85 95 96 97 99 100 101 103 104 105 0
-118 -149 -51 0
-118 -149 -52 0
-118 -149 -53 0
-118 -149 -55 0
-118 -149 -56 0
-118 -149 -57 0
-118 -149 -59 0
-118 -149 -60 0
-118 -149 -61 0
-118 -149 -75 0
-118 -149 -76 0
-118 -149 -77 0
-118 -149 -79 0
-118 -149 -80 0
-118 -149 -81 0
-118 -149 -83 0
-118 -149 -84 0
-118 -149 -85 0
-118 -149 -95 0
-118 -149 -96 0
-118 -149 -97 0
-118 -149 -99 0
-118 -149 -100 0
-118 -149 -101 0
-118 -149 -103 0
-118 -149 -104 0
-118 -149 -105 0
-119 134 138 0
-119 134 142 0
-119 138 142 0
-119 149 52 53 56 57 60 61 76 77 80 81 84 85 96 97 100 101 104 105 0
-119 -149 -52 0
-119 -149 -53 0
-119 -149 -56 0
-119 -149 -57 0
-119 -149 -60 0
-119 -149 -61 0
-119 -149 -76 0
-119 -149 -77 0
-119 -149 -80 0
-119 -149 -81 0
-119 -149 -84 0
-119 -149 -85 0
-119 -149 -96 0
-119 -149 -97 0
-119 -149 -100 0
-119 -149 -101 0
-119 -149 -104 0
-119 -149 -105 0
-120 135 139 0
-120 135 143 0
-120 139 143 0
-120 149 53 57 61 77 81 85 97 101 105 0
-120 -149 -53 0
-120 -149 -57 0
-120 -149 -61 0
-120 -149 -77 0
-120 -149 -81 0
-120 -149 -85 0
-120 -149 -97 0
-120 -149 -101 0
-120 -149 -105 0
-121 136 140 0
-121 136 144 0
-121 140 144 0
-121 149 0
150 151 152 153 154 155 0
-150 -151 0
-150 -152 0
-150 -153 0
-150 -154 0
-150 -155 0
-151 -152 0
-151 -153 0
-151 -154 0
-151 -155 0
-152 -153 0
-152 -154 0
-152 -155 0
-153 -154 0
-153 -155 0
-154 -155 0
156 157 158 159 0
-156 -157 0
-156 -158 0
-156 -159 0
-157 -158 0
-157 -159 0
-158 -159 0
160 161 162 163 164 165 0
-160 -161 0
-160 -162 0
-160 -163 0
-160 -164 0
-160 -165 0
-161 -162 0
-161 -163 0
-161 -164 0
-161 -165 0
-162 -163 0
-162 -164 0
-162 -165 0
-163 -164 0
-163 -165 0
-164 -165 0
166 167 168 169 0
-166 -167 0
-166 -168 0
-166 -169 0
-167 -168 0
-167 -169 0
-168 -169 0
170 171 172 173 174 0
-170 -171 0
-170 -172 0
-170 -173 0
-170 -174 0
-171 -172 0
-171 -173 0
-171 -174 0
-172 -173 0
-172 -174 0
-173 -174 0
175 176 177 178 0
-175 -176 0
-175 -177 0
-175 -178 0
-176 -177 0
-176 -178 0
-177 -178 0
179 180 181 182 0
-179 -180 0
-179 -181 0
-179 -182 0
-180 -181 0
-180 -182 0
-181 -182 0
183 184 185 186 0
-183 -184 0
-183 -185 0
-183 -186 0
-184 -185 0
-184 -186 0
-185 -186 0
-187 150 0
-187 156 0
-150 -156 187 0
-188 150 0
-188 157 0
-150 -157 188 0
-189 150 0
-189 158 0
-150 -158 189 0
-190 150 0
-190 159 0
-150 -159 190 0
-191 151 0
-191 156 0
-151 -156 191 0
-192 151 0
-192 157 0
-151 -157 192 0
-193 151 0
-193 158 0
-151 -158 193 0
-194 151 0
-194 159 0
-151 -159 194 0
-195 152 0
-195 156 0
-152 -156 195 0
-196 152 0
-196 157 0
-152 -157 196 0
-197 152 0
-197 158 0
-152 -158 197 0
-198 152 0
-198 159 0
-152 -159 198 0
-199 153 0
-199 156 0
-153 -156 199 0
-200 153 0
-200 157 0
-153 -157 200 0
-201 153 0
-201 158 0
-153 -158 201 0
-202 153 0
-202 159 0
-153 -159 202 0
-203 154 0
-203 156 0
-154 -156 203 0
-204 154 0
-204 157 0
-154 -157 204 0
-205 154 0
-205 158 0
-154 -158 205 0
-206 154 0
-206 159 0
-154 -159 206 0
-207 155 0
-207 156 0
-155 -156 207 0
-208 155 0
-208 157 0
-155 -157 208 0
-209 155 0
-209 158 0
-155 -158 209 0
-210 155 0
-210 159 0
-155 -159 210 0
-211 160 0
-211 166 0
-160 -166 211 0
-212 160 0
-212 167 0
-160 -167 212 0
-213 160 0
-213 168 0
-160 -168 213 0
-214 160 0
-214 169 0
-160 -169 214 0
-215 161 0
-215 166 0
-161 -166 215 0
-216 161 0
-216 167 0
-161 -167 216 0
-217 161 0
-217 168 0
-161 -168 217 0
-218 161 0
-218 169 0
-161 -169 218 0
-219 162 0
-219 166 0
-162 -166 219 0
-220 162 0
-220 167 0
-162 -167 220 0
-221 162 0
-221 168 0
-162 -168 221 0
-222 162 0
-222 169 0
-162 -169 222 0
-223 163 0
-223 166 0
-163 -166 223 0
-224 163 0
-224 167 0
-163 -167 224 0
-225 163 0
-225 168 0
-163 -168 225 0
-226 163 0
-226 169 0
-163 -169 226 0
-227 164 0
-227 166 0
-164 -166 227 0
-228 164 0
-228 167 0
-164 -167 228 0
-229 164 0
-229 168 0
-164 -168 229 0
-230 164 0
-230 169 0
-164 -169 230 0
-231 165 0
-231 166 0
-165 -166 231 0
-232 165 0
-232 167 0
-165 -167 232 0
-233 165 0
-233 168 0
-165 -168 233 0
-234 165 0
-234 169 0
-165 -169 234 0
-235 170 0
-235 175 0
-170 -175 235 0
-236 170 0
-236 176 0
-170 -176 236 0
-237 170 0
-237 177 0
-170 -177 237 0
-238 170 0
-238 178 0
-170 -178 238 0
-239 171 0
-239 175 0
-171 -175 239 0
-240 171 0
-240 176 0
-171 -176 240 0
-241 171 0
-241 177 0
-171 -177 241 0
-242 171 0
-242 178 0
-171 -178 242 0
-243 172 0
-243 175 0
-172 -175 243 0
-244 172 0
-244 176 0
-172 -176 244 0
-245 172 0
-245 177 0
-172 -177 245 0
-246 172 0
-246 178 0
-172 -178 246 0
-247 173 0
-247 175 0
-173 -175 247 0
-248 173 0
-248 176 0
-173 -176 248 0
-249 173 0
-249 177 0
-173 -177 249 0
-250 173 0
-250 178 0
-173 -178 250 0
-251 174 0
-251 175 0
-174 -175 251 0
-252 174 0
-252 176 0
-174 -176 252 0
-253 174 0
-253 177 0
-174 -177 253 0
-254 174 0
-254 178 0
-174 -178 254 0
-255 179 0
-255 183 0
-179 -183 255 0
-256 179 0
-256 184 0
-179 -184 256 0
-257 179 0
-257 185 0
-179 -185 257 0
-258 179 0
-258 186 0
-179 -186 258 0
-259 180 0
-259 183 0
-180 -183 259 0
-260 180 0
-260 184 0
-180 -184 260 0
-261 180 0
-261 185 0
-180 -185 261 0
-262 180 0
-262 186 0
-180 -186 262 0
-263 181 0
-263 183 0
-181 -183 263 0
-264 181 0
-264 184 0
-181 -184 264 0
-265 181 0
-265 185 0
-181 -185 265 0
-266 181 0
-266 186 0
-181 -186 266 0
-267 182 0
-267 183 0
-182 -183 267 0
-268 182 0
-268 184 0
-182 -184 268 0
-269 182 0
-269 185 0
-182 -185 269 0
-270 182 0
-270 186 0
-182 -186 270 0
-271 187 211 235 255 0
-187 271 0
-211 271 0
-235 271 0
-255 271 0
-272 188 212 236 256 0
-188 272 0
-212 272 0
-236 272 0
-256 272 0
-273 189 213 237 257 0
-189 273 0
-213 273 0
-237 273 0
-257 273 0
-274 190 214 238 258 0
-190 274 0
-214 274 0
-238 274 0
-258 274 0
-275 191 215 235 239 255 259 0
-191 275 0
-215 275 0
-235 275 0
-239 275 0
-255 275 0
-259 275 0
-276 192 216 236 240 256 260 0
-192 276 0
-216 276 0
-236 276 0
-240 276 0
-256 276 0
-260 276 0
-277 193 217 237 241 257 261 0
-193 277 0
-217 277 0
-237 277 0
-241 277 0
-257 277 0
-261 277 0
-278 194 218 238 242 258 262 0
-194 278 0
-218 278 0
-238 278 0
-242 278 0
-258 278 0
-262 278 0
-279 195 219 239 243 255 259 263 0
-195 279 0
-219 279 0
-239 279 0
-243 279 0
-255 279 0
-259 279 0
-263 279 0
-280 196 220 240 244 256 260 264 0
-196 280 0
-220 280 0
-240 280 0
-244 280 0
-256 280 0
-260 280 0
-264 280 0
-281 197 221 241 245 257 261 265 0
-197 281 0
-221 281 0
-241 281 0
-245 281 0
-257 281 0
-261 281 0
-265 281 0
-282 198 222 242 246 258 262 266 0
-198 282 0
-222 282 0
-242 282 0
-246 282 0
-258 282 0
-262 282 0
-266 282 0
-283 199 223 243 247 259 263 267 0
-199 283 0
-223 283 0
-243 283 0
-247 283 0
-259 283 0
-263 283 0
-267 283 0
-284 200 224 244 248 260 264 268 0
-200 284 0
-224 284 0
-244 284 0
-248 284 0
-260 284 0
-264 284 0
-268 284 0
-285 201 225 245 249 261 265 269 0
-201 285 0
-225 285 0
-245 285 0
-249 285 0
-261 285 0
-265 285 0
-269 285 0
-286 202 226 246 250 262 266 270 0
-202 286 0
-226 286 0
-246 286 0
-250 286 0
-262 286 0
-266 286 0
-270 286 0
-287 203 227 247 251 263 267 0
-203 287 0
-227 287 0
-247 287 0
-251 287 0
-263 287 0
-267 287 0
-288 204 228 248 252 264 268 0
-204 288 0
-228 288 0
-248 288 0
-252 288 0
-264 288 0
-268 288 0
-289 205 229 249 253 265 269 0
-205 289 0
-229 289 0
-249 289 0
-253 289 0
-265 289 0
-269 289 0
-290 206 230 250 254 266 270 0
-206 290 0
-230 290 0
-250 290 0
-254 290 0
-266 290 0
-270 290 0
-291 207 231 251 267 0
-207 291 0
-231 291 0
-251 291 0
-267 291 0
-292 208 232 252 268 0
-208 292 0
-232 292 0
-252 292 0
-268 292 0
-293 209 233 253 269 0
-209 293 0
-233 293 0
-253 293 0
-269 293 0
-294 210 234 254 270 0
-210 294 0
-234 294 0
-254 294 0
-270 294 0
-187 -211 0
-187 -235 0
-187 -255 0
-188 -212 0
-188 -236 0
-188 -256 0
-189 -213 0
-189 -237 0
-189 -257 0
-190 -214 0
-190 -238 0
-190 -258 0
-191 -215 0
-191 -235 0
-191 -239 0
-191 -255 0
-191 -259 0
-192 -216 0
-192 -236 0
-192 -240 0
-192 -256 0
-192 -260 0
-193 -217 0
-193 -237 0
-193 -241 0
-193 -257 0
-193 -261 0
-194 -218 0
-194 -238 0
-194 -242 0
-194 -258 0
-194 -262 0
-195 -219 0
-195 -239 0
-195 -243 0
-195 -255 0
-195 -259 0
-195 -263 0
-196 -220 0
-196 -240 0
-196 -244 0
-196 -256 0
-196 -260 0
-196 -264 0
-197 -221 0
-197 -241 0
-197 -245 0
-197 -257 0
-197 -261 0
-197 -265 0
-198 -222 0
-198 -242 0
-198 -246 0
-198 -258 0
-198 -262 0
-198 -266 0
-199 -223 0
-199 -243 0
-199 -247 0
-199 -259 0
-199 -263 0
-199 -267 0
-200 -224 0
-200 -244 0
-200 -248 0
-200 -260 0
-200 -264 0
-200 -268 0
-201 -225 0
-201 -245 0
-201 -249 0
-201 -261 0
-201 -265 0
-201 -269 0
-202 -226 0
-202 -246 0
-202 -250 0
-202 -262 0
-202 -266 0
-202 -270 0
-203 -227 0
-203 -247 0
-203 -251 0
-203 -263 0
-203 -267 0
-204 -228 0
-204 -248 0
-204 -252 0
-204 -264 0
-204 -268 0
-205 -229 0
-205 -249 0
-205 -253 0
-205 -265 0
-205 -269 0
-206 -230 0
-206 -250 0
-206 -254 0
-206 -266 0
-206 -270 0
-207 -231 0
-207 -251 0
-207 -267 0
-208 -232 0
-208 -252 0
-208 -268 0
-209 -233 0
-209 -253 0
-209 -269 0
-210 -234 0
-210 -254 0
-210 -270 0
-211 -235 0
-211 -255 0
-212 -236 0
-212 -256 0
-213 -237 0
-213 -257 0
-214 -238 0
-214 -258 0
-215 -235 0
-215 -239 0
-215 -255 0
-215 -259 0
-216 -236 0
-216 -240 0
-216 -256 0
-216 -260 0
-217 -237 0
-217 -241 0
-217 -257 0
-217 -261 0
-218 -238 0
-218 -242 0
-218 -258 0
-218 -262 0
-219 -239 0
-219 -243 0
-219 -255 0
-219 -259 0
-219 -263 0
-220 -240 0
-220 -244 0
-220 -256 0
-220 -260 0
-220 -264 0
-221 -241 0
-221 -245 0
-221 -257 0
-221 -261 0
-221 -265 0
-222 -242 0
-222 -246 0
-222 -258 0
-222 -262 0
-222 -266 0
-223 -243 0
-223 -247 0
-223 -259 0
-223 -263 0
-223 -267 0
-224 -244 0
-224 -248 0
-224 -260 0
-224 -264 0
-224 -268 0
-225 -245 0
-225 -249 0
-225 -261 0
-225 -265 0
-225 -269 0
-226 -246 0
-226 -250 0
-226 -262 0
-226 -266 0
-226 -270 0
-227 -247 0
-227 -251 0
-227 -263 0
-227 -267 0
-228 -248 0
-228 -252 0
-228 -264 0
-228 -268 0
-229 -249 0
-229 -253 0
-229 -265 0
-229 -269 0
-230 -250 0
-230 -254 0
-230 -266 0
-230 -270 0
-231 -251 0
-231 -267 0
-232 -252 0
-232 -268 0
-233 -253 0
-233 -269 0
-234 -254 0
-234 -270 0
-235 -255 0
-235 -259 0
-236 -256 0
-236 -260 0
-237 -257 0
-237 -261 0
-238 -258 0
-238 -262 0
-239 -255 0
-239 -259 0
-239 -263 0
-240 -256 0
-240 -260 0
-240 -264 0
-241 -257 0
-241 -261 0
-241 -265 0
-242 -258 0
-242 -262 0
-242 -266 0
-243 -255 0
-243 -259 0
-243 -263 0
-243 -267 0
-244 -256 0
-244 -260 0
-244 -264 0
-244 -268 0
-245 -257 0
-245 -261 0
-245 -265 0
-245 -269 0
-246 -258 0
-246 -262 0
-246 -266 0
-246 -270 0
-247 -259 0
-247 -263 0
-247 -267 0
-248 -260 0
-248 -264 0
-248 -268 0
-249 -261 0
-249 -265 0
-249 -269 0
-250 -262 0
-250 -266 0
-250 -270 0
-251 -263 0
-251 -267 0
-252 -264 0
-252 -268 0
-253 -265 0
-253 -269 0
-254 -266 0
-254 -270 0
-187 295 212 213 214 236 237 238 256 257 258 0
-187 -295 -212 0
-187 -295 -213 0
-187 -295 -214 0
-187 -295 -236 0
-187 -295 -237 0
-187 -295 -238 0
-187 -295 -256 0
-187 -295 -257 0
-187 -295 -258 0
-188 271 0
-188 295 213 214 237 238 257 258 0
-188 -295 -213 0
-188 -295 -214 0
-188 -295 -237 0
-188 -295 -238 0
-188 -295 -257 0
-188 -295 -258 0
-189 272 0
-189 295 214 238 258 0
-189 -295 -214 0
-189 -295 -238 0
-189 -295 -258 0
-190 273 0
-190 295 0
-191 295 216 217 218 236 237 238 240 241 242 256 257 258 260 261 262 0
-191 -295 -216 0
-191 -295 -217 0
-191 -295 -218 0
-191 -295 -236 0
-191 -295 -237 0
-191 -295 -238 0
-191 -295 -240 0
-191 -295 -241 0
-191 -295 -242 0
-191 -295 -256 0
-191 -295 -257 0
-191 -295 -258 0
-191 -295 -260 0
-191 -295 -261 0
-191 -295 -262 0
-192 275 0
-192 295 217 218 237 238 241 242 257 258 261 262 0
-192 -295 -217 0
-192 -295 -218 0
-192 -295 -237 0
-192 -295 -238 0
-192 -295 -241 0
-192 -295 -242 0
-192 -295 -257 0
-192 -295 -258 0
-192 -295 -261 0
-192 -295 -262 0
-193 276 0
-193 295 218 238 242 258 262 0
-193 -295 -218 0
-193 -295 -238 0
-193 -295 -242 0
-193 -295 -258 0
-193 -295 -262 0
-194 277 0
-194 295 0
-195 295 220 221 222 240 241 242 244 245 246 256 257 258 260 261 262 264 265 266 0
-195 -295 -220 0
-195 -295 -221 0
-195 -295 -222 0
-195 -295 -240 0
-195 -295 -241 0
-195 -295 -242 0
-195 -295 -244 0
-195 -295 -245 0
-195 -295 -246 0
-195 -295 -256 0
-195 -295 -257 0
-195 -295 -258 0
-195 -295 -260 0
-195 -295 -261 0
-195 -295 -262 0
-195 -295 -264 0
-195 -295 -265 0
-195 -295 -266 0
-196 279 0
-196 295 221 222 241 242 245 246 257 258 261 262 265 266 0
-196 -295 -221 0
-196 -295 -222 0
-196 -295 -241 0
-196 -295 -242 0
-196 -295 -245 0
-196 -295 -246 0
-196 -295 -257 0
-196 -295 -258 0
-196 -295 -261 0
-196 -295 -262 0
-196 -295 -265 0
-196 -295 -266 0
-197 280 0
-197 295 222 242 246 258 262 266 0
-197 -295 -222 0
-197 -295 -242 0
-197 -295 -246 0
-197 -295 -258 0
-197 -295 -262 0
-197 -295 -266 0
-198 281 0
-198 295 0
-199 295 224 225 226 244 245 246 248 249 250 260 261 262 264 265 266 268 269 270 0
-199 -295 -224 0
-199 -295 -225 0
-199 -295 -226 0
-199 -295 -244 0
-199 -295 -245 0
-199 -295 -246 0
-199 -295 -248 0
-199 -295 -249 0
-199 -295 -250 0
-199 -295 -260 0
-199 -295 -261 0
-199 -295 -262 0
-199 -295 -264 0
-199 -295 -265 0
-199 -295 -266 0
-199 -295 -268 0
-199 -295 -269 0
-199 -295 -270 0
-200 283 0
-200 295 225 226 245 246 249 250 261 262 265 266 269 270 0
-200 -295 -225 0
-200 -295 -226 0
-200 -295 -245 0
-200 -295 -246 0
-200 -295 -249 0
-200 -295 -250 0
-200 -295 -261 0
-200 -295 -262 0
-200 -295 -265 0
-200 -295 -266 0
-200 -295 -269 0
-200 -295 -270 0
-201 284 0
-201 295 226 246 250 262 266 270 0
-201 -295 -226 0
-201 -295 -246 0
-201 -295 -250 0
-201 -295 -262 0
-201 -295 -266 0
-201 -295 -270 0
-202 285 0
-202 295 0
-203 295 228 229 230 248 249 250 252 253 254 264 265 266 268 269 270 0
-203 -295 -228 0
-203 -295 -229 0
-203 -295 -230 0
-203 -295 -248 0
-203 -295 -249 0
-203 -295 -250 0
-203 -295 -252 0
-203 -295 -253 0
-203 -295 -254 0
-203 -295 -264 0
-203 -295 -265 0
-203 -295 -266 0
-203 -295 -268 0
-203 -295 -269 0
-203 -295 -270 0
-204 287 0
-204 295 229 230 249 250 253 254 265 266 269 270 0
-204 -295 -229 0
-204 -295 -230 0
-204 -295 -249 0
-204 -295 -250 0
-204 -295 -253 0
-204 -295 -254 0
-204 -295 -265 0
-204 -295 -266 0
-204 -295 -269 0
-204 -295 -270 0
-205 288 0
-205 295 230 250 254 266 270 0
-205 -295 -230 0
-205 -295 -250 0
-205 -295 -254 0
-205 -295 -266 0
-205 -295 -270 0
-206 289 0
-206 295 0
-207 295 232 233 234 252 253 254 268 269 270 0
-207 -295 -232 0
-207 -295 -233 0
-207 -295 -234 0
-207 -295 -252 0
-207 -295 -253 0
-207 -295 -254 0
-207 -295 -268 0
-207 -295 -269 0
-207 -295 -270 0
-208 291 0
-208 295 233 234 253 254 269 270 0
-208 -295 -233 0
-208 -295 -234 0
-208 -295 -253 0
-208 -295 -254 0
-208 -295 -269 0
-208 -295 -270 0
-209 292 0
-209 295 234 254 270 0
-209 -295 -234 0
-209 -295 -254 0
-209 -295 -270 0
-210 293 0
-210 295 0
-211 296 188 189 190 236 237 238 256 257 258 0
-211 -296 -188 0
-211 -296 -189 0
-211 -296 -190 0
-211 -296 -236 0
-211 -296 -237 0
-211 -296 -238 0
-211 -296 -256 0
-211 -296 -257 0
-211 -296 -258 0
-212 271 0
-212 296 189 190 237 238 257 258 0
-212 -296 -189 0
-212 -296 -190 0
-212 -296 -237 0
-212 -296 -238 0
-212 -296 -257 0
-212 -296 -258 0
-213 272 0
-213 296 190 238 258 0
-213 -296 -190 0
-213 -296 -238 0
-213 -296 -258 0
-214 273 0
-214 296 0
-215 296 192 193 194 236 237 238 240 241 242 256 257 258 260 261 262 0
-215 -296 -192 0
-215 -296 -193 0
-215 -296 -194 0
-215 -296 -236 0
-215 -296 -237 0
-215 -296 -238 0
-215 -296 -240 0
-215 -296 -241 0
-215 -296 -242 0
-215 -296 -256 0
-215 -296 -257 0
-215 -296 -258 0
-215 -296 -260 0
-215 -296 -261 0
-215 -296 -262 0
-216 275 0
-216 296 193 194 237 238 241 242 257 258 261 262 0
-216 -296 -193 0
-216 -296 -194 0
-216 -296 -237 0
-216 -296 -238 0
-216 -296 -241 0
-216 -296 -242 0
-216 -296 -257 0
-216 -296 -258 0
-216 -296 -261 0
-216 -296 -262 0
-217 276 0
-217 296 194 238 242 258 262 0
-217 -296 -194 0
-217 -296 -238 0
-217 -296 -242 0
-217 -296 -258 0
-217 -296 -262 0
-218 277 0
-218 296 0
-219 296 196 197 198 240 241 242 244 245 246 256 257 258 260 261 262 264 265 266 0
-219 -296 -196 0
-219 -296 -197 0
-219 -296 -198 0
-219 -296 -240 0
-219 -296 -241 0
-219 -296 -242 0
-219 -296 -244 0
-219 -296 -245 0
-219 -296 -246 0
-219 -296 -256 0
-219 -296 -257 0
-219 -296 -258 0
-219 -296 -260 0
-219 -296 -261 0
-219 -296 -262 0
-219 -296 -264 0
-219 -296 -265 0
-219 -296 -266 0
-220 279 0
-220 296 197 198 241 242 245 246 257 258 261 262 265 266 0
-220 -296 -197 0
-220 -296 -198 0
-220 -296 -241 0
-220 -296 -242 0
-220 -296 -245 0
-220 -296 -246 0
-220 -296 -257 0
-220 -296 -258 0
-220 -296 -261 0
-220 -296 -262 0
-220 -296 -265 0
-220 -296 -266 0
-221 280 0
-221 296 198 242 246 258 262 266 0
-221 -296 -198 0
-221 -296 -242 0
-221 -296 -246 0
-221 -296 -258 0
-221 -296 -262 0
-221 -296 -266 0
-222 281 0
-222 296 0
-223 296 200 201 202 244 245 246 248 249 250 260 261 262 264 265 266 268 269 270 0
-223 -296 -200 0
-223 -296 -201 0
-223 -296 -202 0
-223 -296 -244 0
-223 -296 -245 0
-223 -296 -246 0
-223 -296 -248 0
-223 -296 -249 0
-223 -296 -250 0
-223 -296 -260 0
-223 -296 -261 0
-223 -296 -262 0
-223 -296 -264 0
-223 -296 -265 0
-223 -296 -266 0
-223 -296 -268 0
-223 -296 -269 0
-223 -296 -270 0
-224 283 0
-224 296 201 202 245 246 249 250 261 262 265 266 269 270 0
-224 -296 -201 0
-224 -296 -202 0
-224 -296 -245 0
-224 -296 -246 0
-224 -296 -249 0
-224 -296 -250 0
-224 -296 -261 0
-224 -296 -262 0
-224 -296 -265 0
-224 -296 -266 0
-224 -296 -269 0
-224 -296 -270 0
-225 284 0
-225 296 202 246 250 262 266 270 0
-225 -296 -202 0
-225 -296 -246 0
-225 -296 -250 0
-225 -296 -262 0
-225 -296 -266 0
-225 -296 -270 0
-226 285 0
-226 296 0
-227 296 204 205 206 248 249 250 252 253 254 264 265 266 268 269 270 0
-227 -296 -204 0
-227 -296 -205 0
-227 -296 -206 0
-227 -296 -248 0
-227 -296 -249 0
-227 -296 -250 0
-227 -296 -252 0
-227 -296 -253 0
-227 -296 -254 0
-227 -296 -264 0
-227 -296 -265 0
-227 -296 -266 0
-227 -296 -268 0
-227 -296 -269 0
-227 -296 -270 0
-228 287 0
-228 296 205 206 249 250 253 254 265 266 269 270 0
-228 -296 -205 0
-228 -296 -206 0
-228 -296 -249 0
-228 -296 -250 0
-228 -296 -253 0
-228 -296 -254 0
-228 -296 -265 0
-228 -296 -266 0
-228 -296 -269 0
-228 -296 -270 0
-229 288 0
-229 296 206 250 254 266 270 0
-229 -296 -206 0
-229 -296 -250 0
-229 -296 -254 0
-229 -296 -266 0
-229 -296 -270 0
-230 289 0
-230 296 0
-231 296 208 209 210 252 253 254 268 269 270 0
-231 -296 -208 0
-231 -296 -209 0
-231 -296 -210 0
-231 -296 -252 0
-231 -296 -253 0
-231 -296 -254 0
-231 -296 -268 0
-231 -296 -269 0
-231 -296 -270 0
-232 291 0
-232 296 209 210 253 254 269 270 0
-232 -296 -209 0
-232 -296 -210 0
-232 -296 -253 0
-232 -296 -254 0
-232 -296 -269 0
-232 -296 -270 0
-233 292 0
-233 296 210 254 270 0
-233 -296 -210 0
-233 -296 -254 0
-233 -296 -270 0
-234 293 0
-234 296 0
-235 297 188 189 190 192 193 194 212 213 214 216 217 218 256 257 258 260 261 262 0
-235 -297 -188 0
-235 -297 -189 0
-235 -297 -190 0
-235 -297 -192 0
-235 -297 -193 0
-235 -297 -194 0
-235 -297 -212 0
-235 -297 -213 0
-235 -297 -214 0
-235 -297 -216 0
-235 -297 -217 0
-235 -297 -218 0
-235 -297 -256 0
-235 -297 -257 0
-235 -297 -258 0
-235 -297 -260 0
-235 -297 -261 0
-235 -297 -262 0
-236 271 275 0
-236 297 189 190 193 194 213 214 217 218 257 258 261 262 0
-236 -297 -189 0
-236 -297 -190 0
-236 -297 -193 0
-236 -297 -194 0
-236 -297 -213 0
-236 -297 -214 0
-236 -297 -217 0
-236 -297 -218 0
-236 -297 -257 0
-236 -297 -258 0
-236 -297 -261 0
-236 -297 -262 0
-237 272 276 0
-237 297 190 194 214 218 258 262 0
-237 -297 -190 0
-237 -297 -194 0
-237 -297 -214 0
-237 -297 -218 0
-237 -297 -258 0
-237 -297 -262 0
-238 273 277 0
-238 297 0
-239 297 192 193 194 196 197 198 216 217 218 220 221 222 256 257 258 260 261 262 264 265 266 0
-239 -297 -192 0
-239 -297 -193 0
-239 -297 -194 0
-239 -297 -196 0
-239 -297 -197 0
-239 -297 -198 0
-239 -297 -216 0
-239 -297 -217 0
-239 -297 -218 0
-239 -297 -220 0
-239 -297 -221 0
-239 -297 -222 0
-239 -297 -256 0
-239 -297 -257 0
-239 -297 -258 0
-239 -297 -260 0
-239 -297 -261 0
-239 -297 -262 0
-239 -297 -264 0
-239 -297 -265 0
-239 -297 -266 0
-240 275 279 0
-240 297 193 194 197 198 217 218 221 222 257 258 261 262 265 266 0
-240 -297 -193 0
-240 -297 -194 0
-240 -297 -197 0
-240 -297 -198 0
-240 -297 -217 0
-240 -297 -218 0
-240 -297 -221 0
-240 -297 -222 0
-240 -297 -257 0
-240 -297 -258 0
-240 -297 -261 0
-240 -297 -262 0
-240 -297 -265 0
-240 -297 -266 0
-241 276 280 0
-241 297 194 198 218 222 258 262 266 0
-241 -297 -194 0
-241 -297 -198 0
-241 -297 -218 0
-241 -297 -222 0
-241 -297 -258 0
-241 -297 -262 0
-241 -297 -266 0
-242 277 281 0
-242 297 0
-243 297 196 197 198 200 201 202 220 221 222 224 225 226 256 257 258 260 261 262 264 265 266 268 269 270 0
-243 -297 -196 0
-243 -297 -197 0
-243 -297 -198 0
-243 -297 -200 0
-243 -297 -201 0
-243 -297 -202 0
-243 -297 -220 0
-243 -297 -221 0
-243 -297 -222 0
-243 -297 -224 0
-243 -297 -225 0
-243 -297 -226 0
-243 -297 -256 0
-243 -297 -257 0
-243 -297 -258 0
-243 -297 -260 0
-243 -297 -261 0
-243 -297 -262 0
-243 -297 -264 0
-243 -297 -265 0
-243 -297 -266 0
-243 -297 -268 0
-243 -297 -269 0
-243 -297 -270 0
-244 279 283 0
-244 297 197 198 201 202 221 222 225 226 257 258 261 262 265 266 269 270 0
-244 -297 -197 0
-244 -297 -198 0
-244 -297 -201 0
-244 -297 -202 0
-244 -297 -221 0
-244 -297 -222 0
-244 -297 -225 0
-244 -297 -226 0
-244 -297 -257 0
-244 -297 -258 0
-244 -297 -261 0
-244 -297 -262 0
-244 -297 -265 0
-244 -297 -266 0
-244 -297 -269 0
-244 -297 -270 0
-245 280 284 0
-245 297 198 202 222 226 258 262 266 270 0
-245 -297 -198 0
-245 -297 -202 0
-245 -297 -222 0
-245 -297 -226 0
-245 -297 -258 0
-245 -297 -262 0
-245 -297 -266 0
-245 -297 -270 0
-246 281 285 0
-246 297 0
-247 297 200 201 202 204 205 206 224 225 226 228 229 230 260 261 262 264 265 266 268 269 270 0
-247 -297 -200 0
-247 -297 -201 0
-247 -297 -202 0
-247 -297 -204 0
-247 -297 -205 0
-247 -297 -206 0
-247 -297 -224 0
-247 -297 -225 0
-247 -297 -226 0
-247 -297 -228 0
-247 -297 -229 0
-247 -297 -230 0
-247 -297 -260 0
-247 -297 -261 0
-247 -297 -262 0
-247 -297 -264 0
-247 -297 -265 0
-247 -297 -266 0
-247 -297 -268 0
-247 -297 -269 0
-247 -297 -270 0
-248 283 287 0
-248 297 201 202 205 206 225 226 229 230 261 262 265 266 269 270 0
-248 -297 -201 0
-248 -297 -202 0
-248 -297 -205 0
-248 -297 -206 0
-248 -297 -225 0
-248 -297 -226 0
-248 -297 -229 0
-248 -297 -230 0
-248 -297 -261 0
-248 -297 -262 0
-248 -297 -265 0
-248 -297 -266 0
-248 -297 -269 0
-248 -297 -270 0
-249 284 288 0
-249 297 202 206 226 230 262 266 270 0
-249 -297 -202 0
-249 -297 -206 0
-249 -297 -226 0
-249 -297 -230 0
-249 -297 -262 0
-249 -297 -266 0
-249 -297 -270 0
-250 285 289 0
-250 297 0
-251 297 204 205 206 208 209 210 228 229 230 232 233 234 264 265 266 268 269 270 0
-251 -297 -204 0
-251 -297 -205 0
-251 -297 -206 0
-251 -297 -208 0
-251 -297 -209 0
-251 -297 -210 0
-251 -297 -228 0
-251 -297 -229 0
-251 -297 -230 0
-251 -297 -232 0
-251 -297 -233 0
-251 -297 -234 0
-251 -297 -264 0
-251 -297 -265 0
-251 -297 -266 0
-251 -297 -268 0
-251 -297 -269 0
-251 -297 -270 0
-252 287 291 0
-252 297 205 206 209 210 229 230 233 234 265 266 269 270 0
-252 -297 -205 0
-252 -297 -206 0
-252 -297 -209 0
-252 -297 -210 0
-252 -297 -229 0
-252 -297 -230 0
-252 -297 -233 0
-252 -297 -234 0
-252 -297 -265 0
-252 -297 -266 0
-252 -297 -269 0
-252 -297 -270 0
-253 288 292 0
-253 297 206 210 230 234 266 270 0
-253 -297 -206 0
-253 -297 -210 0
-253 -297 -230 0
-253 -297 -234 0
-253 -297 -266 0
-253 -297 -270 0
-254 289 293 0
-254 297 0
-255 298 188 189 190 192 193 194 196 197 198 212 213 214 216 217 218 220 221 222 236 237 238 240 241 242 244 245 246 0
-255 -298 -188 0
-255 -298 -189 0
-255 -298 -190 0
-255 -298 -192 0
-255 -298 -193 0
-255 -298 -194 0
-255 -298 -196 0
-255 -298 -197 0
-255 -298 -198 0
-255 -298 -212 0
-255 -298 -213 0
-255 -298 -214 0
-255 -298 -216 0
-255 -298 -217 0
-255 -298 -218 0
-255 -298 -220 0
-255 -298 -221 0
-255 -298 -222 0
-255 -298 -236 0
-255 -298 -237 0
-255 -298 -238 0
-255 -298 -240 0
-255 -298 -241 0
-255 -298 -242 0
-255 -298 -244 0
-255 -298 -245 0
-255 -298 -246 0
-256 271 275 0
-256 271 279 0
-256 275 279 0
-256 298 189 190 193 194 197 198 213 214 217 218 221 222 237 238 241 242 245 246 0
-256 -298 -189 0
-256 -298 -190 0
-256 -298 -193 0
-256 -298 -194 0
-256 -298 -197 0
-256 -298 -198 0
-256 -298 -213 0
-256 -298 -214 0
-256 -298 -217 0
-256 -298 -218 0
-256 -298 -221 0
-256 -298 -222 0
-256 -298 -237 0
-256 -298 -238 0
-256 -298 -241 0
-256 -298 -242 0
-256 -298 -245 0
-256 -298 -246 0
-257 272 276 0
-257 272 280 0
-257 276 280 0
-257 298 190 194 198 214 218 222 238 242 246 0
-257 -298 -190 0
-257 -298 -194 0
-257 -298 -198 0
-257 -298 -214 0
-257 -298 -218 0
-257 -298 -222 0
-257 -298 -238 0
-257 -298 -242 0
-257 -298 -246 0
-258 273 277 0
-258 273 281 0
-258 277 281 0
-258 298 0
-259 298 192 193 194 196 197 198 200 201 202 216 217 218 220 221 222 224 225 226 236 237 238 240 241 242 244 245 246 248 249 250 0
-259 -298 -192 0
-259 -298 -193 0
-259 -298 -194 0
-259 -298 -196 0
-259 -298 -197 0
-259 -298 -198 0
-259 -298 -200 0
-259 -298 -201 0
-259 -298 -202 0
-259 -298 -216 0
-259 -298 -217 0
-259 -298 -218 0
-259 -298 -220 0
-259 -298 -221 0
-259 -298 -222 0
-259 -298 -224 0
-259 -298 -225 0
-259 -298 -226 0
-259 -298 -236 0
-259 -298 -237 0
-259 -298 -238 0
-259 -298 -240 0
-259 -298 -241 0
-259 -298 -242 0
-259 -298 -244 0
-259 -298 -245 0
-259 -298 -246 0
-259 -298 -248 0
-259 -298 -249 0
-259 -298 -250 0
-260 275 279 0
-260 275 283 0
-260 279 283 0
-260 298 193 194 197 198 201 202 217 218 221 222 225 226 237 238 241 242 245 246 249 250 0
-260 -298 -193 0
-260 -298 -194 0
-260 -298 -197 0
-260 -298 -198 0
-260 -298 -201 0
-260 -298 -202 0
-260 -298 -217 0
-260 -298 -218 0
-260 -298 -221 0
-260 -298 -222 0
-260 -298 -225 0
-260 -298 -226 0
-260 -298 -237 0
-260 -298 -238 0
-260 -298 -241 0
-260 -298 -242 0
-260 -298 -245 0
-260 -298 -246 0
-260 -298 -249 0
-260 -298 -250 0
-261 276 280 0
-261 276 284 0
-261 280 284 0
-261 298 194 198 202 218 222 226 238 242 246 250 0
-261 -298 -194 0
-261 -298 -198 0
-261 -298 -202 0
-261 -298 -218 0
-261 -298 -222 0
-261 -298 -226 0
-261 -298 -238 0
-261 -298 -242 0
-261 -298 -246 0
-261 -298 -250 0
-262 277 281 0
-262 277 285 0
-262 281 285 0
-262 298 0
-263 298 196 197 198 200 201 202 204 205 206 220 221 222 224 225 226 228 229 230 240 241 242 244 245 246 248 249 250 252 253 254 0
-263 -298 -196 0
-263 -298 -197 0
-263 -298 -198 0
-263 -298 -200 0
-263 -298 -201 0
-263 -298 -202 0
-263 -298 -204 0
-263 -298 -205 0
-263 -298 -206 0
-263 -298 -220 0
-263 -298 -221 0
-263 -298 -222 0
-263 -298 -224 0
-263 -298 -225 0
-263 -298 -226 0
-263 -298 -228 0
-263 -298 -229 0
-263 -298 -230 0
-263 -298 -240 0
-263 -298 -241 0
-263 -298 -242 0
-263 -298 -244 0
-263 -298 -245 0
-263 -298 -246 0
-263 -298 -248 0
-263 -298 -249 0
-263 -298 -250 0
-263 -298 -252 0
-263 -298 -253 0
-263 -298 -254 0
-264 279 283 0
-264 279 287 0
-264 283 287 0
-264 298 197 198 201 202 205 206 221 222 225 226 229 230 241 242 245 246 249 250 253 254 0
-264 -298 -197 0
-264 -298 -198 0
-264 -298 -201 0
-264 -298 -202 0
-264 -298 -205 0
-264 -298 -206 0
-264 -298 -221 0
-264 -298 -222 0
-264 -298 -225 0
-264 -298 -226 0
-264 -298 -229 0
-264 -298 -230 0
-264 -298 -241 0
-264 -298 -242 0
-264 -298 -245 0
-264 -298 -246 0
-264 -298 -249 0
-264 -298 -250 0
-264 -298 -253 0
-264 -298 -254 0
-265 280 284 0
-265 280 288 0
-265 284 288 0
-265 298 198 202 206 222 226 230 242 246 250 254 0
-265 -298 -198 0
-265 -298 -202 0
-265 -298 -206 0
-265 -298 -222 0
-265 -298 -226 0
-265 -298 -230 0
-265 -298 -242 0
-265 -298 -246 0
-265 -298 -250 0
-265 -298 -254 0
-266 281 285 0
-266 281 289 0
-266 285 289 0
-266 298 0
-267 298 200 201 202 204 205 206 208 209 210 224 225 226 228 229 230 232 233 234 244 245 246 248 249 250 252 253 254 0
-267 -298 -200 0
-267 -298 -201 0
-267 -298 -202 0
-267 -298 -204 0
-267 -298 -205 0
-267 -298 -206 0
-267 -298 -208 0
-267 -298 -209 0
-267 -298 -210 0
-267 -298 -224 0
-267 -298 -225 0
-267 -298 -226 0
-267 -298 -228 0
-267 -298 -229 0
-267 -298 -230 0
-267 -298 -232 0
-267 -298 -233 0
-267 -298 -234 0
-267 -298 -244 0
-267 -298 -245 0
-267 -298 -246 0
-267 -298 -248 0
-267 -298 -249 0
-267 -298 -250 0
-267 -298 -252 0
-267 -298 -253 0
-267 -298 -254 0
-268 283 287 0
-268 283 291 0
-268 287 291 0
-268 298 201 202 205 206 209 210 225 226 229 230 233 234 245 246 249 250 253 254 0
-268 -298 -201 0
-268 -298 -202 0
-268 -298 -205 0
-268 -298 -206 0
-268 -298 -209 0
-268 -298 -210 0
-268 -298 -225 0
-268 -298 -226 0
-268 -298 -229 0
-268 -298 -230 0
-268 -298 -233 0
-268 -298 -234 0
-268 -298 -245 0
-268 -298 -246 0
-268 -298 -249 0
-268 -298 -250 0
-268 -298 -253 0
-268 -298 -254 0
-269 284 288 0
-269 284 292 0
-269 288 292 0
-269 298 202 206 210 226 230 234 246 250 254 0
-269 -298 -202 0
-269 -298 -206 0
-269 -298 -210 0
-269 -298 -226 0
-269 -298 -230 0
-269 -298 -234 0
-269 -298 -246 0
-269 -298 -250 0
-269 -298 -254 0
-270 285 289 0
-270 285 293 0
-270 289 293 0
-270 298 0
299 300 301 302 303 304 0
-299 -300 0
-299 -301 0
-299 -302 0
-299 -303 0
-299 -304 0
-300 -301 0
-300 -302 0
-300 -303 0
-300 -304 0
-301 -302 0
-301 -303 0
-301 -304 0
-302 -303 0
-302 -304 0
-303 -304 0
305 306 307 308 0
-305 -306 0
-305 -307 0
-305 -308 0
-306 -307 0
-306 -308 0
-307 -308 0
309 310 311 312 313 314 0
-309 -310 0
-309 -311 0
-309 -312 0
-309 -313 0
-309 -314 0
-310 -311 0
-310 -312 0
-310 -313 0
-310 -314 0
-311 -312 0
-311 -313 0
-311 -314 0
-312 -313 0
-312 -314 0
-313 -314 0
315 316 317 318 0
-315 -316 0
-315 -317 0
-315 -318 0
-316 -317 0
-316 -318 0
-317 -318 0
319 320 321 322 323 0
-319 -320 0
-319 -321 0
-319 -322 0
-319 -323 0
-320 -321 0
-320 -322 0
-320 -323 0
-321 -322 0
-321 -323 0
-322 -323 0
324 325 326 327 0
-324 -325 0
-324 -326 0
-324 -327 0
-325 -326 0
-325 -327 0
-326 -327 0
328 329 330 331 0
-328 -329 0
-328 -330 0
-328 -331 0
-329 -330 0
-329 -331 0
-330 -331 0
332 333 334 335 0
-332 -333 0
-332 -334 0
-332 -335 0
-333 -334 0
-333 -335 0
-334 -335 0
-336 299 0
-336 305 0
-299 -305 336 0
-337 299 0
-337 306 0
-299 -306 337 0
-338 299 0
-338 307 0
-299 -307 338 0
-339 299 0
-339 308 0
-299 -308 339 0
-340 300 0
-340 305 0
-300 -305 340 0
-341 300 0
-341 306 0
-300 -306 341 0
-342 300 0
-342 307 0
-300 -307 342 0
-343 300 0
-343 308 0
-300 -308 343 0
-344 301 0
-344 305 0
-301 -305 344 0
-345 301 0
-345 306 0
-301 -306 345 0
-346 301 0
-346 307 0
-301 -307 346 0
-347 301 0
-347 308 0
-301 -308 347 0
-348 302 0
-348 305 0
-302 -305 348 0
-349 302 0
-349 306 0
-302 -306 349 0
-350 302 0
-350 307 0
-302 -307 350 0
-351 302 0
-351 308 0
-302 -308 351 0
-352 303 0
-352 305 0
-303 -305 352 0
-353 303 0
-353 306 0
-303 -306 353 0
-354 303 0
-354 307 0
-303 -307 354 0
-355 303 0
-355 308 0
-303 -308 355 0
-356 304 0
-356 305 0
-304 -305 356 0
-357 304 0
-357 306 0
-304 -306 357 0
-358 304 0
-358 307 0
-304 -307 358 0
-359 304 0
-359 308 0
-304 -308 359 0
-360 309 0
-360 315 0
-309 -315 360 0
-361 309 0
-361 316 0
-309 -316 361 0
-362 309 0
-362 317 0
-309 -317 362 0
-363 309 0
-363 318 0
-309 -318 363 0
-364 310 0
-364 315 0
-310 -315 364 0
-365 310 0
-365 316 0
-310 -316 365 0
-366 310 0
-366 317 0
-310 -317 366 0
-367 310 0
-367 318 0
-310 -318 367 0
-368 311 0
-368 315 0
-311 -315 368 0
-369 311 0
-369 316 0
-311 -316 369 0
-370 311 0
-370 317 0
-311 -317 370 0
-371 311 0
-371 318 0
-311 -318 371 0
-372 312 0
-372 315 0
-312 -315 372 0
-373 312 0
-373 316 0
-312 -316 373 0
-374 312 0
-374 317 0
-312 -317 374 0
-375 312 0
-375 318 0
-312 -318 375 0
-376 313 0
-376 315 0
-313 -315 376 0
-377 313 0
-377 316 0
-313 -316 377 0
-378 313 0
-378 317 0
-313 -317 378 0
-379 313 0
-379 318 0
-313 -318 379 0
-380 314 0
-380 315 0
-314 -315 380 0
-381 314 0
-381 316 0
-314 -316 381 0
-382 314 0
-382 317 0
-314 -317 382 0
-383 314 0
-383 318 0
-314 -318 383 0
-384 319 0
-384 324 0
-319 -324 384 0
-385 319 0
-385 325 0
-319 -325 385 0
-386 319 0
-386 326 0
-319 -326 386 0
-387 319 0
-387 327 0
-319 -327 387 0
-388 320 0
-388 324 0
-320 -324 388 0
-389 320 0
-389 325 0
-320 -325 389 0
-390 320 0
-390 326 0
-320 -326 390 0
-391 320 0
-391 327 0
-320 -327 391 0
-392 321 0
-392 324 0
-321 -324 392 0
-393 321 0
-393 325 0
-321 -325 393 0
-394 321 0
-394 326 0
-321 -326 394 0
-395 321 0
-395 327 0
-321 -327 395 0
-396 322 0
-396 324 0
-322 -324 396 0
-397 322 0
-397 325 0
-322 -325 397 0
-398 322 0
-398 326 0
-322 -326 398 0
-399 322 0
-399 327 0
-322 -327 399 0
-400 323 0
-400 324 0
-323 -324 400 0
-401 323 0
-401 325 0
-323 -325 401 0
-402 323 0
-402 326 0
-323 -326 402 0
-403 323 0
-403 327 0
-323 -327 403 0
-404 328 0
-404 332 0
-328 -332 404 0
-405 328 0
-405 333 0
-328 -333 405 0
-406 328 0
-406 334 0
-328 -334 406 0
-407 328 0
-407 335 0
-328 -335 407 0
-408 329 0
-408 332 0
-329 -332 408 0
-409 329 0
-409 333 0
-329 -333 409 0
-410 329 0
-410 334 0
-329 -334 410 0
-411 329 0
-411 335 0
-329 -335 411 0
-412 330 0
-412 332 0
-330 -332 412 0
-413 330 0
-413 333 0
-330 -333 413 0
-414 330 0
-414 334 0
-330 -334 414 0
-415 330 0
-415 335 0
-330 -335 415 0
-416 331 0
-416 332 0
-331 -332 416 0
-417 331 0
-417 333 0
-331 -333 417 0
-418 331 0
-418 334 0
-331 -334 418 0
-419 331 0
-419 335 0
-331 -335 419 0
-420 336 360 384 404 0
-336 420 0
-360 420 0
-384 420 0
-404 420 0
-421 337 361 385 405 0
-337 421 0
-361 421 0
-385 421 0
-405 421 0
-422 338 362 386 406 0
-338 422 0
-362 422 0
-386 422 0
-406 422 0
-423 339 363 387 407 0
-339 423 0
-363 423 0
-387 423 0
-407 423 0
-424 340 364 384 388 404 408 0
-340 424 0
-364 424 0
-384 424 0
-388 424 0
-404 424 0
-408 424 0
-425 341 365 385 389 405 409 0
-341 425 0
-365 425 0
-385 425 0
-389 425 0
-405 425 0
-409 425 0
-426 342 366 386 390 406 410 0
-342 426 0
-366 426 0
-386 426 0
-390 426 0
-406 426 0
-410 426 0
-427 343 367 387 391 407 411 0
-343 427 0
-367 427 0
-387 427 0
-391 427 0
-407 427 0
-411 427 0
-428 344 368 388 392 404 408 412 0
-344 428 0
-368 428 0
-388 428 0
-392 428 0
-404 428 0
-408 428 0
-412 428 0
-429 345 369 389 393 405 409 413 0
-345 429 0
-369 429 0
-389 429 0
-393 429 0
-405 429 0
-409 429 0
-413 429 0
-430 346 370 390 394 406 410 414 0
-346 430 0
-370 430 0
-390 430 0
-394 430 0
-406 430 0
-410 430 0
-414 430 0
-431 347 371 391 395 407 411 415 0
-347 431 0
-371 431 0
-391 431 0
-395 431 0
-407 431 0
-411 431 0
-415 431 0
-432 348 372 392 396 408 412 416 0
-348 432 0
-372 432 0
-392 432 0
-396 432 0
-408 432 0
-412 432 0
-416 432 0
-433 349 373 393 397 409 413 417 0
-349 433 0
-373 433 0
-393 433 0
-397 433 0
-409 433 0
-413 433 0
-417 433 0
-434 350 374 394 398 410 414 418 0
-350 434 0
-374 434 0
-394 434 0
-398 434 0
-410 434 0
-414 434 0
-418 434 0
-435 351 375 395 399 411 415 419 0
-351 435 0
-375 435 0
-395 435 0
-399 435 0
-411 435 0
-415 435 0
-419 435 0
-436 352 376 396 400 412 416 0
-352 436 0
-376 436 0
-396 436 0
-400 436 0
-412 436 0
-416 436 0
-437 353 377 397 401 413 417 0
-353 437 0
-377 437 0
-397 437 0
-401 437 0
-413 437 0
-417 437 0
-438 354 378 398 402 414 418 0
-354 438 0
-378 438 0
-398 438 0
-402 438 0
-414 438 0
-418 438 0
-439 355 379 399 403 415 419 0
-355 439 0
-379 439 0
-399 439 0
-403 439 0
-415 439 0
-419 439 0
-440 356 380 400 416 0
-356 440 0
-380 440 0
-400 440 0
-416 440 0
-441 357 381 401 417 0
-357 441 0
-381 441 0
-401 441 0
-417 441 0
-442 358 382 402 418 0
-358 442 0
-382 442 0
-402 442 0
-418 442 0
-443 359 383 403 419 0
-359 443 0
-383 443 0
-403 443 0
-419 443 0
-336 -360 0
-336 -384 0
-336 -404 0
-337 -361 0
-337 -385 0
-337 -405 0
-338 -362 0
-338 -386 0
-338 -406 0
-339 -363 0
-339 -387 0
-339 -407 0
-340 -364 0
-340 -384 0
-340 -388 0
-340 -404 0
-340 -408 0
-341 -365 0
-341 -385 0
-341 -389 0
-341 -405 0
-341 -409 0
-342 -366 0
-342 -386 0
-342 -390 0
-342 -406 0
-342 -410 0
-343 -367 0
-343 -387 0
-343 -391 0
-343 -407 0
-343 -411 0
-344 -368 0
-344 -388 0
-344 -392 0
-344 -404 0
-344 -408 0
-344 -412 0
-345 -369 0
-345 -389 0
-345 -393 0
-345 -405 0
-345 -409 0
-345 -413 0
-346 -370 0
-346 -390 0
-346 -394 0
-346 -406 0
-346 -410 0
-346 -414 0
-347 -371 0
-347 -391 0
-347 -395 0
-347 -407 0
-347 -411 0
-347 -415 0
-348 -372 0
-348 -392 0
-348 -396 0
-348 -408 0
-348 -412 0
-348 -416 0
-349 -373 0
-349 -393 0
-349 -397 0
-349 -409 0
-349 -413 0
-349 -417 0
-350 -374 0
-350 -394 0
-350 -398 0
-350 -410 0
-350 -414 0
-350 -418 0
-351 -375 0
-351 -395 0
-351 -399 0
-351 -411 0
-351 -415 0
-351 -419 0
-352 -376 0
-352 -396 0
-352 -400 0
-352 -412 0
-352 -416 0
-353 -377 0
-353 -397 0
-353 -401 0
-353 -413 0
-353 -417 0
-354 -378 0
-354 -398 0
-354 -402 0
-354 -414 0
-354 -418 0
-355 -379 0
-355 -399 0
-355 -403 0
-355 -415 0
-355 -419 0
-356 -380 0
-356 -400 0
-356 -416 0
-357 -381 0
-357 -401 0
-357 -417 0
-358 -382 0
-358 -402 0
-358 -418 0
-359 -383 0
-359 -403 0
-359 -419 0
-360 -384 0
-360 -404 0
-361 -385 0
-361 -405 0
-362 -386 0
-362 -406 0
-363 -387 0
-363 -407 0
-364 -384 0
-364 -388 0
-364 -404 0
-364 -408 0
-365 -385 0
-365 -389 0
-365 -405 0
-365 -409 0
-366 -386 0
-366 -390 0
-366 -406 0
-366 -410 0
-367 -387 0
-367 -391 0
-367 -407 0
-367 -411 0
-368 -388 0
-368 -392 0
-368 -404 0
-368 -408 0
-368 -412 0
-369 -389 0
-369 -393 0
-369 -405 0
-369 -409 0
-369 -413 0
-370 -390 0
-370 -394 0
-370 -406 0
-370 -410 0
-370 -414 0
-371 -391 0
-371 -395 0
-371 -407 0
-371 -411 0
-371 -415 0
-372 -392 0
-372 -396 0
-372 -408 0
-372 -412 0
-372 -416 0
-373 -393 0
-373 -397 0
-373 -409 0
-373 -413 0
-373 -417 0
-374 -394 0
-374 -398 0
-374 -410 0
-374 -414 0
-374 -418 0
-375 -395 0
-375 -399 0
-375 -411 0
-375 -415 0
-375 -419 0
-376 -396 0
-376 -400 0
-376 -412 0
-376 -416 0
-377 -397 0
-377 -401 0
-377 -413 0
-377 -417 0
-378 -398 0
-378 -402 0
-378 -414 0
-378 -418 0
-379 -399 0
-379 -403 0
-379 -415 0
-379 -419 0
-380 -400 0
-380 -416 0
-381 -401 0
-381 -417 0
-382 -402 0
-382 -418 0
-383 -403 0
-383 -419 0
-384 -404 0
-384 -408 0
-385 -405 0
-385 -409 0
-386 -406 0
-386 -410 0
-387 -407 0
-387 -411 0
-388 -404 0
-388 -408 0
-388 -412 0
-389 -405 0
-389 -409 0
-389 -413 0
-390 -406 0
-390 -410 0
-390 -414 0
-391 -407 0
-391 -411 0
-391 -415 0
-392 -404 0
-392 -408 0
-392 -412 0
-392 -416 0
-393 -405 0
-393 -409 0
-393 -413 0
-393 -417 0
-394 -406 0
-394 -410 0
-394 -414 0
-394 -418 0
-395 -407 0
-395 -411 0
-395 -415 0
-395 -419 0
-396 -408 0
-396 -412 0
-396 -416 0
-397 -409 0
-397 -413 0
-397 -417 0
-398 -410 0
-398 -414 0
-398 -418 0
-399 -411 0
-399 -415 0
-399 -419 0
-400 -412 0
-400 -416 0
-401 -413 0
-401 -417 0
-402 -414 0
-402 -418 0
-403 -415 0
-403 -419 0
-336 444 361 362 363 385 386 387 405 406 407 0
-336 -444 -361 0
-336 -444 -362 0
-336 -444 -363 0
-336 -444 -385 0
-336 -444 -386 0
-336 -444 -387 0
-336 -444 -405 0
-336 -444 -406 0
-336 -444 -407 0
-337 420 0
-337 444 362 363 386 387 406 407 0
-337 -444 -362 0
-337 -444 -363 0
-337 -444 -386 0
-337 -444 -387 0
-337 -444 -406 0
-337 -444 -407 0
-338 421 0
-338 444 363 387 407 0
-338 -444 -363 0
-338 -444 -387 0
-338 -444 -407 0
-339 422 0
-339 444 0
-340 444 365 366 367 385 386 387 389 390 391 405 406 407 409 410 411 0
-340 -444 -365 0
-340 -444 -366 0
-340 -444 -367 0
-340 -444 -385 0
-340 -444 -386 0
-340 -444 -387 0
-340 -444 -389 0
-340 -444 -390 0
-340 -444 -391 0
-340 -444 -405 0
-340 -444 -406 0
-340 -444 -407 0
-340 -444 -409 0
-340 -444 -410 0
-340 -444 -411 0
-341 424 0
-341 444 366 367 386 387 390 391 406 407 410 411 0
-341 -444 -366 0
-341 -444 -367 0
-341 -444 -386 0
-341 -444 -387 0
-341 -444 -390 0
-341 -444 -391 0
-341 -444 -406 0
-341 -444 -407 0
-341 -444 -410 0
-341 -444 -411 0
-342 425 0
-342 444 367 387 391 407 411 0
-342 -444 -367 0
-342 -444 -387 0
-342 -444 -391 0
-342 -444 -407 0
-342 -444 -411 0
-343 426 0
-343 444 0
-344 444 369 370 371 389 390 391 393 394 395 405 406 407 409 410 411 413 414 415 0
-344 -444 -369 0
-344 -444 -370 0
-344 -444 -371 0
-344 -444 -389 0
-344 -444 -390 0
-344 -444 -391 0
-344 -444 -393 0
-344 -444 -394 0
-344 -444 -395 0
-344 -444 -405 0
-344 -444 -406 0
-344 -444 -407 0
-344 -444 -409 0
-344 -444 -410 0
-344 -444 -411 0
-344 -444 -413 0
-344 -444 -414 0
-344 -444 -415 0
-345 428 0
-345 444 370 371 390 391 394 395 406 407 410 411 414 415 0
-345 -444 -370 0
-345 -444 -371 0
-345 -444 -390 0
-345 -444 -391 0
-345 -444 -394 0
-345 -444 -395 0
-345 -444 -406 0
-345 -444 -407 0
-345 -444 -410 0
-345 -444 -411 0
-345 -444 -414 0
-345 -444 -415 0
-346 429 0
-346 444 371 391 395 407 411 415 0
-346 -444 -371 0
-346 -444 -391 0
-346 -444 -395 0
-346 -444 -407 0
-346 -444 -411 0
-346 -444 -415 0
-347 430 0
-347 444 0
-348 444 373 374 375 393 394 395 397 398 399 409 410 411 413 414 415 417 418 419 0
-348 -444 -373 0
-348 -444 -374 0
-348 -444 -375 0
-348 -444 -393 0
-348 -444 -394 0
-348 -444 -395 0
-348 -444 -397 0
-348 -444 -398 0
-348 -444 -399 0
-348 -444 -409 0
-348 -444 -410 0
-348 -444 -411 0
-348 -444 -413 0
-348 -444 -414 0
-348 -444 -415 0
-348 -444 -417 0
-348 -444 -418 0
-348 -444 -419 0
-349 432 0
-349 444 374 375 394 395 398 399 410 411 414 415 418 419 0
-349 -444 -374 0
-349 -444 -375 0
-349 -444 -394 0
-349 -444 -395 0
-349 -444 -398 0
-349 -444 -399 0
-349 -444 -410 0
-349 -444 -411 0
-349 -444 -414 0
-349 -444 -415 0
-349 -444 -418 0
-349 -444 -419 0
-350 433 0
-350 444 375 395 399 411 415 419 0
-350 -444 -375 0
-350 -444 -395 0
-350 -444 -399 0
-350 -444 -411 0
-350 -444 -415 0
-350 -444 -419 0
-351 434 0
-351 444 0
-352 444 377 378 379 397 398 399 401 402 403 413 414 415 417 418 419 0
-352 -444 -377 0
-352 -444 -378 0
-352 -444 -379 0
-352 -444 -397 0
-352 -444 -398 0
-352 -444 -399 0
-352 -444 -401 0
-352 -444 -402 0
-352 -444 -403 0
-352 -444 -413 0
-352 -444 -414 0
-352 -444 -415 0
-352 -444 -417 0
-352 -444 -418 0
-352 -444 -419 0
-353 436 0
-353 444 378 379 398 399 402 403 414 415 418 419 0
-353 -444 -378 0
-353 -444 -379 0
-353 -444 -398 0
-353 -444 -399 0
-353 -444 -402 0
-353 -444 -403 0
-353 -444 -414 0
-353 -444 -415 0
-353 -444 -418 0
-353 -444 -419 0
-354 437 0
-354 444 379 399 403 415 419 0
-354 -444 -379 0
-354 -444 -399 0
-354 -444 -403 0
-354 -444 -415 0
-354 -444 -419 0
-355 438 0
-355 444 0
-356 444 381 382 383 401 402 403 417 418 419 0
-356 -444 -381 0
-356 -444 -382 0
-356 -444 -383 0
-356 -444 -401 0
-356 -444 -402 0
-356 -444 -403 0
-356 -444 -417 0
-356 -444 -418 0
-356 -444 -419 0
-357 440 0
-357 444 382 383 402 403 418 419 0
-357 -444 -382 0
-357 -444 -383 0
-357 -444 -402 0
-357 -444 -403 0
-357 -444 -418 0
-357 -444 -419 0
-358 441 0
-358 444 383 403 419 0
-358 -444 -383 0
-358 -444 -403 0
-358 -444 -419 0
-359 442 0
-359 444 0
-360 445 337 338 339 385 386 387 405 406 407 0
-360 -445 -337 0
-360 -445 -338 0
-360 -445 -339 0
-360 -445 -385 0
-360 -445 -386 0
-360 -445 -387 0
-360 -445 -405 0
-360 -445 -406 0
-360 -445 -407 0
-361 420 0
-361 445 338 339 386 387 406 407 0
-361 -445 -338 0
-361 -445 -339 0
-361 -445 -386 0
-361 -445 -387 0
-361 -445 -406 0
-361 -445 -407 0
-362 421 0
-362 445 339 387 407 0
-362 -445 -339 0
-362 -445 -387 0
-362 -445 -407 0
-363 422 0
-363 445 0
-364 445 341 342 343 385 386 387 389 390 391 405 406 407 409 410 411 0
-364 -445 -341 0
-364 -445 -342 0
-364 -445 -343 0
-364 -445 -385 0
-364 -445 -386 0
-364 -445 -387 0
-364 -445 -389 0
-364 -445 -390 0
-364 -445 -391 0
-364 -445 -405 0
-364 -445 -406 0
-364 -445 -407 0
-364 -445 -409 0
-364 -445 -410 0
-364 -445 -411 0
-365 424 0
-365 445 342 343 386 387 390 391 406 407 410 411 0
-365 -445 -342 0
-365 -445 -343 0
-365 -445 -386 0
-365 -445 -387 0
-365 -445 -390 0
-365 -445 -391 0
-365 -445 -406 0
-365 -445 -407 0
-365 -445 -410 0
-365 -445 -411 0
-366 425 0
-366 445 343 387 391 407 411 0
-366 -445 -343 0
-366 -445 -387 0
-366 -445 -391 0
-366 -445 -407 0
-366 -445 -411 0
-367 426 0
-367 445 0
-368 445 345 346 347 389 390 391 393 394 395 405 406 407 409 410 411 413 414 415 0
-368 -445 -345 0
-368 -445 -346 0
-368 -445 -347 0
-368 -445 -389 0
-368 -445 -390 0
-368 -445 -391 0
-368 -445 -393 0
-368 -445 -394 0
-368 -445 -395 0
-368 -445 -405 0
-368 -445 -406 0
-368 -445 -407 0
-368 -445 -409 0
-368 -445 -410 0
-368 -445 -411 0
-368 -445 -413 0
-368 -445 -414 0
-368 -445 -415 0
-369 428 0
-369 445 346 347 390 391 394 395 406 407 410 411 414 415 0
-369 -445 -346 0
-369 -445 -347 0
-369 -445 -390 0
-369 -445 -391 0
-369 -445 -394 0
-369 -445 -395 0
-369 -445 -406 0
-369 -445 -407 0
-369 -445 -410 0
-369 -445 -411 0
-369 -445 -414 0
-369 -445 -415 0
-370 429 0
-370 445 347 391 395 407 411 415 0
-370 -445 -347 0
-370 -445 -391 0
-370 -445 -395 0
-370 -445 -407 0
-370 -445 -411 0
-370 -445 -415 0
-371 430 0
-371 445 0
-372 445 349 350 351 393 394 395 397 398 399 409 410 411 413 414 415 417 418 419 0
-372 -445 -349 0
-372 -445 -350 0
-372 -445 -351 0
-372 -445 -393 0
-372 -445 -394 0
-372 -445 -395 0
-372 -445 -397 0
-372 -445 -398 0
-372 -445 -399 0
-372 -445 -409 0
-372 -445 -410 0
-372 -445 -411 0
-372 -445 -413 0
-372 -445 -414 0
-372 -445 -415 0
-372 -445 -417 0
-372 -445 -418 0
-372 -445 -419 0
-373 432 0
-373 445 350 351 394 395 398 399 410 411 414 415 418 419 0
-373 -445 -350 0
-373 -445 -351 0
-373 -445 -394 0
-373 -445 -395 0
-373 -445 -398 0
-373 -445 -399 0
-373 -445 -410 0
-373 -445 -411 0
-373 -445 -414 0
-373 -445 -415 0
-373 -445 -418 0
-373 -445 -419 0
-374 433 0
-374 445 351 395 399 411 415 419 0
-374 -445 -351 0
-374 -445 -395 0
-374 -445 -399 0
-374 -445 -411 0
-374 -445 -415 0
-374 -445 -419 0
-375 434 0
-375 445 0
-376 445 353 354 355 397 398 399 401 402 403 413 414 415 417 418 419 0
-376 -445 -353 0
-376 -445 -354 0
-376 -445 -355 0
-376 -445 -397 0
-376 -445 -398 0
-376 -445 -399 0
-376 -445 -401 0
-376 -445 -402 0
-376 -445 -403 0
-376 -445 -413 0
-376 -445 -414 0
-376 -445 -415 0
-376 -445 -417 0
-376 -445 -418 0
-376 -445 -419 0
-377 436 0
-377 445 354 355 398 399 402 403 414 415 418 419 0
-377 -445 -354 0
-377 -445 -355 0
-377 -445 -398 0
-377 -445 -399 0
-377 -445 -402 0
-377 -445 -403 0
-377 -445 -414 0
-377 -445 -415 0
-377 -445 -418 0
-377 -445 -419 0
-378 437 0
-378 445 355 399 403 415 419 0
-378 -445 -355 0
-378 -445 -399 0
-378 -445 -403 0
-378 -445 -415 0
-378 -445 -419 0
-379 438 0
-379 445 0
-380 445 357 358 359 401 402 403 417 418 419 0
-380 -445 -357 0
-380 -445 -358 0
-380 -445 -359 0
-380 -445 -401 0
-380 -445 -402 0
-380 -445 -403 0
-380 -445 -417 0
-380 -445 -418 0
-380 -445 -419 0
-381 440 0
-381 445 358 359 402 403 418 419 0
-381 -445 -358 0
-381 -445 -359 0
-381 -445 -402 0
-381 -445 -403 0
-381 -445 -418 0
-381 -445 -419 0
-382 441 0
-382 445 359 403 419 0
-382 -445 -359 0
-382 -445 -403 0
-382 -445 -419 0
-383 442 0
-383 445 0
-384 446 337 338 339 341 342 343 361 362 363 365 366 367 405 406 407 409 410 411 0
-384 -446 -337 0
-384 -446 -338 0
-384 -446 -339 0
-384 -446 -341 0
-384 -446 -342 0
-384 -446 -343 0
-384 -446 -361 0
-384 -446 -362 0
-384 -446 -363 0
-384 -446 -365 0
-384 -446 -366 0
-384 -446 -367 0
-384 -446 -405 0
-384 -446 -406 0
-384 -446 -407 0
-384 -446 -409 0
-384 -446 -410 0
-384 -446 -411 0
-385 420 424 0
-385 446 338 339 342 343 362 363 366 367 406 407 410 411 0
-385 -446 -338 0
-385 -446 -339 0
-385 -446 -342 0
-385 -446 -343 0
-385 -446 -362 0
-385 -446 -363 0
-385 -446 -366 0
-385 -446 -367 0
-385 -446 -406 0
-385 -446 -407 0
-385 -446 -410 0
-385 -446 -411 0
-386 421 425 0
-386 446 339 343 363 367 407 411 0
-386 -446 -339 0
-386 -446 -343 0
-386 -446 -363 0
-386 -446 -367 0
-386 -446 -407 0
-386 -446 -411 0
-387 422 426 0
-387 446 0
-388 446 341 342 343 345 346 347 365 366 367 369 370 371 405 406 407 409 410 411 413 414 415 0
-388 -446 -341 0
-388 -446 -342 0
-388 -446 -343 0
-388 -446 -345 0
-388 -446 -346 0
-388 -446 -347 0
-388 -446 -365 0
-388 -446 -366 0
-388 -446 -367 0
-388 -446 -369 0
-388 -446 -370 0
-388 -446 -371 0
-388 -446 -405 0
-388 -446 -406 0
-388 -446 -407 0
-388 -446 -409 0
-388 -446 -410 0
-388 -446 -411 0
-388 -446 -413 0
-388 -446 -414 0
-388 -446 -415 0
-389 424 428 0
-389 446 342 343 346 347 366 367 370 371 406 407 410 411 414 415 0
-389 -446 -342 0
-389 -446 -343 0
-389 -446 -346 0
-389 -446 -347 0
-389 -446 -366 0
-389 -446 -367 0
-389 -446 -370 0
-389 -446 -371 0
-389 -446 -406 0
-389 -446 -407 0
-389 -446 -410 0
-389 -446 -411 0
-389 -446 -414 0
-389 -446 -415 0
-390 425 429 0
-390 446 343 347 367 371 407 411 415 0
-390 -446 -343 0
-390 -446 -347 0
-390 -446 -367 0
-390 -446 -371 0
-390 -446 -407 0
-390 -446 -411 0
-390 -446 -415 0
-391 426 430 0
-391 446 0
-392 446 345 346 347 349 350 351 369 370 371 373 374 375 405 406 407 409 410 411 413 414 415 417 418 419 0
-392 -446 -345 0
-392 -446 -346 0
-392 -446 -347 0
-392 -446 -349 0
-392 -446 -350 0
-392 -446 -351 0
-392 -446 -369 0
-392 -446 -370 0
-392 -446 -371 0
-392 -446 -373 0
-392 -446 -374 0
-392 -446 -375 0
-392 -446 -405 0
-392 -446 -406 0
-392 -446 -407 0
-392 -446 -409 0
-392 -446 -410 0
-392 -446 -411 0
-392 -446 -413 0
-392 -446 -414 0
-392 -446 -415 0
-392 -446 -417 0
-392 -446 -418 0
-392 -446 -419 0
-393 428 432 0
-393 446 346 347 350 351 370 371 374 375 406 407 410 411 414 415 418 419 0
-393 -446 -346 0
-393 -446 -347 0
-393 -446 -350 0
-393 -446 -351 0
-393 -446 -370 0
-393 -446 -371 0
-393 -446 -374 0
-393 -446 -375 0
-393 -446 -406 0
-393 -446 -407 0
-393 -446 -410 0
-393 -446 -411 0
-393 -446 -414 0
-393 -446 -415 0
-393 -446 -418 0
-393 -446 -419 0
-394 429 433 0
-394 446 347 351 371 375 407 411 415 419 0
-394 -446 -347 0
-394 -446 -351 0
-394 -446 -371 0
-394 -446 -375 0
-394 -446 -407 0
-394 -446 -411 0
-394 -446 -415 0
-394 -446 -419 0
-395 430 434 0
-395 446 0
-396 446 349 350 351 353 354 355 373 374 375 377 378 379 409 410 411 413 414 415 417 418 419 0
-396 -446 -349 0
-396 -446 -350 0
-396 -446 -351 0
-396 -446 -353 0
-396 -446 -354 0
-396 -446 -355 0
-396 -446 -373 0
-396 -446 -374 0
-396 -446 -375 0
-396 -446 -377 0
-396 -446 -378 0
-396 -446 -379 0
-396 -446 -409 0
-396 -446 -410 0
-396 -446 -411 0
-396 -446 -413 0
-396 -446 -414 0
-396 -446 -415 0
-396 -446 -417 0
-396 -446 -418 0
-396 -446 -419 0
-397 432 436 0
-397 446 350 351 354 355 374 375 378 379 410 411 414 415 418 419 0
-397 -446 -350 0
-397 -446 -351 0
-397 -446 -354 0
-397 -446 -355 0
-397 -446 -374 0
-397 -446 -375 0
-397 -446 -378 0
-397 -446 -379 0
-397 -446 -410 0
-397 -446 -411 0
-397 -446 -414 0
-397 -446 -415 0
-397 -446 -418 0
-397 -446 -419 0
-398 433 437 0
-398 446 351 355 375 379 411 415 419 0
-398 -446 -351 0
-398 -446 -355 0
-398 -446 -375 0
-398 -446 -379 0
-398 -446 -411 0
-398 -446 -415 0
-398 -446 -419 0
-399 434 438 0
-399 446 0
-400 446 353 354 355 357 358 359 377 378 379 381 382 383 413 414 415 417 418 419 0
-400 -446 -353 0
-400 -446 -354 0
-400 -446 -355 0
-400 -446 -357 0
-400 -446 -358 0
-400 -446 -359 0
-400 -446 -377 0
-400 -446 -378 0
-400 -446 -379 0
-400 -446 -381 0
-400 -446 -382 0
-400 -446 -383 0
-400 -446 -413 0
-400 -446 -414 0
-400 -446 -415 0
-400 -446 -417 0
-400 -446 -418 0
-400 -446 -419 0
-401 436 440 0
-401 446 354 355 358 359 378 379 382 383 414 415 418 419 0
-401 -446 -354 0
-401 -446 -355 0
-401 -446 -358 0
-401 -446 -359 0
-401 -446 -378 0
-401 -446 -379 0
-401 -446 -382 0
-401 -446 -383 0
-401 -446 -414 0
-401 -446 -415 0
-401 -446 -418 0
-401 -446 -419 0
-402 437 441 0
-402 446 355 359 379 383 415 419 0
-402 -446 -355 0
-402 -446 -359 0
-402 -446 -379 0
-402 -446 -383 0
-402 -446 -415 0
-402 -446 -419 0
-403 438 442 0
-403 446 0
-404 447 337 338 339 341 342 343 345 346 347 361 362 363 365 366 367 369 370 371 385 386 387 389 390 391 393 394 395 0
-404 -447 -337 0
-404 -447 -338 0
-404 -447 -339 0
-404 -447 -341 0
-404 -447 -342 0
-404 -447 -343 0
-404 -447 -345 0
-404 -447 -346 0
-404 -447 -347 0
-404 -447 -361 0
-404 -447 -362 0
-404 -447 -363 0
-404 -447 -365 0
-404 -447 -366 0
-404 -447 -367 0
-404 -447 -369 0
-404 -447 -370 0
-404 -447 -371 0
-404 -447 -385 0
-404 -447 -386 0
-404 -447 -387 0
-404 -447 -389 0
-404 -447 -390 0
-404 -447 -391 0
-404 -447 -393 0
-404 -447 -394 0
-404 -447 -395 0
-405 420 424 0
-405 420 428 0
-405 424 428 0
-405 447 338 339 342 343 346 347 362 363 366 367 370 371 386 387 390 391 394 395 0
-405 -447 -338 0
-405 -447 -339 0
-405 -447 -342 0
-405 -447 -343 0
-405 -447 -346 0
-405 -447 -347 0
-405 -447 -362 0
-405 -447 -363 0
-405 -447 -366 0
-405 -447 -367 0
-405 -447 -370 0
-405 -447 -371 0
-405 -447 -386 0
-405 -447 -387 0
-405 -447 -390 0
-405 -447 -391 0
-405 -447 -394 0
-405 -447 -395 0
-406 421 425 0
-406 421 429 0
-406 425 429 0
-406 447 339 343 347 363 367 371 387 391 395 0
-406 -447 -339 0
-406 -447 -343 0
-406 -447 -347 0
-406 -447 -363 0
-406 -447 -367 0
-406 -447 -371 0
-406 -447 -387 0
-406 -447 -391 0
-406 -447 -395 0
-407 422 426 0
-407 422 430 0
-407 426 430 0
-407 447 0
-408 447 341 342 343 345 346 347 349 350 351 365 366 367 369 370 371 373 374 375 385 386 387 389 390 391 393 394 395 397 398 399 0
-408 -447 -341 0
-408 -447 -342 0
-408 -447 -343 0
-408 -447 -345 0
-408 -447 -346 0
-408 -447 -347 0
-408 -447 -349 0
-408 -447 -350 0
-408 -447 -351 0
-408 -447 -365 0
-408 -447 -366 0
-408 -447 -367 0
-408 -447 -369 0
-408 -447 -370 0
-408 -447 -371 0
-408 -447 -373 0
-408 -447 -374 0
-408 -447 -375 0
-408 -447 -385 0
-408 -447 -386 0
-408 -447 -387 0
-408 -447 -389 0
-408 -447 -390 0
-408 -447 -391 0
-408 -447 -393 0
-408 -447 -394 0
-408 -447 -395 0
-408 -447 -397 0
-408 -447 -398 0
-408 -447 -399 0
-409 424 428 0
-409 424 432 0
-409 428 432 0
-409 447 342 343 346 347 350 351 366 367 370 371 374 375 386 387 390 391 394 395 398 399 0
-409 -447 -342 0
-409 -447 -343 0
-409 -447 -346 0
-409 -447 -347 0
-409 -447 -350 0
-409 -447 -351 0
-409 -447 -366 0
-409 -447 -367 0
-409 -447 -370 0
-409 -447 -371 0
-409 -447 -374 0
-409 -447 -375 0
-409 -447 -386 0
-409 -447 -387 0
-409 -447 -390 0
-409 -447 -391 0
-409 -447 -394 0
-409 -447 -395 0
-409 -447 -398 0
-409 -447 -399 0
-410 425 429 0
-410 425 433 0
-410 429 433 0
-410 447 343 347 351 367 371 375 387 391 395 399 0
-410 -447 -343 0
-410 -447 -347 0
-410 -447 -351 0
-410 -447 -367 0
-410 -447 -371 0
-410 -447 -375 0
-410 -447 -387 0
-410 -447 -391 0
-410 -447 -395 0
-410 -447 -399 0
-411 426 430 0
-411 426 434 0
-411 430 434 0
-411 447 0
-412 447 345 346 347 349 350 351 353 354 355 369 370 371 373 374 375 377 378 379 389 390 391 393 394 395 397 398 399 401 402 403 0
-412 -447 -345 0
-412 -447 -346 0
-412 -447 -347 0
-412 -447 -349 0
-412 -447 -350 0
-412 -447 -351 0
-412 -447 -353 0
-412 -447 -354 0
-412 -447 -355 0
-412 -447 -369 0
-412 -447 -370 0
-412 -447 -371 0
-412 -447 -373 0
-412 -447 -374 0
-412 -447 -375 0
-412 -447 -377 0
-412 -447 -378 0
-412 -447 -379 0
-412 -447 -389 0
-412 -447 -390 0
-412 -447 -391 0
-412 -447 -393 0
-412 -447 -394 0
-412 -447 -395 0
-412 -447 -397 0
-412 -447 -398 0
-412 -447 -399 0
-412 -447 -401 0
-412 -447 -402 0
-412 -447 -403 0
-413 428 432 0
-413 428 436 0
-413 432 436 0
-413 447 346 347 350 351 354 355 370 371 374 375 378 379 390 391 394 395 398 399 402 403 0
-413 -447 -346 0
-413 -447 -347 0
-413 -447 -350 0
-413 -447 -351 0
-413 -447 -354 0
-413 -447 -355 0
-413 -447 -370 0
-413 -447 -371 0
-413 -447 -374 0
-413 -447 -375 0
-413 -447 -378 0
-413 -447 -379 0
-413 -447 -390 0
-413 -447 -391 0
-413 -447 -394 0
-413 -447 -395 0
-413 -447 -398 0
-413 -447 -399 0
-413 -447 -402 0
-413 -447 -403 0
-414 429 433 0
-414 429 437 0
-414 433 437 0
-414 447 347 351 355 371 375 379 391 395 399 403 0
-414 -447 -347 0
-414 -447 -351 0
-414 -447 -355 0
-414 -447 -371 0
-414 -447 -375 0
-414 -447 -379 0
-414 -447 -391 0
-414 -447 -395 0
-414 -447 -399 0
-414 -447 -403 0
-415 430 434 0
-415 430 438 0
-415 434 438 0
-415 447 0
-416 447 349 350 351 353 354 355 357 358 359 373 374 375 377 378 379 381 382 383 393 394 395 397 398 399 401 402 403 0
-416 -447 -349 0
-416 -447 -350 0
-416 -447 -351 0
-416 -447 -353 0
-416 -447 -354 0
-416 -447 -355 0
-416 -447 -357 0
-416 -447 -358 0
-416 -447 -359 0
-416 -447 -373 0
-416 -447 -374 0
-416 -447 -375 0
-416 -447 -377 0
-416 -447 -378 0
-416 -447 -379 0
-416 -447 -381 0
-416 -447 -382 0
-416 -447 -383 0
-416 -447 -393 0
-416 -447 -394 0
-416 -447 -395 0
-416 -447 -397 0
-416 -447 -398 0
-416 -447 -399 0
-416 -447 -401 0
-416 -447 -402 0
-416 -447 -403 0
-417 432 436 0
-417 432 440 0
-417 436 440 0
-417 447 350 351 354 355 358 359 374 375 378 379 382 383 394 395 398 399 402 403 0
-417 -447 -350 0
-417 -447 -351 0
-417 -447 -354 0
-417 -447 -355 0
-417 -447 -358 0
-417 -447 -359 0
-417 -447 -374 0
-417 -447 -375 0
-417 -447 -378 0
-417 -447 -379 0
-417 -447 -382 0
-417 -447 -383 0
-417 -447 -394 0
-417 -447 -395 0
-417 -447 -398 0
-417 -447 -399 0
-417 -447 -402 0
-417 -447 -403 0
-418 433 437 0
-418 433 441 0
-418 437 441 0
-418 447 351 355 359 375 379 383 395 399 403 0
-418 -447 -351 0
-418 -447 -355 0
-418 -447 -359 0
-418 -447 -375 0
-418 -447 -379 0
-418 -447 -383 0
-418 -447 -395 0
-418 -447 -399 0
-418 -447 -403 0
-419 434 438 0
-419 434 442 0
-419 438 442 0
-419 447 0
448 449 450 451 452 453 0
-448 -449 0
-448 -450 0
-448 -451 0
-448 -452 0
-448 -453 0
-449 -450 0
-449 -451 0
-449 -452 0
-449 -453 0
-450 -451 0
-450 -452 0
-450 -453 0
-451 -452 0
-451 -453 0
-452 -453 0
454 455 456 457 0
-454 -455 0
-454 -456 0
-454 -457 0
-455 -456 0
-455 -457 0
-456 -457 0
458 459 460 461 462 463 0
-458 -459 0
-458 -460 0
-458 -461 0
-458 -462 0
-458 -463 0
-459 -460 0
-459 -461 0
-459 -462 0
-459 -463 0
-460 -461 0
-460 -462 0
-460 -463 0
-461 -462 0
-461 -463 0
-462 -463 0
464 465 466 467 0
-464 -465 0
-464 -466 0
-464 -467 0
-465 -466 0
-465 -467 0
-466 -467 0
468 469 470 471 472 0
-468 -469 0
-468 -470 0
-468 -471 0
-468 -472 0
-469 -470 0
-469 -471 0
-469 -472 0
-470 -471 0
-470 -472 0
-471 -472 0
473 474 475 476 0
-473 -474 0
-473 -475 0
-473 -476 0
-474 -475 0
-474 -476 0
-475 -476 0
477 478 479 480 0
-477 -478 0
-477 -479 0
-477 -480 0
-478 -479 0
-478 -480 0
-479 -480 0
481 482 483 484 0
-481 -482 0
-481 -483 0
-481 -484 0
-482 -483 0
-482 -484 0
-483 -484 0
-485 448 0
-485 454 0
-448 -454 485 0
-486 448 0
-486 455 0
-448 -455 486 0
-487 448 0
-487 456 0
-448 -456 487 0
-488 448 0
-488 457 0
-448 -457 488 0
-489 449 0
-489 454 0
-449 -454 489 0
-490 449 0
-490 455 0
-449 -455 490 0
-491 449 0
-491 456 0
-449 -456 491 0
-492 449 0
-492 457 0
-449 -457 492 0
-493 450 0
-493 454 0
-450 -454 493 0
-494 450 0
-494 455 0
-450 -455 494 0
-495 450 0
-495 456 0
-450 -456 495 0
-496 450 0
-496 457 0
-450 -457 496 0
-497 451 0
-497 454 0
-451 -454 497 0
-498 451 0
-498 455 0
-451 -455 498 0
-499 451 0
-499 456 0
-451 -456 499 0
-500 451 0
-500 457 0
-451 -457 500 0
-501 452 0
-501 454 0
-452 -454 501 0
-502 452 0
-502 455 0
-452 -455 502 0
-503 452 0
-503 456 0
-452 -456 503 0
-504 452 0
-504 457 0
-452 -457 504 0
-505 453 0
-505 454 0
-453 -454 505 0
-506 453 0
-506 455 0
-453 -455 506 0
-507 453 0
-507 456 0
-453 -456 507 0
-508 453 0
-508 457 0
-453 -457 508 0
-509 458 0
-509 464 0
-458 -464 509 0
-510 458 0
-510 465 0
-458 -465 510 0
-511 458 0
-511 466 0
-458 -466 511 0
-512 458 0
-512 467 0
-458 -467 512 0
-513 459 0
-513 464 0
-459 -464 513 0
-514 459 0
-514 465 0
-459 -465 514 0
-515 459 0
-515 466 0
-459 -466 515 0
-516 459 0
-516 467 0
-459 -467 516 0
-517 460 0
-517 464 0
-460 -464 517 0
-518 460 0
-518 465 0
-460 -465 518 0
-519 460 0
-519 466 0
-460 -466 519 0
-520 460 0
-520 467 0
-460 -467 520 0
-521 461 0
-521 464 0
-461 -464 521 0
-522 461 0
-522 465 0
-461 -465 522 0
-523 461 0
-523 466 0
-461 -466 523 0
-524 461 0
-524 467 0
-461 -467 524 0
-525 462 0
-525 464 0
-462 -464 525 0
-526 462 0
-526 465 0
-462 -465 526 0
-527 462 0
-527 466 0
-462 -466 527 0
-528 462 0
-528 467 0
-462 -467 528 0
-529 463 0
-529 464 0
-463 -464 529 0
-530 463 0
-530 465 0
-463 -465 530 0
-531 463 0
-531 466 0
-463 -466 531 0
-532 463 0
-532 467 0
-463 -467 532 0
-533 468 0
-533 473 0
-468 -473 533 0
-534 468 0
-534 474 0
-468 -474 534 0
-535 468 0
-535 475 0
-468 -475 535 0
-536 468 0
-536 476 0
-468 -476 536 0
-537 469 0
-537 473 0
-469 -473 537 0
-538 469 0
-538 474 0
-469 -474 538 0
-539 469 0
-539 475 0
-469 -475 539 0
-540 469 0
-540 476 0
-469 -476 540 0
-541 470 0
-541 473 0
-470 -473 541 0
-542 470 0
-542 474 0
-470 -474 542 0
-543 470 0
-543 475 0
-470 -475 543 0
-544 470 0
-544 476 0
-470 -476 544 0
-545 471 0
-545 473 0
-471 -473 545 0
-546 471 0
-546 474 0
-471 -474 546 0
-547 471 0
-547 475 0
-471 -475 547 0
-548 471 0
-548 476 0
-471 -476 548 0
-549 472 0
-549 473 0
-472 -473 549 0
-550 472 0
-550 474 0
-472 -474 550 0
-551 472 0
-551 475 0
-472 -475 551 0
-552 472 0
-552 476 0
-472 -476 552 0
-553 477 0
-553 481 0
-477 -481 553 0
-554 477 0
-554 482 0
-477 -482 554 0
-555 477 0
-555 483 0
-477 -483 555 0
-556 477 0
-556 484 0
-477 -484 556 0
-557 478 0
-557 481 0
-478 -481 557 0
-558 478 0
-558 482 0
-478 -482 558 0
-559 478 0
-559 483 0
-478 -483 559 0
-560 478 0
-560 484 0
-478 -484 560 0
-561 479 0
-561 481 0
-479 -481 561 0
-562 479 0
-562 482 0
-479 -482 562 0
-563 479 0
-563 483 0
-479 -483 563 0
-564 479 0
-564 484 0
-479 -484 564 0
-565 480 0
-565 481 0
-480 -481 565 0
-566 480 0
-566 482 0
-480 -482 566 0
-567 480 0
-567 483 0
-480 -483 567 0
-568 480 0
-568 484 0
-480 -484 568 0
-569 485 509 533 553 0
-485 569 0
-509 569 0
-533 569 0
-553 569 0
-570 486 510 534 554 0
-486 570 0
-510 570 0
-534 570 0
-554 570 0
-571 487 511 535 555 0
-487 571 0
-511 571 0
-535 571 0
-555 571 0
-572 488 512 536 556 0
-488 572 0
-512 572 0
-536 572 0
-556 572 0
-573 489 513 533 537 553 557 0
-489 573 0
-513 573 0
-533 573 0
-537 573 0
-553 573 0
-557 573 0
-574 490 514 534 538 554 558 0
-490 574 0
-514 574 0
-534 574 0
-538 574 0
-554 574 0
-558 574 0
-575 491 515 535 539 555 559 0
-491 575 0
-515 575 0
-535 575 0
-539 575 0
-555 575 0
-559 575 0
-576 492 516 536 540 556 560 0
-492 576 0
-516 576 0
-536 576 0
-540 576 0
-556 576 0
-560 576 0
-577 493 517 537 541 553 557 561 0
-493 577 0
-517 577 0
-537 577 0
-541 577 0
-553 577 0
-557 577 0
-561 577 0
-578 494 518 538 542 554 558 562 0
-494 578 0
-518 578 0
-538 578 0
-542 578 0
-554 578 0
-558 578 0
-562 578 0
-579 495 519 539 543 555 559 563 0
-495 579 0
-519 579 0
-539 579 0
-543 579 0
-555 579 0
-559 579 0
-563 579 0
-580 496 520 540 544 556 560 564 0
-496 580 0
-520 580 0
-540 580 0
-544 580 0
-556 580 0
-560 580 0
-564 580 0
-581 497 521 541 545 557 561 565 0
-497 581 0
-521 581 0
-541 581 0
-545 581 0
-557 581 0
-561 581 0
-565 581 0
-582 498 522 542 546 558 562 566 0
-498 582 0
-522 582 0
-542 582 0
-546 582 0
-558 582 0
-562 582 0
-566 582 0
-583 499 523 543 547 559 563 567 0
-499 583 0
-523 583 0
-543 583 0
-547 583 0
-559 583 0
-563 583 0
-567 583 0
-584 500 524 544 548 560 564 568 0
-500 584 0
-524 584 0
-544 584 0
-548 584 0
-560 584 0
-564 584 0
-568 584 0
-585 501 525 545 549 561 565 0
-501 585 0
-525 585 0
-545 585 0
-549 585 0
-561 585 0
-565 585 0
-586 502 526 546 550 562 566 0
-502 586 0
-526 586 0
-546 586 0
-550 586 0
-562 586 0
-566 586 0
-587 503 527 547 551 563 567 0
-503 587 0
-527 587 0
-547 587 0
-551 587 0
-563 587 0
-567 587 0
-588 504 528 548 552 564 568 0
-504 588 0
-528 588 0
-548 588 0
-552 588 0
-564 588 0
-568 588 0
-589 505 529 549 565 0
-505 589 0
-529 589 0
-549 589 0
-565 589 0
-590 506 530 550 566 0
-506 590 0
-530 590 0
-550 590 0
-566 590 0
-591 507 531 551 567 0
-507 591 0
-531 591 0
-551 591 0
-567 591 0
-592 508 532 552 568 0
-508 592 0
-532 592 0
-552 592 0
-568 592 0
-485 -509 0
-485 -533 0
-485 -553 0
-486 -510 0
-486 -534 0
-486 -554 0
-487 -511 0
-487 -535 0
-487 -555 0
-488 -512 0
-488 -536 0
-488 -556 0
-489 -513 0
-489 -533 0
-489 -537 0
-489 -553 0
-489 -557 0
-490 -514 0
-490 -534 0
-490 -538 0
-490 -554 0
-490 -558 0
-491 -515 0
-491 -535 0
-491 -539 0
-491 -555 0
-491 -559 0
-492 -516 0
-492 -536 0
-492 -540 0
-492 -556 0
-492 -560 0
-493 -517 0
-493 -537 0
-493 -541 0
-493 -553 0
-493 -557 0
-493 -561 0
-494 -518 0
-494 -538 0
-494 -542 0
-494 -554 0
-494 -558 0
-494 -562 0
-495 -519 0
-495 -539 0
-495 -543 0
-495 -555 0
-495 -559 0
-495 -563 0
-496 -520 0
-496 -540 0
-496 -544 0
-496 -556 0
-496 -560 0
-496 -564 0
-497 -521 0
-497 -541 0
-497 -545 0
-497 -557 0
-497 -561 0
-497 -565 0
-498 -522 0
-498 -542 0
-498 -546 0
-498 -558 0
-498 -562 0
-498 -566 0
-499 -523 0
-499 -543 0
-499 -547 0
-499 -559 0
-499 -563 0
-499 -567 0
-500 -524 0
-500 -544 0
-500 -548 0
-500 -560 0
-500 -564 0
-500 -568 0
-501 -525 0
-501 -545 0
-501 -549 0
-501 -561 0
-501 -565 0
-502 -526 0
-502 -546 0
-502 -550 0
-502 -562 0
-502 -566 0
-503 -527 0
-503 -547 0
-503 -551 0
-503 -563 0
-503 -567 0
-504 -528 0
-504 -548 0
-504 -552 0
-504 -564 0
-504 -568 0
-505 -529 0
-505 -549 0
-505 -565 0
-506 -530 0
-506 -550 0
-506 -566 0
-507 -531 0
-507 -551 0
-507 -567 0
-508 -532 0
-508 -552 0
-508 -568 0
-509 -533 0
-509 -553 0
-510 -534 0
-510 -554 0
-511 -535 0
-511 -555 0
-512 -536 0
-512 -556 0
-513 -533 0
-513 -537 0
-513 -553 0
-513 -557 0
-514 -534 0
-514 -538 0
-514 -554 0
-514 -558 0
-515 -535 0
-515 -539 0
-515 -555 0
-515 -559 0
-516 -536 0
-516 -540 0
-516 -556 0
-516 -560 0
-517 -537 0
-517 -541 0
-517 -553 0
-517 -557 0
-517 -561 0
-518 -538 0
-518 -542 0
-518 -554 0
-518 -558 0
-518 -562 0
-519 -539 0
-519 -543 0
-519 -555 0
-519 -559 0
-519 -563 0
-520 -540 0
-520 -544 0
-520 -556 0
-520 -560 0
-520 -564 0
-521 -541 0
-521 -545 0
-521 -557 0
-521 -561 0
-521 -565 0
-522 -542 0
-522 -546 0
-522 -558 0
-522 -562 0
-522 -566 0
-523 -543 0
-523 -547 0
-523 -559 0
-523 -563 0
-523 -567 0
-524 -544 0
-524 -548 0
-524 -560 0
-524 -564 0
-524 -568 0
-525 -545 0
-525 -549 0
-525 -561 0
-525 -565 0
-526 -546 0
-526 -550 0
-526 -562 0
-526 -566 0
-527 -547 0
-527 -551 0
-527 -563 0
-527 -567 0
-528 -548 0
-528 -552 0
-528 -564 0
-528 -568 0
-529 -549 0
-529 -565 0
-530 -550 0
-530 -566 0
-531 -551 0
-531 -567 0
-532 -552 0
-532 -568 0
-533 -553 0
-533 -557 0
-534 -554 0
-534 -558 0
-535 -555 0
-535 -559 0
-536 -556 0
-536 -560 0
-537 -553 0
-537 -557 0
-537 -561 0
-538 -554 0
-538 -558 0
-538 -562 0
-539 -555 0
-539 -559 0
-539 -563 0
-540 -556 0
-540 -560 0
-540 -564 0
-541 -553 0
-541 -557 0
-541 -561 0
-541 -565 0
-542 -554 0
-542 -558 0
-542 -562 0
-542 -566 0
-543 -555 0
-543 -559 0
-543 -563 0
-543 -567 0
-544 -556 0
-544 -560 0
-544 -564 0
-544 -568 0
-545 -557 0
-545 -561 0
-545 -565 0
-546 -558 0
-546 -562 0
-546 -566 0
-547 -559 0
-547 -563 0
-547 -567 0
-548 -560 0
-548 -564 0
-548 -568 0
-549 -561 0
-549 -565 0
-550 -562 0
-550 -566 0
-551 -563 0
-551 -567 0
-552 -564 0
-552 -568 0
-485 593 510 511 512 534 535 536 554 555 556 0
-485 -593 -510 0
-485 -593 -511 0
-485 -593 -512 0
-485 -593 -534 0
-485 -593 -535 0
-485 -593 -536 0
-485 -593 -554 0
-485 -593 -555 0
-485 -593 -556 0
-486 569 0
-486 593 511 512 535 536 555 556 0
-486 -593 -511 0
-486 -593 -512 0
-486 -593 -535 0
-486 -593 -536 0
-486 -593 -555 0
-486 -593 -556 0
-487 570 0
-487 593 512 536 556 0
-487 -593 -512 0
-487 -593 -536 0
-487 -593 -556 0
-488 571 0
-488 593 0
-489 593 514 515 516 534 535 536 538 539 540 554 555 556 558 559 560 0
-489 -593 -514 0
-489 -593 -515 0
-489 -593 -516 0
-489 -593 -534 0
-489 -593 -535 0
-489 -593 -536 0
-489 -593 -538 0
-489 -593 -539 0
-489 -593 -540 0
-489 -593 -554 0
-489 -593 -555 0
-489 -593 -556 0
-489 -593 -558 0
-489 -593 -559 0
-489 -593 -560 0
-490 573 0
-490 593 515 516 535 536 539 540 555 556 559 560 0
-490 -593 -515 0
-490 -593 -516 0
-490 -593 -535 0
-490 -593 -536 0
-490 -593 -539 0
-490 -593 -540 0
-490 -593 -555 0
-490 -593 -556 0
-490 -593 -559 0
-490 -593 -560 0
-491 574 0
-491 593 516 536 540 556 560 0
-491 -593 -516 0
-491 -593 -536 0
-491 -593 -540 0
-491 -593 -556 0
-491 -593 -560 0
-492 575 0
-492 593 0
-493 593 518 519 520 538 539 540 542 543 544 554 555 556 558 559 560 562 563 564 0
-493 -593 -518 0
-493 -593 -519 0
-493 -593 -520 0
-493 -593 -538 0
-493 -593 -539 0
-493 -593 -540 0
-493 -593 -542 0
-493 -593 -543 0
-493 -593 -544 0
-493 -593 -554 0
-493 -593 -555 0
-493 -593 -556 0
-493 -593 -558 0
-493 -593 -559 0
-493 -593 -560 0
-493 -593 -562 0
-493 -593 -563 0
-493 -593 -564 0
-494 577 0
-494 593 519 520 539 540 543 544 555 556 559 560 563 564 0
-494 -593 -519 0
-494 -593 -520 0
-494 -593 -539 0
-494 -593 -540 0
-494 -593 -543 0
-494 -593 -544 0
-494 -593 -555 0
-494 -593 -556 0
-494 -593 -559 0
-494 -593 -560 0
-494 -593 -563 0
-494 -593 -564 0
-495 578 0
-495 593 520 540 544 556 560 564 0
-495 -593 -520 0
-495 -593 -540 0
-495 -593 -544 0
-495 -593 -556 0
-495 -593 -560 0
-495 -593 -564 0
-496 579 0
-496 593 0
-497 593 522 523 524 542 543 544 546 547 548 558 559 560 562 563 564 566 567 568 0
-497 -593 -522 0
-497 -593 -523 0
-497 -593 -524 0
-497 -593 -542 0
-497 -593 -543 0
-497 -593 -544 0
-497 -593 -546 0
-497 -593 -547 0
-497 -593 -548 0
-497 -593 -558 0
-497 -593 -559 0
-497 -593 -560 0
-497 -593 -562 0
-497 -593 -563 0
-497 -593 -564 0
-497 -593 -566 0
-497 -593 -567 0
-497 -593 -568 0
-498 581 0
-498 593 523 524 543 544 547 548 559 560 563 564 567 568 0
-498 -593 -523 0
-498 -593 -524 0
-498 -593 -543 0
-498 -593 -544 0
-498 -593 -547 0
-498 -593 -548 0
-498 -593 -559 0
-498 -593 -560 0
-498 -593 -563 0
-498 -593 -564 0
-498 -593 -567 0
-498 -593 -568 0
-499 582 0
-499 593 524 544 548 560 564 568 0
-499 -593 -524 0
-499 -593 -544 0
-499 -593 -548 0
-499 -593 -560 0
-499 -593 -564 0
-499 -593 -568 0
-500 583 0
-500 593 0
-501 593 526 527 528 546 547 548 550 551 552 562 563 564 566 567 568 0
-501 -593 -526 0
-501 -593 -527 0
-501 -593 -528 0
-501 -593 -546 0
-501 -593 -547 0
-501 -593 -548 0
-501 -593 -550 0
-501 -593 -551 0
-501 -593 -552 0
-501 -593 -562 0
-501 -593 -563 0
-501 -593 -564 0
-501 -593 -566 0
-501 -593 -567 0
-501 -593 -568 0
-502 585 0
-502 593 527 528 547 548 551 552 563 564 567 568 0
-502 -593 -527 0
-502 -593 -528 0
-502 -593 -547 0
-502 -593 -548 0
-502 -593 -551 0
-502 -593 -552 0
-502 -593 -563 0
-502 -593 -564 0
-502 -593 -567 0
-502 -593 -568 0
-503 586 0
-503 593 528 548 552 564 568 0
-503 -593 -528 0
-503 -593 -548 0
-503 -593 -552 0
-503 -593 -564 0
-503 -593 -568 0
-504 587 0
-504 593 0
-505 593 530 531 532 550 551 552 566 567 568 0
-505 -593 -530 0
-505 -593 -531 0
-505 -593 -532 0
-505 -593 -550 0
-505 -593 -551 0
-505 -593 -552 0
-505 -593 -566 0
-505 -593 -567 0
-505 -593 -568 0
-506 589 0
-506 593 531 532 551 552 567 568 0
-506 -593 -531 0
-506 -593 -532 0
-506 -593 -551 0
-506 -593 -552 0
-506 -593 -567 0
-506 -593 -568 0
-507 590 0
-507 593 532 552 568 0
-507 -593 -532 0
-507 -593 -552 0
-507 -593 -568 0
-508 591 0
-508 593 0
-509 594 486 487 488 534 535 536 554 555 556 0
-509 -594 -486 0
-509 -594 -487 0
-509 -594 -488 0
-509 -594 -534 0
-509 -594 -535 0
-509 -594 -536 0
-509 -594 -554 0
-509 -594 -555 0
-509 -594 -556 0
-510 569 0
-510 594 487 488 535 536 555 556 0
-510 -594 -487 0
-510 -594 -488 0
-510 -594 -535 0
-510 -594 -536 0
-510 -594 -555 0
-510 -594 -556 0
-511 570 0
-511 594 488 536 556 0
-511 -594 -488 0
-511 -594 -536 0
-511 -594 -556 0
-512 571 0
-512 594 0
-513 594 490 491 492 534 535 536 538 539 540 554 555 556 558 559 560 0
-513 -594 -490 0
-513 -594 -491 0
-513 -594 -492 0
-513 -594 -534 0
-513 -594 -535 0
-513 -594 -536 0
-513 -594 -538 0
-513 -594 -539 0
-513 -594 -540 0
-513 -594 -554 0
-513 -594 -555 0
-513 -594 -556 0
-513 -594 -558 0
-513 -594 -559 0
-513 -594 -560 0
-514 573 0
-514 594 491 492 535 536 539 540 555 556 559 560 0
-514 -594 -491 0
-514 -594 -492 0
-514 -594 -535 0
-514 -594 -536 0
-514 -594 -539 0
-514 -594 -540 0
-514 -594 -555 0
-514 -594 -556 0
-514 -594 -559 0
-514 -594 -560 0
-515 574 0
-515 594 492 536 540 556 560 0
-515 -594 -492 0
-515 -594 -536 0
-515 -594 -540 0
-515 -594 -556 0
-515 -594 -560 0
-516 575 0
-516 594 0
-517 594 494 495 496 538 539 540 542 543 544 554 555 556 558 559 560 562 563 564 0
-517 -594 -494 0
-517 -594 -495 0
-517 -594 -496 0
-517 -594 -538 0
-517 -594 -539 0
-517 -594 -540 0
-517 -594 -542 0
-517 -594 -543 0
-517 -594 -544 0
-517 -594 -554 0
-517 -594 -555 0
-517 -594 -556 0
-517 -594 -558 0
-517 -594 -559 0
-517 -594 -560 0
-517 -594 -562 0
-517 -594 -563 0
-517 -594 -564 0
-518 577 0
-518 594 495 496 539 540 543 544 555 556 559 560 563 564 0
-518 -594 -495 0
-518 -594 -496 0
-518 -594 -539 0
-518 -594 -540 0
-518 -594 -543 0
-518 -594 -544 0
-518 -594 -555 0
-518 -594 -556 0
-518 -594 -559 0
-518 -594 -560 0
-518 -594 -563 0
-518 -594 -564 0
-519 578 0
-519 594 496 540 544 556 560 564 0
-519 -594 -496 0
-519 -594 -540 0
-519 -594 -544 0
-519 -594 -556 0
-519 -594 -560 0
-519 -594 -564 0
-520 579 0
-520 594 0
-521 594 498 499 500 542 543 544 546 547 548 558 559 560 562 563 564 566 567 568 0
-521 -594 -498 0
-521 -594 -499 0
-521 -594 -500 0
-521 -594 -542 0
-521 -594 -543 0
-521 -594 -544 0
-521 -594 -546 0
-521 -594 -547 0
-521 -594 -548 0
-521 -594 -558 0
-521 -594 -559 0
-521 -594 -560 0
-521 -594 -562 0
-521 -594 -563 0
-521 -594 -564 0
-521 -594 -566 0
-521 -594 -567 0
-521 -594 -568 0
-522 581 0
-522 594 499 500 543 544 547 548 559 560 563 564 567 568 0
-522 -594 -499 0
-522 -594 -500 0
-522 -594 -543 0
-522 -594 -544 0
-522 -594 -547 0
-522 -594 -548 0
-522 -594 -559 0
-522 -594 -560 0
-522 -594 -563 0
-522 -594 -564 0
-522 -594 -567 0
-522 -594 -568 0
-523 582 0
-523 594 500 544 548 560 564 568 0
-523 -594 -500 0
-523 -594 -544 0
-523 -594 -548 0
-523 -594 -560 0
-523 -594 -564 0
-523 -594 -568 0
-524 583 0
-524 594 0
-525 594 502 503 504 546 547 548 550 551 552 562 563 564 566 567 568 0
-525 -594 -502 0
-525 -594 -503 0
-525 -594 -504 0
-525 -594 -546 0
-525 -594 -547 0
-525 -594 -548 0
-525 -594 -550 0
-525 -594 -551 0
-525 -594 -552 0
-525 -594 -562 0
-525 -594 -563 0
-525 -594 -564 0
-525 -594 -566 0
-525 -594 -567 0
-525 -594 -568 0
-526 585 0
-526 594 503 504 547 548 551 552 563 564 567 568 0
-526 -594 -503 0
-526 -594 -504 0
-526 -594 -547 0
-526 -594 -548 0
-526 -594 -551 0
-526 -594 -552 0
-526 -594 -563 0
-526 -594 -564 0
-526 -594 -567 0
-526 -594 -568 0
-527 586 0
-527 594 504 548 552 564 568 0
-527 -594 -504 0
-527 -594 -548 0
-527 -594 -552 0
-527 -594 -564 0
-527 -594 -568 0
-528 587 0
-528 594 0
-529 594 506 507 508 550 551 552 566 567 568 0
-529 -594 -506 0
-529 -594 -507 0
-529 -594 -508 0
-529 -594 -550 0
-529 -594 -551 0
-529 -594 -552 0
-529 -594 -566 0
-529 -594 -567 0
-529 -594 -568 0
-530 589 0
-530 594 507 508 551 552 567 568 0
-530 -594 -507 0
-530 -594 -508 0
-530 -594 -551 0
-530 -594 -552 0
-530 -594 -567 0
-530 -594 -568 0
-531 590 0
-531 594 508 552 568 0
-531 -594 -508 0
-531 -594 -552 0
-531 -594 -568 0
-532 591 0
-532 594 0
-533 595 486 487 488 490 491 492 510 511 512 514 515 516 554 555 556 558 559 560 0
-533 -595 -486 0
-533 -595 -487 0
-533 -595 -488 0
-533 -595 -490 0
-533 -595 -491 0
-533 -595 -492 0
-533 -595 -510 0
-533 -595 -511 0
-533 -595 -512 0
-533 -595 -514 0
-533 -595 -515 0
-533 -595 -516 0
-533 -595 -554 0
-533 -595 -555 0
-533 -595 -556 0
-533 -595 -558 0
-533 -595 -559 0
-533 -595 -560 0
-534 569 573 0
-534 595 487 488 491 492 511 512 515 516 555 556 559 560 0
-534 -595 -487 0
-534 -595 -488 0
-534 -595 -491 0
-534 -595 -492 0
-534 -595 -511 0
-534 -595 -512 0
-534 -595 -515 0
-534 -595 -516 0
-534 -595 -555 0
-534 -595 -556 0
-534 -595 -559 0
-534 -595 -560 0
-535 570 574 0
-535 595 488 492 512 516 556 560 0
-535 -595 -488 0
-535 -595 -492 0
-535 -595 -512 0
-535 -595 -516 0
-535 -595 -556 0
-535 -595 -560 0
-536 571 575 0
-536 595 0
-537 595 490 491 492 494 495 496 514 515 516 518 519 520 554 555 556 558 559 560 562 563 564 0
-537 -595 -490 0
-537 -595 -491 0
-537 -595 -492 0
-537 -595 -494 0
-537 -595 -495 0
-537 -595 -496 0
-537 -595 -514 0
-537 -595 -515 0
-537 -595 -516 0
-537 -595 -518 0
-537 -595 -519 0
-537 -595 -520 0
-537 -595 -554 0
-537 -595 -555 0
-537 -595 -556 0
-537 -595 -558 0
-537 -595 -559 0
-537 -595 -560 0
-537 -595 -562 0
-537 -595 -563 0
-537 -595 -564 0
-538 573 577 0
-538 595 491 492 495 496 515 516 519 520 555 556 559 560 563 564 0
-538 -595 -491 0
-538 -595 -492 0
-538 -595 -495 0
-538 -595 -496 0
-538 -595 -515 0
-538 -595 -516 0
-538 -595 -519 0
-538 -595 -520 0
-538 -595 -555 0
-538 -595 -556 0
-538 -595 -559 0
-538 -595 -560 0
-538 -595 -563 0
-538 -595 -564 0
-539 574 578 0
-539 595 492 496 516 520 556 560 564 0
-539 -595 -492 0
-539 -595 -496 0
-539 -595 -516 0
-539 -595 -520 0
-539 -595 -556 0
-539 -595 -560 0
-539 -595 -564 0
-540 575 579 0
-540 595 0
-541 595 494 495 496 498 499 500 518 519 520 522 523 524 554 555 556 558 559 560 562 563 564 566 567 568 0
-541 -595 -494 0
-541 -595 -495 0
-541 -595 -496 0
-541 -595 -498 0
-541 -595 -499 0
-541 -595 -500 0
-541 -595 -518 0
-541 -595 -519 0
-541 -595 -520 0
-541 -595 -522 0
-541 -595 -523 0
-541 -595 -524 0
-541 -595 -554 0
-541 -595 -555 0
-541 -595 -556 0
-541 -595 -558 0
-541 -595 -559 0
-541 -595 -560 0
-541 -595 -562 0
-541 -595 -563 0
-541 -595 -564 0
-541 -595 -566 0
-541 -595 -567 0
-541 -595 -568 0
-542 577 581 0
-542 595 495 496 499 500 519 520 523 524 555 556 559 560 563 564 567 568 0
-542 -595 -495 0
-542 -595 -496 0
-542 -595 -499 0
-542 -595 -500 0
-542 -595 -519 0
-542 -595 -520 0
-542 -595 -523 0
-542 -595 -524 0
-542 -595 -555 0
-542 -595 -556 0
-542 -595 -559 0
-542 -595 -560 0
-542 -595 -563 0
-542 -595 -564 0
-542 -595 -567 0
-542 -595 -568 0
-543 578 582 0
-543 595 496 500 520 524 556 560 564 568 0
-543 -595 -496 0
-543 -595 -500 0
-543 -595 -520 0
-543 -595 -524 0
-543 -595 -556 0
-543 -595 -560 0
-543 -595 -564 0
-543 -595 -568 0
-544 579 583 0
-544 595 0
-545 595 498 499 500 502 503 504 522 523 524 526 527 528 558 559 560 562 563 564 566 567 568 0
-545 -595 -498 0
-545 -595 -499 0
-545 -595 -500 0
-545 -595 -502 0
-545 -595 -503 0
-545 -595 -504 0
-545 -595 -522 0
-545 -595 -523 0
-545 -595 -524 0
-545 -595 -526 0
-545 -595 -527 0
-545 -595 -528 0
-545 -595 -558 0
-545 -595 -559 0
-545 -595 -560 0
-545 -595 -562 0
-545 -595 -563 0
-545 -595 -564 0
-545 -595 -566 0
-545 -595 -567 0
-545 -595 -568 0
-546 581 585 0
-546 595 499 500 503 504 523 524 527 528 559 560 563 564 567 568 0
-546 -595 -499 0
-546 -595 -500 0
-546 -595 -503 0
-546 -595 -504 0
-546 -595 -523 0
-546 -595 -524 0
-546 -595 -527 0
-546 -595 -528 0
-546 -595 -559 0
-546 -595 -560 0
-546 -595 -563 0
-546 -595 -564 0
-546 -595 -567 0
-546 -595 -568 0
-547 582 586 0
-547 595 500 504 524 528 560 564 568 0
-547 -595 -500 0
-547 -595 -504 0
-547 -595 -524 0
-547 -595 -528 0
-547 -595 -560 0
-547 -595 -564 0
-547 -595 -568 0
-548 583 587 0
-548 595 0
-549 595 502 503 504 506 507 508 526 527 528 530 531 532 562 563 564 566 567 568 0
-549 -595 -502 0
-549 -595 -503 0
-549 -595 -504 0
-549 -595 -506 0
-549 -595 -507 0
-549 -595 -508 0
-549 -595 -526 0
-549 -595 -527 0
-549 -595 -528 0
-549 -595 -530 0
-549 -595 -531 0
-549 -595 -532 0
-549 -595 -562 0
-549 -595 -563 0
-549 -595 -564 0
-549 -595 -566 0
-549 -595 -567 0
-549 -595 -568 0
-550 585 589 0
-550 595 503 504 507 508 527 528 531 532 563 564 567 568 0
-550 -595 -503 0
-550 -595 -504 0
-550 -595 -507 0
-550 -595 -508 0
-550 -595 -527 0
-550 -595 -528 0
-550 -595 -531 0
-550 -595 -532 0
-550 -595 -563 0
-550 -595 -564 0
-550 -595 -567 0
-550 -595 -568 0
-551 586 590 0
-551 595 504 508 528 532 564 568 0
-551 -595 -504 0
-551 -595 -508 0
-551 -595 -528 0
-551 -595 -532 0
-551 -595 -564 0
-551 -595 -568 0
-552 587 591 0
-552 595 0
-553 596 486 487 488 490 491 492 494 495 496 510 511 512 514 515 516 518 519 520 534 535 536 538 539 540 542 543 544 0
-553 -596 -486 0
-553 -596 -487 0
-553 -596 -488 0
-553 -596 -490 0
-553 -596 -491 0
-553 -596 -492 0
-553 -596 -494 0
-553 -596 -495 0
-553 -596 -496 0
-553 -596 -510 0
-553 -596 -511 0
-553 -596 -512 0
-553 -596 -514 0
-553 -596 -515 0
-553 -596 -516 0
-553 -596 -518 0
-553 -596 -519 0
-553 -596 -520 0
-553 -596 -534 0
-553 -596 -535 0
-553 -596 -536 0
-553 -596 -538 0
-553 -596 -539 0
-553 -596 -540 0
-553 -596 -542 0
-553 -596 -543 0
-553 -596 -544 0
-554 569 573 0
-554 569 577 0
-554 573 577 0
-554 596 487 488 491 492 495 496 511 512 515 516 519 520 535 536 539 540 543 544 0
-554 -596 -487 0
-554 -596 -488 0
-554 -596 -491 0
-554 -596 -492 0
-554 -596 -495 0
-554 -596 -496 0
-554 -596 -511 0
-554 -596 -512 0
-554 -596 -515 0
-554 -596 -516 0
-554 -596 -519 0
-554 -596 -520 0
-554 -596 -535 0
-554 -596 -536 0
-554 -596 -539 0
-554 -596 -540 0
-554 -596 -543 0
-554 -596 -544 0
-555 570 574 0
-555 570 578 0
-555 574 578 0
-555 596 488 492 496 512 516 520 536 540 544 0
-555 -596 -488 0
-555 -596 -492 0
-555 -596 -496 0
-555 -596 -512 0
-555 -596 -516 0
-555 -596 -520 0
-555 -596 -536 0
-555 -596 -540 0
-555 -596 -544 0
-556 571 575 0
-556 571 579 0
-556 575 579 0
-556 596 0
-557 596 490 491 492 494 495 496 498 499 500 514 515 516 518 519 520 522 523 524 534 535 536 538 539 540 542 543 544 546 547 548 0
-557 -596 -490 0
-557 -596 -491 0
-557 -596 -492 0
-557 -596 -494 0
-557 -596 -495 0
-557 -596 -496 0
-557 -596 -498 0
-557 -596 -499 0
-557 -596 -500 0
-557 -596 -514 0
-557 -596 -515 0
-557 -596 -516 0
-557 -596 -518 0
-557 -596 -519 0
-557 -596 -520 0
-557 -596 -522 0
-557 -596 -523 0
-557 -596 -524 0
-557 -596 -534 0
-557 -596 -535 0
-557 -596 -536 0
-557 -596 -538 0
-557 -596 -539 0
-557 -596 -540 0
-557 -596 -542 0
-557 -596 -543 0
-557 -596 -544 0
-557 -596 -546 0
-557 -596 -547 0
-557 -596 -548 0
-558 573 577 0
-558 573 581 0
-558 577 581 0
-558 596 491 492 495 496 499 500 515 516 519 520 523 524 535 536 539 540 543 544 547 548 0
-558 -596 -491 0
-558 -596 -492 0
-558 -596 -495 0
-558 -596 -496 0
-558 -596 -499 0
-558 -596 -500 0
-558 -596 -515 0
-558 -596 -516 0
-558 -596 -519 0
-558 -596 -520 0
-558 -596 -523 0
-558 -596 -524 0
-558 -596 -535 0
-558 -596 -536 0
-558 -596 -539 0
-558 -596 -540 0
-558 -596 -543 0
-558 -596 -544 0
-558 -596 -547 0
-558 -596 -548 0
-559 574 578 0
-559 574 582 0
-559 578 582 0
-559 596 492 496 500 516 520 524 536 540 544 548 0
-559 -596 -492 0
-559 -596 -496 0
-559 -596 -500 0
-559 -596 -516 0
-559 -596 -520 0
-559 -596 -524 0
-559 -596 -536 0
-559 -596 -540 0
-559 -596 -544 0
-559 -596 -548 0
-560 575 579 0
-560 575 583 0
-560 579 583 0
-560 596 0
-561 596 494 495 496 498 499 500 502 503 504 518 519 520 522 523 524 526 527 528 538 539 540 542 543 544 546 547 548 550 551 552 0
-561 -596 -494 0
-561 -596 -495 0
-561 -596 -496 0
-561 -596 -498 0
-561 -596 -499 0
-561 -596 -500 0
-561 -596 -502 0
-561 -596 -503 0
-561 -596 -504 0
-561 -596 -518 0
-561 -596 -519 0
-561 -596 -520 0
-561 -596 -522 0
-561 -596 -523 0
-561 -596 -524 0
-561 -596 -526 0
-561 -596 -527 0
-561 -596 -528 0
-561 -596 -538 0
-561 -596 -539 0
-561 -596 -540 0
-561 -596 -542 0
-561 -596 -543 0
-561 -596 -544 0
-561 -596 -546 0
-561 -596 -547 0
-561 -596 -548 0
-561 -596 -550 0
-561 -596 -551 0
-561 -596 -552 0
-562 577 581 0
-562 577 585 0
-562 581 585 0
-562 596 495 496 499 500 503 504 519 520 523 524 527 528 539 540 543 544 547 548 551 552 0
-562 -596 -495 0
-562 -596 -496 0
-562 -596 -499 0
-562 -596 -500 0
-562 -596 -503 0
-562 -596 -504 0
-562 -596 -519 0
-562 -596 -520 0
-562 -596 -523 0
-562 -596 -524 0
-562 -596 -527 0
-562 -596 -528 0
-562 -596 -539 0
-562 -596 -540 0
-562 -596 -543 0
-562 -596 -544 0
-562 -596 -547 0
-562 -596 -548 0
-562 -596 -551 0
-562 -596 -552 0
-563 578 582 0
-563 578 586 0
-563 582 586 0
-563 596 496 500 504 520 524 528 540 544 548 552 0
-563 -596 -496 0
-563 -596 -500 0
-563 -596 -504 0
-563 -596 -520 0
-563 -596 -524 0
-563 -596 -528 0
-563 -596 -540 0
-563 -596 -544 0
-563 -596 -548 0
-563 -596 -552 0
-564 579 583 0
-564 579 587 0
-564 583 587 0
-564 596 0
-565 596 498 499 500 502 503 504 506 507 508 522 523 524 526 527 528 530 531 532 542 543 544 546 547 548 550 551 552 0
-565 -596 -498 0
-565 -596 -499 0
-565 -596 -500 0
-565 -596 -502 0
-565 -596 -503 0
-565 -596 -504 0
-565 -596 -506 0
-565 -596 -507 0
-565 -596 -508 0
-565 -596 -522 0
-565 -596 -523 0
-565 -596 -524 0
-565 -596 -526 0
-565 -596 -527 0
-565 -596 -528 0
-565 -596 -530 0
-565 -596 -531 0
-565 -596 -532 0
-565 -596 -542 0
-565 -596 -543 0
-565 -596 -544 0
-565 -596 -546 0
-565 -596 -547 0
-565 -596 -548 0
-565 -596 -550 0
-565 -596 -551 0
-565 -596 -552 0
-566 581 585 0
-566 581 589 0
-566 585 589 0
-566 596 499 500 503 504 507 508 523 524 527 528 531 532 543 544 547 548 551 552 0
-566 -596 -499 0
-566 -596 -500 0
-566 -596 -503 0
-566 -596 -504 0
-566 -596 -507 0
-566 -596 -508 0
-566 -596 -523 0
-566 -596 -524 0
-566 -596 -527 0
-566 -596 -528 0
-566 -596 -531 0
-566 -596 -532 0
-566 -596 -543 0
-566 -596 -544 0
-566 -596 -547 0
-566 -596 -548 0
-566 -596 -551 0
-566 -596 -552 0
-567 582 586 0
-567 582 590 0
-567 586 590 0
-567 596 500 504 508 524 528 532 544 548 552 0
-567 -596 -500 0
-567 -596 -504 0
-567 -596 -508 0
-567 -596 -524 0
-567 -596 -528 0
-567 -596 -532 0
-567 -596 -544 0
-567 -596 -548 0
-567 -596 -552 0
-568 583 587 0
-568 583 591 0
-568 587 591 0
-568 596 0
597 598 599 600 601 602 0
-597 -598 0
-597 -599 0
-597 -600 0
-597 -601 0
-597 -602 0
-598 -599 0
-598 -600 0
-598 -601 0
-598 -602 0
-599 -600 0
-599 -601 0
-599 -602 0
-600 -601 0
-600 -602 0
-601 -602 0
603 604 605 606 0
-603 -604 0
-603 -605 0
-603 -606 0
-604 -605 0
-604 -606 0
-605 -606 0
607 608 609 610 611 612 0
-607 -608 0
-607 -609 0
-607 -610 0
-607 -611 0
-607 -612 0
-608 -609 0
-608 -610 0
-608 -611 0
-608 -612 0
-609 -610 0
-609 -611 0
-609 -612 0
-610 -611 0
-610 -612 0
-611 -612 0
613 614 615 616 0
-613 -614 0
-613 -615 0
-613 -616 0
-614 -615 0
-614 -616 0
-615 -616 0
617 618 619 620 621 0
-617 -618 0
-617 -619 0
-617 -620 0
-617 -621 0
-618 -619 0
-618 -620 0
-618 -621 0
-619 -620 0
-619 -621 0
-620 -621 0
622 623 624 625 0
-622 -623 0
-622 -624 0
-622 -625 0
-623 -624 0
-623 -625 0
-624 -625 0
626 627 628 629 0
-626 -627 0
-626 -628 0
-626 -629 0
-627 -628 0
-627 -629 0
-628 -629 0
630 631 632 633 0
-630 -631 0
-630 -632 0
-630 -633 0
-631 -632 0
-631 -633 0
-632 -633 0
-634 597 0
-634 603 0
-597 -603 634 0
-635 597 0
-635 604 0
-597 -604 635 0
-636 597 0
-636 605 0
-597 -605 636 0
-637 597 0
-637 606 0
-597 -606 637 0
-638 598 0
-638 603 0
-598 -603 638 0
-639 598 0
-639 604 0
-598 -604 639 0
-640 598 0
-640 605 0
-598 -605 640 0
-641 598 0
-641 606 0
-598 -606 641 0
-642 599 0
-642 603 0
-599 -603 642 0
-643 599 0
-643 604 0
-599 -604 643 0
-644 599 0
-644 605 0
-599 -605 644 0
-645 599 0
-645 606 0
-599 -606 645 0
-646 600 0
-646 603 0
-600 -603 646 0
-647 600 0
-647 604 0
-600 -604 647 0
-648 600 0
-648 605 0
-600 -605 648 0
-649 600 0
-649 606 0
-600 -606 649 0
-650 601 0
-650 603 0
-601 -603 650 0
-651 601 0
-651 604 0
-601 -604 651 0
-652 601 0
-652 605 0
-601 -605 652 0
-653 601 0
-653 606 0
-601 -606 653 0
-654 602 0
-654 603 0
-602 -603 654 0
-655 602 0
-655 604 0
-602 -604 655 0
-656 602 0
-656 605 0
-602 -605 656 0
-657 602 0
-657 606 0
-602 -606 657 0
-658 607 0
-658 613 0
-607 -613 658 0
-659 607 0
-659 614 0
-607 -614 659 0
-660 607 0
-660 615 0
-607 -615 660 0
-661 607 0
-661 616 0
-607 -616 661 0
-662 608 0
-662 613 0
-608 -613 662 0
-663 608 0
-663 614 0
-608 -614 663 0
-664 608 0
-664 615 0
-608 -615 664 0
-665 608 0
-665 616 0
-608 -616 665 0
-666 609 0
-666 613 0
-609 -613 666 0
-667 609 0
-667 614 0
-609 -614 667 0
-668 609 0
-668 615 0
-609 -615 668 0
-669 609 0
-669 616 0
-609 -616 669 0
-670 610 0
-670 613 0
-610 -613 670 0
-671 610 0
-671 614 0
-610 -614 671 0
-672 610 0
-672 615 0
-610 -615 672 0
-673 610 0
-673 616 0
-610 -616 673 0
-674 611 0
-674 613 0
-611 -613 674 0
-675 611 0
-675 614 0
-611 -614 675 0
-676 611 0
-676 615 0
-611 -615 676 0
-677 611 0
-677 616 0
-611 -616 677 0
-678 612 0
-678 613 0
-612 -613 678 0
-679 612 0
-679 614 0
-612 -614 679 0
-680 612 0
-680 615 0
-612 -615 680 0
-681 612 0
-681 616 0
-612 -616 681 0
-682 617 0
-682 622 0
-617 -622 682 0
-683 617 0
-683 623 0
-617 -623 683 0
-684 617 0
-684 624 0
-617 -624 684 0
-685 617 0
-685 625 0
-617 -625 685 0
-686 618 0
-686 622 0
-618 -622 686 0
-687 618 0
-687 623 0
-618 -623 687 0
-688 618 0
-688 624 0
-618 -624 688 0
-689 618 0
-689 625 0
-618 -625 689 0
-690 619 0
-690 622 0
-619 -622 690 0
-691 619 0
-691 623 0
-619 -623 691 0
-692 619 0
-692 624 0
-619 -624 692 0
-693 619 0
-693 625 0
-619 -625 693 0
-694 620 0
-694 622 0
-620 -622 694 0
-695 620 0
-695 623 0
-620 -623 695 0
-696 620 0
-696 624 0
-620 -624 696 0
-697 620 0
-697 625 0
-620 -625 697 0
-698 621 0
-698 622 0
-621 -622 698 0
-699 621 0
-699 623 0
-621 -623 699 0
-700 621 0
-700 624 0
-621 -624 700 0
-701 621 0
-701 625 0
-621 -625 701 0
-702 626 0
-702 630 0
-626 -630 702 0
-703 626 0
-703 631 0
-626 -631 703 0
-704 626 0
-704 632 0
-626 -632 704 0
-705 626 0
-705 633 0
-626 -633 705 0
-706 627 0
-706 630 0
-627 -630 706 0
-707 627 0
-707 631 0
-627 -631 707 0
-708 627 0
-708 632 0
-627 -632 708 0
-709 627 0
-709 633 0
-627 -633 709 0
-710 628 0
-710 630 0
-628 -630 710 0
-711 628 0
-711 631 0
-628 -631 711 0
-712 628 0
-712 632 0
-628 -632 712 0
-713 628 0
-713 633 0
-628 -633 713 0
-714 629 0
-714 630 0
-629 -630 714 0
-715 629 0
-715 631 0
-629 -631 715 0
-716 629 0
-716 632 0
-629 -632 716 0
-717 629 0
-717 633 0
-629 -633 717 0
-718 634 658 682 702 0
-634 718 0
-658 718 0
-682 718 0
-702 718 0
-719 635 659 683 703 0
-635 719 0
-659 719 0
-683 719 0
-703 719 0
-720 636 660 684 704 0
-636 720 0
-660 720 0
-684 720 0
-704 720 0
-721 637 661 685 705 0
-637 721 0
-661 721 0
-685 721 0
-705 721 0
-722 638 662 682 686 702 706 0
-638 722 0
-662 722 0
-682 722 0
-686 722 0
-702 722 0
-706 722 0
-723 639 663 683 687 703 707 0
-639 723 0
-663 723 0
-683 723 0
-687 723 0
-703 723 0
-707 723 0
-724 640 664 684 688 704 708 0
-640 724 0
-664 724 0
-684 724 0
-688 724 0
-704 724 0
-708 724 0
-725 641 665 685 689 705 709 0
-641 725 0
-665 725 0
-685 725 0
-689 725 0
-705 725 0
-709 725 0
-726 642 666 686 690 702 706 710 0
-642 726 0
-666 726 0
-686 726 0
-690 726 0
-702 726 0
-706 726 0
-710 726 0
-727 643 667 687 691 703 707 711 0
-643 727 0
-667 727 0
-687 727 0
-691 727 0
-703 727 0
-707 727 0
-711 727 0
-728 644 668 688 692 704 708 712 0
-644 728 0
-668 728 0
-688 728 0
-692 728 0
-704 728 0
-708 728 0
-712 728 0
-729 645 669 689 693 705 709 713 0
-645 729 0
-669 729 0
-689 729 0
-693 729 0
-705 729 0
-709 729 0
-713 729 0
-730 646 670 690 694 706 710 714 0
-646 730 0
-670 730 0
-690 730 0
-694 730 0
-706 730 0
-710 730 0
-714 730 0
-731 647 671 691 695 707 711 715 0
-647 731 0
-671 731 0
-691 731 0
-695 731 0
-707 731 0
-711 731 0
-715 731 0
-732 648 672 692 696 708 712 716 0
-648 732 0
-672 732 0
-692 732 0
-696 732 0
-708 732 0
-712 732 0
-716 732 0
-733 649 673 693 697 709 713 717 0
-649 733 0
-673 733 0
-693 733 0
-697 733 0
-709 733 0
-713 733 0
-717 733 0
-734 650 674 694 698 710 714 0
-650 734 0
-674 734 0
-694 734 0
-698 734 0
-710 734 0
-714 734 0
-735 651 675 695 699 711 715 0
-651 735 0
-675 735 0
-695 735 0
-699 735 0
-711 735 0
-715 735 0
-736 652 676 696 700 712 716 0
-652 736 0
-676 736 0
-696 736 0
-700 736 0
-712 736 0
-716 736 0
-737 653 677 697 701 713 717 0
-653 737 0
-677 737 0
-697 737 0
-701 737 0
-713 737 0
-717 737 0
-738 654 678 698 714 0
-654 738 0
-678 738 0
-698 738 0
-714 738 0
-739 655 679 699 715 0
-655 739 0
-679 739 0
-699 739 0
-715 739 0
-740 656 680 700 716 0
-656 740 0
-680 740 0
-700 740 0
-716 740 0
-741 657 681 701 717 0
-657 741 0
-681 741 0
-701 741 0
-717 741 0
-634 -658 0
-634 -682 0
-634 -702 0
-635 -659 0
-635 -683 0
-635 -703 0
-636 -660 0
-636 -684 0
-636 -704 0
-637 -661 0
-637 -685 0
-637 -705 0
-638 -662 0
-638 -682 0
-638 -686 0
-638 -702 0
-638 -706 0
-639 -663 0
-639 -683 0
-639 -687 0
-639 -703 0
-639 -707 0
-640 -664 0
-640 -684 0
-640 -688 0
-640 -704 0
-640 -708 0
-641 -665 0
-641 -685 0
-641 -689 0
-641 -705 0
-641 -709 0
-642 -666 0
-642 -686 0
-642 -690 0
-642 -702 0
-642 -706 0
-642 -710 0
-643 -667 0
-643 -687 0
-643 -691 0
-643 -703 0
-643 -707 0
-643 -711 0
-644 -668 0
-644 -688 0
-644 -692 0
-644 -704 0
-644 -708 0
-644 -712 0
-645 -669 0
-645 -689 0
-645 -693 0
-645 -705 0
-645 -709 0
-645 -713 0
-646 -670 0
-646 -690 0
-646 -694 0
-646 -706 0
-646 -710 0
-646 -714 0
-647 -671 0
-647 -691 0
-647 -695 0
-647 -707 0
-647 -711 0
-647 -715 0
-648 -672 0
-648 -692 0
-648 -696 0
-648 -708 0
-648 -712 0
-648 -716 0
-649 -673 0
-649 -693 0
-649 -697 0
-649 -709 0
-649 -713 0
-649 -717 0
-650 -674 0
-650 -694 0
-650 -698 0
-650 -710 0
-650 -714 0
-651 -675 0
-651 -695 0
-651 -699 0
-651 -711 0
-651 -715 0
-652 -676 0
-652 -696 0
-652 -700 0
-652 -712 0
-652 -716 0
-653 -677 0
-653 -697 0
-653 -701 0
-653 -713 0
-653 -717 0
-654 -678 0
-654 -698 0
-654 -714 0
-655 -679 0
-655 -699 0
-655 -715 0
-656 -680 0
-656 -700 0
-656 -716 0
-657 -681 0
-657 -701 0
-657 -717 0
-658 -682 0
-658 -702 0
-659 -683 0
-659 -703 0
-660 -684 0
-660 -704 0
-661 -685 0
-661 -705 0
-662 -682 0
-662 -686 0
-662 -702 0
-662 -706 0
-663 -683 0
-663 -687 0
-663 -703 0
-663 -707 0
-664 -684 0
-664 -688 0
-664 -704 0
-664 -708 0
-665 -685 0
-665 -689 0
-665 -705 0
-665 -709 0
-666 -686 0
-666 -690 0
-666 -702 0
-666 -706 0
-666 -710 0
-667 -687 0
-667 -691 0
-667 -703 0
-667 -707 0
-667 -711 0
-668 -688 0
-668 -692 0
-668 -704 0
-668 -708 0
-668 -712 0
-669 -689 0
-669 -693 0
-669 -705 0
-669 -709 0
-669 -713 0
-670 -690 0
-670 -694 0
-670 -706 0
-670 -710 0
-670 -714 0
-671 -691 0
-671 -695 0
-671 -707 0
-671 -711 0
-671 -715 0
-672 -692 0
-672 -696 0
-672 -708 0
-672 -712 0
-672 -716 0
-673 -693 0
-673 -697 0
-673 -709 0
-673 -713 0
-673 -717 0
-674 -694 0
-674 -698 0
-674 -710 0
-674 -714 0
-675 -695 0
-675 -699 0
-675 -711 0
-675 -715 0
-676 -696 0
-676 -700 0
-676 -712 0
-676 -716 0
-677 -697 0
-677 -701 0
-677 -713 0
-677 -717 0
-678 -698 0
-678 -714 0
-679 -699 0
-679 -715 0
-680 -700 0
-680 -716 0
-681 -701 0
-681 -717 0
-682 -702 0
-682 -706 0
-683 -703 0
-683 -707 0
-684 -704 0
-684 -708 0
-685 -705 0
-685 -709 0
-686 -702 0
-686 -706 0
-686 -710 0
-687 -703 0
-687 -707 0
-687 -711 0
-688 -704 0
-688 -708 0
-688 -712 0
-689 -705 0
-689 -709 0
-689 -713 0
-690 -702 0
-690 -706 0
-690 -710 0
-690 -714 0
-691 -703 0
-691 -707 0
-691 -711 0
-691 -715 0
-692 -704 0
-692 -708 0
-692 -712 0
-692 -716 0
-693 -705 0
-693 -709 0
-693 -713 0
-693 -717 0
-694 -706 0
-694 -710 0
-694 -714 0
-695 -707 0
-695 -711 0
-695 -715 0
-696 -708 0
-696 -712 0
-696 -716 0
-697 -709 0
-697 -713 0
-697 -717 0
-698 -710 0
-698 -714 0
-699 -711 0
-699 -715 0
-700 -712 0
-700 -716 0
-701 -713 0
-701 -717 0
-634 742 659 660 661 683 684 685 703 704 705 0
-634 -742 -659 0
-634 -742 -660 0
-634 -742 -661 0
-634 -742 -683 0
-634 -742 -684 0
-634 -742 -685 0
-634 -742 -703 0
-634 -742 -704 0
-634 -742 -705 0
-635 718 0
-635 742 660 661 684 685 704 705 0
-635 -742 -660 0
-635 -742 -661 0
-635 -742 -684 0
-635 -742 -685 0
-635 -742 -704 0
-635 -742 -705 0
-636 719 0
-636 742 661 685 705 0
-636 -742 -661 0
-636 -742 -685 0
-636 -742 -705 0
-637 720 0
-637 742 0
-638 742 663 664 665 683 684 685 687 688 689 703 704 705 707 708 709 0
-638 -742 -663 0
-638 -742 -664 0
-638 -742 -665 0
-638 -742 -683 0
-638 -742 -684 0
-638 -742 -685 0
-638 -742 -687 0
-638 -742 -688 0
-638 -742 -689 0
-638 -742 -703 0
-638 -742 -704 0
-638 -742 -705 0
-638 -742 -707 0
-638 -742 -708 0
-638 -742 -709 0
-639 722 0
-639 742 664 665 684 685 688 689 704 705 708 709 0
-639 -742 -664 0
-639 -742 -665 0
-639 -742 -684 0
-639 -742 -685 0
-639 -742 -688 0
-639 -742 -689 0
-639 -742 -704 0
-639 -742 -705 0
-639 -742 -708 0
-639 -742 -709 0
-640 723 0
-640 742 665 685 689 705 709 0
-640 -742 -665 0
-640 -742 -685 0
-640 -742 -689 0
-640 -742 -705 0
-640 -742 -709 0
-641 724 0
-641 742 0
-642 742 667 668 669 687 688 689 691 692 693 703 704 705 707 708 709 711 712 713 0
-642 -742 -667 0
-642 -742 -668 0
-642 -742 -669 0
-642 -742 -687 0
-642 -742 -688 0
-642 -742 -689 0
-642 -742 -691 0
-642 -742 -692 0
-642 -742 -693 0
-642 -742 -703 0
-642 -742 -704 0
-642 -742 -705 0
-642 -742 -707 0
-642 -742 -708 0
-642 -742 -709 0
-642 -742 -711 0
-642 -742 -712 0
-642 -742 -713 0
-643 726 0
-643 742 668 669 688 689 692 693 704 705 708 709 712 713 0
-643 -742 -668 0
-643 -742 -669 0
-643 -742 -688 0
-643 -742 -689 0
-643 -742 -692 0
-643 -742 -693 0
-643 -742 -704 0
-643 -742 -705 0
-643 -742 -708 0
-643 -742 -709 0
-643 -742 -712 0
-643 -742 -713 0
-644 727 0
-644 742 669 689 693 705 709 713 0
-644 -742 -669 0
-644 -742 -689 0
-644 -742 -693 0
-644 -742 -705 0
-644 -742 -709 0
-644 -742 -713 0
-645 728 0
-645 742 0
-646 742 671 672 673 691 692 693 695 696 697 707 708 709 711 712 713 715 716 717 0
-646 -742 -671 0
-646 -742 -672 0
-646 -742 -673 0
-646 -742 -691 0
-646 -742 -692 0
-646 -742 -693 0
-646 -742 -695 0
-646 -742 -696 0
-646 -742 -697 0
-646 -742 -707 0
-646 -742 -708 0
-646 -742 -709 0
-646 -742 -711 0
-646 -742 -712 0
-646 -742 -713 0
-646 -742 -715 0
-646 -742 -716 0
-646 -742 -717 0
-647 730 0
-647 742 672 673 692 693 696 697 708 709 712 713 716 717 0
-647 -742 -672 0
-647 -742 -673 0
-647 -742 -692 0
-647 -742 -693 0
-647 -742 -696 0
-647 -742 -697 0
-647 -742 -708 0
-647 -742 -709 0
-647 -742 -712 0
-647 -742 -713 0
-647 -742 -716 0
-647 -742 -717 0
-648 731 0
-648 742 673 693 697 709 713 717 0
-648 -742 -673 0
-648 -742 -693 0
-648 -742 -697 0
-648 -742 -709 0
-648 -742 -713 0
-648 -742 -717 0
-649 732 0
-649 742 0
-650 742 675 676 677 695 696 697 699 700 701 711 712 713 715 716 717 0
-650 -742 -675 0
-650 -742 -676 0
-650 -742 -677 0
-650 -742 -695 0
-650 -742 -696 0
-650 -742 -697 0
-650 -742 -699 0
-650 -742 -700 0
-650 -742 -701 0
-650 -742 -711 0
-650 -742 -712 0
-650 -742 -713 0
-650 -742 -715 0
-650 -742 -716 0
-650 -742 -717 0
-651 734 0
-651 742 676 677 696 697 700 701 712 713 716 717 0
-651 -742 -676 0
-651 -742 -677 0
-651 -742 -696 0
-651 -742 -697 0
-651 -742 -700 0
-651 -742 -701 0
-651 -742 -712 0
-651 -742 -713 0
-651 -742 -716 0
-651 -742 -717 0
-652 735 0
-652 742 677 697 701 713 717 0
-652 -742 -677 0
-652 -742 -697 0
-652 -742 -701 0
-652 -742 -713 0
-652 -742 -717 0
-653 736 0
-653 742 0
-654 742 679 680 681 699 700 701 715 716 717 0
-654 -742 -679 0
-654 -742 -680 0
-654 -742 -681 0
-654 -742 -699 0
-654 -742 -700 0
-654 -742 -701 0
-654 -742 -715 0
-654 -742 -716 0
-654 -742 -717 0
-655 738 0
-655 742 680 681 700 701 716 717 0
-655 -742 -680 0
-655 -742 -681 0
-655 -742 -700 0
-655 -742 -701 0
-655 -742 -716 0
-655 -742 -717 0
-656 739 0
-656 742 681 701 717 0
-656 -742 -681 0
-656 -742 -701 0
-656 -742 -717 0
-657 740 0
-657 742 0
-658 743 635 636 637 683 684 685 703 704 705 0
-658 -743 -635 0
-658 -743 -636 0
-658 -743 -637 0
-658 -743 -683 0
-658 -743 -684 0
-658 -743 -685 0
-658 -743 -703 0
-658 -743 -704 0
-658 -743 -705 0
-659 718 0
-659 743 636 637 684 685 704 705 0
-659 -743 -636 0
-659 -743 -637 0
-659 -743 -684 0
-659 -743 -685 0
-659 -743 -704 0
-659 -743 -705 0
-660 719 0
-660 743 637 685 705 0
-660 -743 -637 0
-660 -743 -685 0
-660 -743 -705 0
-661 720 0
-661 743 0
-662 743 639 640 641 683 684 685 687 688 689 703 704 705 707 708 709 0
-662 -743 -639 0
-662 -743 -640 0
-662 -743 -641 0
-662 -743 -683 0
-662 -743 -684 0
-662 -743 -685 0
-662 -743 -687 0
-662 -743 -688 0
-662 -743 -689 0
-662 -743 -703 0
-662 -743 -704 0
-662 -743 -705 0
-662 -743 -707 0
-662 -743 -708 0
-662 -743 -709 0
-663 722 0
-663 743 640 641 684 685 688 689 704 705 708 709 0
-663 -743 -640 0
-663 -743 -641 0
-663 -743 -684 0
-663 -743 -685 0
-663 -743 -688 0
-663 -743 -689 0
-663 -743 -704 0
-663 -743 -705 0
-663 -743 -708 0
-663 -743 -709 0
-664 723 0
-664 743 641 685 689 705 709 0
-664 -743 -641 0
-664 -743 -685 0
-664 -743 -689 0
-664 -743 -705 0
-664 -743 -709 0
-665 724 0
-665 743 0
-666 743 643 644 645 687 688 689 691 692 693 703 704 705 707 708 709 711 712 713 0
-666 -743 -643 0
-666 -743 -644 0
-666 -743 -645 0
-666 -743 -687 0
-666 -743 -688 0
-666 -743 -689 0
-666 -743 -691 0
-666 -743 -692 0
-666 -743 -693 0
-666 -743 -703 0
-666 -743 -704 0
-666 -743 -705 0
-666 -743 -707 0
-666 -743 -708 0
-666 -743 -709 0
-666 -743 -711 0
-666 -743 -712 0
-666 -743 -713 0
-667 726 0
-667 743 644 645 688 689 692 693 704 705 708 709 712 713 0
-667 -743 -644 0
-667 -743 -645 0
-667 -743 -688 0
-667 -743 -689 0
-667 -743 -692 0
-667 -743 -693 0
-667 -743 -704 0
-667 -743 -705 0
-667 -743 -708 0
-667 -743 -709 0
-667 -743 -712 0
-667 -743 -713 0
-668 727 0
-668 743 645 689 693 705 709 713 0
-668 -743 -645 0
-668 -743 -689 0
-668 -743 -693 0
-668 -743 -705 0
-668 -743 -709 0
-668 -743 -713 0
-669 728 0
-669 743 0
-670 743 647 648 649 691 692 693 695 696 697 707 708 709 711 712 713 715 716 717 0
-670 -743 -647 0
-670 -743 -648 0
-670 -743 -649 0
-670 -743 -691 0
-670 -743 -692 0
-670 -743 -693 0
-670 -743 -695 0
-670 -743 -696 0
-670 -743 -697 0
-670 -743 -707 0
-670 -743 -708 0
-670 -743 -709 0
-670 -743 -711 0
-670 -743 -712 0
-670 -743 -713 0
-670 -743 -715 0
-670 -743 -716 0
-670 -743 -717 0
-671 730 0
-671 743 648 649 692 693 696 697 708 709 712 713 716 717 0
-671 -743 -648 0
-671 -743 -649 0
-671 -743 -692 0
-671 -743 -693 0
-671 -743 -696 0
-671 -743 -697 0
-671 -743 -708 0
-671 -743 -709 0
-671 -743 -712 0
-671 -743 -713 0
-671 -743 -716 0
-671 -743 -717 0
-672 731 0
-672 743 649 693 697 709 713 717 0
-672 -743 -649 0
-672 -743 -693 0
-672 -743 -697 0
-672 -743 -709 0
-672 -743 -713 0
-672 -743 -717 0
-673 732 0
-673 743 0
-674 743 651 652 653 695 696 697 699 700 701 711 712 713 715 716 717 0
-674 -743 -651 0
-674 -743 -652 0
-674 -743 -653 0
-674 -743 -695 0
-674 -743 -696 0
-674 -743 -697 0
-674 -743 -699 0
-674 -743 -700 0
-674 -743 -701 0
-674 -743 -711 0
-674 -743 -712 0
-674 -743 -713 0
-674 -743 -715 0
-674 -743 -716 0
-674 -743 -717 0
-675 734 0
-675 743 652 653 696 697 700 701 712 713 716 717 0
-675 -743 -652 0
-675 -743 -653 0
-675 -743 -696 0
-675 -743 -697 0
-675 -743 -700 0
-675 -743 -701 0
-675 -743 -712 0
-675 -743 -713 0
-675 -743 -716 0
-675 -743 -717 0
-676 735 0
-676 743 653 697 701 713 717 0
-676 -743 -653 0
-676 -743 -697 0
-676 -743 -701 0
-676 -743 -713 0
-676 -743 -717 0
-677 736 0
-677 743 0
-678 743 655 656 657 699 700 701 715 716 717 0
-678 -743 -655 0
-678 -743 -656 0
-678 -743 -657 0
-678 -743 -699 0
-678 -743 -700 0
-678 -743 -701 0
-678 -743 -715 0
-678 -743 -716 0
-678 -743 -717 0
-679 738 0
-679 743 656 657 700 701 716 717 0
-679 -743 -656 0
-679 -743 -657 0
-679 -743 -700 0
-679 -743 -701 0
-679 -743 -716 0
-679 -743 -717 0
-680 739 0
-680 743 657 701 717 0
-680 -743 -657 0
-680 -743 -701 0
-680 -743 -717 0
-681 740 0
-681 743 0
-682 744 635 636 637 639 640 641 659 660 661 663 664 665 703 704 705 707 708 709 0
-682 -744 -635 0
-682 -744 -636 0
-682 -744 -637 0
-682 -744 -639 0
-682 -744 -640 0
-682 -744 -641 0
-682 -744 -659 0
-682 -744 -660 0
-682 -744 -661 0
-682 -744 -663 0
-682 -744 -664 0
-682 -744 -665 0
-682 -744 -703 0
-682 -744 -704 0
-682 -744 -705 0
-682 -744 -707 0
-682 -744 -708 0
-682 -744 -709 0
-683 718 722 0
-683 744 636 637 640 641 660 661 664 665 704 705 708 709 0
-683 -744 -636 0
-683 -744 -637 0
-683 -744 -640 0
-683 -744 -641 0
-683 -744 -660 0
-683 -744 -661 0
-683 -744 -664 0
-683 -744 -665 0
-683 -744 -704 0
-683 -744 -705 0
-683 -744 -708 0
-683 -744 -709 0
-684 719 723 0
-684 744 637 641 661 665 705 709 0
-684 -744 -637 0
-684 -744 -641 0
-684 -744 -661 0
-684 -744 -665 0
-684 -744 -705 0
-684 -744 -709 0
-685 720 724 0
-685 744 0
-686 744 639 640 641 643 644 645 663 664 665 667 668 669 703 704 705 707 708 709 711 712 713 0
-686 -744 -639 0
-686 -744 -640 0
-686 -744 -641 0
-686 -744 -643 0
-686 -744 -644 0
-686 -744 -645 0
-686 -744 -663 0
-686 -744 -664 0
-686 -744 -665 0
-686 -744 -667 0
-686 -744 -668 0
-686 -744 -669 0
-686 -744 -703 0
-686 -744 -704 0
-686 -744 -705 0
-686 -744 -707 0
-686 -744 -708 0
-686 -744 -709 0
-686 -744 -711 0
-686 -744 -712 0
-686 -744 -713 0
-687 722 726 0
-687 744 640 641 644 645 664 665 668 669 704 705 708 709 712 713 0
-687 -744 -640 0
-687 -744 -641 0
-687 -744 -644 0
-687 -744 -645 0
-687 -744 -664 0
-687 -744 -665 0
-687 -744 -668 0
-687 -744 -669 0
-687 -744 -704 0
-687 -744 -705 0
-687 -744 -708 0
-687 -744 -709 0
-687 -744 -712 0
-687 -744 -713 0
-688 723 727 0
-688 744 641 645 665 669 705 709 713 0
-688 -744 -641 0
-688 -744 -645 0
-688 -744 -665 0
-688 -744 -669 0
-688 -744 -705 0
-688 -744 -709 0
-688 -744 -713 0
-689 724 728 0
-689 744 0
-690 744 643 644 645 647 648 649 667 668 669 671 672 673 703 704 705 707 708 709 711 712 713 715 716 717 0
-690 -744 -643 0
-690 -744 -644 0
-690 -744 -645 0
-690 -744 -647 0
-690 -744 -648 0
-690 -744 -649 0
-690 -744 -667 0
-690 -744 -668 0
-690 -744 -669 0
-690 -744 -671 0
-690 -744 -672 0
-690 -744 -673 0
-690 -744 -703 0
-690 -744 -704 0
-690 -744 -705 0
-690 -744 -707 0
-690 -744 -708 0
-690 -744 -709 0
-690 -744 -711 0
-690 -744 -712 0
-690 -744 -713 0
-690 -744 -715 0
-690 -744 -716 0
-690 -744 -717 0
-691 726 730 0
-691 744 644 645 648 649 668 669 672 673 704 705 708 709 712 713 716 717 0
-691 -744 -644 0
-691 -744 -645 0
-691 -744 -648 0
-691 -744 -649 0
-691 -744 -668 0
-691 -744 -669 0
-691 -744 -672 0
-691 -744 -673 0
-691 -744 -704 0
-691 -744 -705 0
-691 -744 -708 0
-691 -744 -709 0
-691 -744 -712 0
-691 -744 -713 0
-691 -744 -716 0
-691 -744 -717 0
-692 727 731 0
-692 744 645 649 669 673 705 709 713 717 0
-692 -744 -645 0
-692 -744 -649 0
-692 -744 -669 0
-692 -744 -673 0
-692 -744 -705 0
-692 -744 -709 0
-692 -744 -713 0
-692 -744 -717 0
-693 728 732 0
-693 744 0
-694 744 647 648 649 651 652 653 671 672 673 675 676 677 707 708 709 711 712 713 715 716 717 0
-694 -744 -647 0
-694 -744 -648 0
-694 -744 -649 0
-694 -744 -651 0
-694 -744 -652 0
-694 -744 -653 0
-694 -744 -671 0
-694 -744 -672 0
-694 -744 -673 0
-694 -744 -675 0
-694 -744 -676 0
-694 -744 -677 0
-694 -744 -707 0
-694 -744 -708 0
-694 -744 -709 0
-694 -744 -711 0
-694 -744 -712 0
-694 -744 -713 0
-694 -744 -715 0
-694 -744 -716 0
-694 -744 -717 0
-695 730 734 0
-695 744 648 649 652 653 672 673 676 677 708 709 712 713 716 717 0
-695 -744 -648 0
-695 -744 -649 0
-695 -744 -652 0
-695 -744 -653 0
-695 -744 -672 0
-695 -744 -673 0
-695 -744 -676 0
-695 -744 -677 0
-695 -744 -708 0
-695 -744 -709 0
-695 -744 -712 0
-695 -744 -713 0
-695 -744 -716 0
-695 -744 -717 0
-696 731 735 0
-696 744 649 653 673 677 709 713 717 0
-696 -744 -649 0
-696 -744 -653 0
-696 -744 -673 0
-696 -744 -677 0
-696 -744 -709 0
-696 -744 -713 0
-696 -744 -717 0
-697 732 736 0
-697 744 0
-698 744 651 652 653 655 656 657 675 676 677 679 680 681 711 712 713 715 716 717 0
-698 -744 -651 0
-698 -744 -652 0
-698 -744 -653 0
-698 -744 -655 0
-698 -744 -656 0
-698 -744 -657 0
-698 -744 -675 0
-698 -744 -676 0
-698 -744 -677 0
-698 -744 -679 0
-698 -744 -680 0
-698 -744 -681 0
-698 -744 -711 0
-698 -744 -712 0
-698 -744 -713 0
-698 -744 -715 0
-698 -744 -716 0
-698 -744 -717 0
-699 734 738 0
-699 744 652 653 656 657 676 677 680 681 712 713 716 717 0
-699 -744 -652 0
-699 -744 -653 0
-699 -744 -656 0
-699 -744 -657 0
-699 -744 -676 0
-699 -744 -677 0
-699 -744 -680 0
-699 -744 -681 0
-699 -744 -712 0
-699 -744 -713 0
-699 -744 -716 0
-699 -744 -717 0
-700 735 739 0
-700 744 653 657 677 681 713 717 0
-700 -744 -653 0
-700 -744 -657 0
-700 -744 -677 0
-700 -744 -681 0
-700 -744 -713 0
-700 -744 -717 0
-701 736 740 0
-701 744 0
-702 745 635 636 637 639 640 641 643 644 645 659 660 661 663 664 665 667 668 669 683 684 685 687 688 689 691 692 693 0
-702 -745 -635 0
-702 -745 -636 0
-702 -745 -637 0
-702 -745 -639 0
-702 -745 -640 0
-702 -745 -641 0
-702 -745 -643 0
-702 -745 -644 0
-702 -745 -645 0
-702 -745 -659 0
-702 -745 -660 0
-702 -745 -661 0
-702 -745 -663 0
-702 -745 -664 0
-702 -745 -665 0
-702 -745 -667 0
-702 -745 -668 0
-702 -745 -669 0
-702 -745 -683 0
-702 -745 -684 0
-702 -745 -685 0
-702 -745 -687 0
-702 -745 -688 0
-702 -745 -689 0
-702 -745 -691 0
-702 -745 -692 0
-702 -745 -693 0
-703 718 722 0
-703 718 726 0
-703 722 726 0
-703 745 636 637 640 641 644 645 660 661 664 665 668 669 684 685 688 689 692 693 0
-703 -745 -636 0
-703 -745 -637 0
-703 -745 -640 0
-703 -745 -641 0
-703 -745 -644 0
-703 -745 -645 0
-703 -745 -660 0
-703 -745 -661 0
-703 -745 -664 0
-703 -745 -665 0
-703 -745 -668 0
-703 -745 -669 0
-703 -745 -684 0
-703 -745 -685 0
-703 -745 -688 0
-703 -745 -689 0
-703 -745 -692 0
-703 -745 -693 0
-704 719 723 0
-704 719 727 0
-704 723 727 0
-704 745 637 641 645 661 665 669 685 689 693 0
-704 -745 -637 0
-704 -745 -641 0
-704 -745 -645 0
-704 -745 -661 0
-704 -745 -665 0
-704 -745 -669 0
-704 -745 -685 0
-704 -745 -689 0
-704 -745 -693 0
-705 720 724 0
-705 720 728 0
-705 724 728 0
-705 745 0
-706 745 639 640 641 643 644 645 647 648 649 663 664 665 667 668 669 671 672 673 683 684 685 687 688 689 691 692 693 695 696 697 0
-706 -745 -639 0
-706 -745 -640 0
-706 -745 -641 0
-706 -745 -643 0
-706 -745 -644 0
-706 -745 -645 0
-706 -745 -647 0
-706 -745 -648 0
-706 -745 -649 0
-706 -745 -663 0
-706 -745 -664 0
-706 -745 -665 0
-706 -745 -667 0
-706 -745 -668 0
-706 -745 -669 0
-706 -745 -671 0
-706 -745 -672 0
-706 -745 -673 0
-706 -745 -683 0
-706 -745 -684 0
-706 -745 -685 0
-706 -745 -687 0
-706 -745 -688 0
-706 -745 -689 0
-706 -745 -691 0
-706 -745 -692 0
-706 -745 -693 0
-706 -745 -695 0
-706 -745 -696 0
-706 -745 -697 0
-707 722 726 0
-707 722 730 0
-707 726 730 0
-707 745 640 641 644 645 648 649 664 665 668 669 672 673 684 685 688 689 692 693 696 697 0
-707 -745 -640 0
-707 -745 -641 0
-707 -745 -644 0
-707 -745 -645 0
-707 -745 -648 0
-707 -745 -649 0
-707 -745 -664 0
-707 -745 -665 0
-707 -745 -668 0
-707 -745 -669 0
-707 -745 -672 0
-707 -745 -673 0
-707 -745 -684 0
-707 -745 -685 0
-707 -745 -688 0
-707 -745 -689 0
-707 -745 -692 0
-707 -745 -693 0
-707 -745 -696 0
-707 -745 -697 0
-708 723 727 0
-708 723 731 0
-708 727 731 0
-708 745 641 645 649 665 669 673 685 689 693 697 0
-708 -745 -641 0
-708 -745 -645 0
-708 -745 -649 0
-708 -745 -665 0
-708 -745 -669 0
-708 -745 -673 0
-708 -745 -685 0
-708 -745 -689 0
-708 -745 -693 0
-708 -745 -697 0
-709 724 728 0
-709 724 732 0
-709 728 732 0
-709 745 0
-710 745 643 644 645 647 648 649 651 652 653 667 668 669 671 672 673 675 676 677 687 688 689 691 692 693 695 696 697 699 700 701 0
-710 -745 -643 0
-710 -745 -644 0
-710 -745 -645 0
-710 -745 -647 0
-710 -745 -648 0
-710 -745 -649 0
-710 -745 -651 0
-710 -745 -652 0
-710 -745 -653 0
-710 -745 -667 0
-710 -745 -668 0
-710 -745 -669 0
-710 -745 -671 0
-710 -745 -672 0
-710 -745 -673 0
-710 -745 -675 0
-710 -745 -676 0
-710 -745 -677 0
-710 -745 -687 0
-710 -745 -688 0
-710 -745 -689 0
-710 -745 -691 0
-710 -745 -692 0
-710 -745 -693 0
-710 -745 -695 0
-710 -745 -696 0
-710 -745 -697 0
-710 -745 -699 0
-710 -745 -700 0
-710 -745 -701 0
-711 726 730 0
-711 726 734 0
-711 730 734 0
-711 745 644 645 648 649 652 653 668 669 672 673 676 677 688 689 692 693 696 697 700 701 0
-711 -745 -644 0
-711 -745 -645 0
-711 -745 -648 0
-711 -745 -649 0
-711 -745 -652 0
-711 -745 -653 0
-711 -745 -668 0
-711 -745 -669 0
-711 -745 -672 0
-711 -745 -673 0
-711 -745 -676 0
-711 -745 -677 0
-711 -745 -688 0
-711 -745 -689 0
-711 -745 -692 0
-711 -745 -693 0
-711 -745 -696 0
-711 -745 -697 0
-711 -745 -700 0
-711 -745 -701 0
-712 727 731 0
-712 727 735 0
-712 731 735 0
-712 745 645 649 653 669 673 677 689 693 697 701 0
-712 -745 -645 0
-712 -745 -649 0
-712 -745 -653 0
-712 -745 -669 0
-712 -745 -673 0
-712 -745 -677 0
-712 -745 -689 0
-712 -745 -693 0
-712 -745 -697 0
-712 -745 -701 0
-713 728 732 0
-713 728 736 0
-713 732 736 0
-713 745 0
-714 745 647 648 649 651 652 653 655 656 657 671 672 673 675 676 677 679 680 681 691 692 693 695 696 697 699 700 701 0
-714 -745 -647 0
-714 -745 -648 0
-714 -745 -649 0
-714 -745 -651 0
-714 -745 -652 0
-714 -745 -653 0
-714 -745 -655 0
-714 -745 -656 0
-714 -745 -657 0
-714 -745 -671 0
-714 -745 -672 0
-714 -745 -673 0
-714 -745 -675 0
-714 -745 -676 0
-714 -745 -677 0
-714 -745 -679 0
-714 -745 -680 0
-714 -745 -681 0
-714 -745 -691 0
-714 -745 -692 0
-714 -745 -693 0
-714 -745 -695 0
-714 -745 -696 0
-714 -745 -697 0
-714 -745 -699 0
-714 -745 -700 0
-714 -745 -701 0
-715 730 734 0
-715 730 738 0
-715 734 738 0
-715 745 648 649 652 653 656 657 672 673 676 677 680 681 692 693 696 697 700 701 0
-715 -745 -648 0
-715 -745 -649 0
-715 -745 -652 0
-715 -745 -653 0
-715 -745 -656 0
-715 -745 -657 0
-715 -745 -672 0
-715 -745 -673 0
-715 -745 -676 0
-715 -745 -677 0
-715 -745 -680 0
-715 -745 -681 0
-715 -745 -692 0
-715 -745 -693 0
-715 -745 -696 0
-715 -745 -697 0
-715 -745 -700 0
-715 -745 -701 0
-716 731 735 0
-716 731 739 0
-716 735 739 0
-716 745 649 653 657 673 677 681 693 697 701 0
-716 -745 -649 0
-716 -745 -653 0
-716 -745 -657 0
-716 -745 -673 0
-716 -745 -677 0
-716 -745 -681 0
-716 -745 -693 0
-716 -745 -697 0
-716 -745 -701 0
-717 732 736 0
-717 732 740 0
-717 736 740 0
-717 745 0
746 747 748 749 750 751 0
-746 -747 0
-746 -748 0
-746 -749 0
-746 -750 0
-746 -751 0
-747 -748 0
-747 -749 0
-747 -750 0
-747 -751 0
-748 -749 0
-748 -750 0
-748 -751 0
-749 -750 0
-749 -751 0
-750 -751 0
752 753 754 755 0
-752 -753 0
-752 -754 0
-752 -755 0
-753 -754 0
-753 -755 0
-754 -755 0
756 757 758 759 760 761 0
-756 -757 0
-756 -758 0
-756 -759 0
-756 -760 0
-756 -761 0
-757 -758 0
-757 -759 0
-757 -760 0
-757 -761 0
-758 -759 0
-758 -760 0
-758 -761 0
-759 -760 0
-759 -761 0
-760 -761 0
762 763 764 765 0
-762 -763 0
-762 -764 0
-762 -765 0
-763 -764 0
-763 -765 0
-764 -765 0
766 767 768 769 770 0
-766 -767 0
-766 -768 0
-766 -769 0
-766 -770 0
-767 -768 0
-767 -769 0
-767 -770 0
-768 -769 0
-768 -770 0
-769 -770 0
771 772 773 774 0
-771 -772 0
-771 -773 0
-771 -774 0
-772 -773 0
-772 -774 0
-773 -774 0
775 776 777 778 0
-775 -776 0
-775 -777 0
-775 -778 0
-776 -777 0
-776 -778 0
-777 -778 0
779 780 781 782 0
-779 -780 0
-779 -781 0
-779 -782 0
-780 -781 0
-780 -782 0
-781 -782 0
-783 746 0
-783 752 0
-746 -752 783 0
-784 746 0
-784 753 0
-746 -753 784 0
-785 746 0
-785 754 0
-746 -754 785 0
-786 746 0
-786 755 0
-746 -755 786 0
-787 747 0
-787 752 0
-747 -752 787 0
-788 747 0
-788 753 0
-747 -753 788 0
-789 747 0
-789 754 0
-747 -754 789 0
-790 747 0
-790 755 0
-747 -755 790 0
-791 748 0
-791 752 0
-748 -752 791 0
-792 748 0
-792 753 0
-748 -753 792 0
-793 748 0
-793 754 0
-748 -754 793 0
-794 748 0
-794 755 0
-748 -755 794 0
-795 749 0
-795 752 0
-749 -752 795 0
-796 749 0
-796 753 0
-749 -753 796 0
-797 749 0
-797 754 0
-749 -754 797 0
-798 749 0
-798 755 0
-749 -755 798 0
-799 750 0
-799 752 0
-750 -752 799 0
-800 750 0
-800 753 0
-750 -753 800 0
-801 750 0
-801 754 0
-750 -754 801 0
-802 750 0
-802 755 0
-750 -755 802 0
-803 751 0
-803 752 0
-751 -752 803 0
-804 751 0
-804 753 0
-751 -753 804 0
-805 751 0
-805 754 0
-751 -754 805 0
-806 751 0
-806 755 0
-751 -755 806 0
-807 756 0
-807 762 0
-756 -762 807 0
-808 756 0
-808 763 0
-756 -763 808 0
-809 756 0
-809 764 0
-756 -764 809 0
-810 756 0
-810 765 0
-756 -765 810 0
-811 757 0
-811 762 0
-757 -762 811 0
-812 757 0
-812 763 0
-757 -763 812 0
-813 757 0
-813 764 0
-757 -764 813 0
-814 757 0
-814 765 0
-757 -765 814 0
-815 758 0
-815 762 0
-758 -762 815 0
-816 758 0
-816 763 0
-758 -763 816 0
-817 758 0
-817 764 0
-758 -764 817 0
-818 758 0
-818 765 0
-758 -765 818 0
-819 759 0
-819 762 0
-759 -762 819 0
-820 759 0
-820 763 0
-759 -763 820 0
-821 759 0
-821 764 0
-759 -764 821 0
-822 759 0
-822 765 0
-759 -765 822 0
-823 760 0
-823 762 0
-760 -762 823 0
-824 760 0
-824 763 0
-760 -763 824 0
-825 760 0
-825 764 0
-760 -764 825 0
-826 760 0
-826 765 0
-760 -765 826 0
-827 761 0
-827 762 0
-761 -762 827 0
-828 761 0
-828 763 0
-761 -763 828 0
-829 761 0
-829 764 0
-761 -764 829 0
-830 761 0
-830 765 0
-761 -765 830 0
-831 766 0
-831 771 0
-766 -771 831 0
-832 766 0
-832 772 0
-766 -772 832 0
-833 766 0
-833 773 0
-766 -773 833 0
-834 766 0
-834 774 0
-766 -774 834 0
-835 767 0
-835 771 0
-767 -771 835 0
-836 767 0
-836 772 0
-767 -772 836 0
-837 767 0
-837 773 0
-767 -773 837 0
-838 767 0
-838 774 0
-767 -774 838 0
-839 768 0
-839 771 0
-768 -771 839 0
-840 768 0
-840 772 0
-768 -772 840 0
-841 768 0
-841 773 0
-768 -773 841 0
-842 768 0
-842 774 0
-768 -774 842 0
-843 769 0
-843 771 0
-769 -771 843 0
-844 769 0
-844 772 0
-769 -772 844 0
-845 769 0
-845 773 0
-769 -773 845 0
-846 769 0
-846 774 0
-769 -774 846 0
-847 770 0
-847 771 0
-770 -771 847 0
-848 770 0
-848 772 0
-770 -772 848 0
-849 770 0
-849 773 0
-770 -773 849 0
-850 770 0
-850 774 0
-770 -774 850 0
-851 775 0
-851 779 0
-775 -779 851 0
-852 775 0
-852 780 0
-775 -780 852 0
-853 775 0
-853 781 0
-775 -781 853 0
-854 775 0
-854 782 0
-775 -782 854 0
-855 776 0
-855 779 0
-776 -779 855 0
-856 776 0
-856 780 0
-776 -780 856 0
-857 776 0
-857 781 0
-776 -781 857 0
-858 776 0
-858 782 0
-776 -782 858 0
-859 777 0
-859 779 0
-777 -779 859 0
-860 777 0
-860 780 0
-777 -780 860 0
-861 777 0
-861 781 0
-777 -781 861 0
-862 777 0
-862 782 0
-777 -782 862 0
-863 778 0
-863 779 0
-778 -779 863 0
-864 778 0
-864 780 0
-778 -780 864 0
-865 778 0
-865 781 0
-778 -781 865 0
-866 778 0
-866 782 0
-778 -782 866 0
-867 783 807 831 851 0
-783 867 0
-807 867 0
-831 867 0
-851 867 0
-868 784 808 832 852 0
-784 868 0
-808 868 0
-832 868 0
-852 868 0
-869 785 809 833 853 0
-785 869 0
-809 869 0
-833 869 0
-853 869 0
-870 786 810 834 854 0
-786 870 0
-810 870 0
-834 870 0
-854 870 0
-871 787 811 831 835 851 855 0
-787 871 0
-811 871 0
-831 871 0
-835 871 0
-851 871 0
-855 871 0
-872 788 812 832 836 852 856 0
-788 872 0
-812 872 0
-832 872 0
-836 872 0
-852 872 0
-856 872 0
-873 789 813 833 837 853 857 0
-789 873 0
-813 873 0
-833 873 0
-837 873 0
-853 873 0
-857 873 0
-874 790 814 834 838 854 858 0
-790 874 0
-814 874 0
-834 874 0
-838 874 0
-854 874 0
-858 874 0
-875 791 815 835 839 851 855 859 0
-791 875 0
-815 875 0
-835 875 0
-839 875 0
-851 875 0
-855 875 0
-859 875 0
-876 792 816 836 840 852 856 860 0
-792 876 0
-816 876 0
-836 876 0
-840 876 0
-852 876 0
-856 876 0
-860 876 0
-877 793 817 837 841 853 857 861 0
-793 877 0
-817 877 0
-837 877 0
-841 877 0
-853 877 0
-857 877 0
-861 877 0
-878 794 818 838 842 854 858 862 0
-794 878 0
-818 878 0
-838 878 0
-842 878 0
-854 878 0
-858 878 0
-862 878 0
-879 795 819 839 843 855 859 863 0
-795 879 0
-819 879 0
-839 879 0
-843 879 0
-855 879 0
-859 879 0
-863 879 0
-880 796 820 840 844 856 860 864 0
-796 880 0
-820 880 0
-840 880 0
-844 880 0
-856 880 0
-860 880 0
-864 880 0
-881 797 821 841 845 857 861 865 0
-797 881 0
-821 881 0
-841 881 0
-845 881 0
-857 881 0
-861 881 0
-865 881 0
-882 798 822 842 846 858 862 866 0
-798 882 0
-822 882 0
-842 882 0
-846 882 0
-858 882 0
-862 882 0
-866 882 0
-883 799 823 843 847 859 863 0
-799 883 0
-823 883 0
-843 883 0
-847 883 0
-859 883 0
-863 883 0
-884 800 824 844 848 860 864 0
-800 884 0
-824 884 0
-844 884 0
-848 884 0
-860 884 0
-864 884 0
-885 801 825 845 849 861 865 0
-801 885 0
-825 885 0
-845 885 0
-849 885 0
-861 885 0
-865 885 0
-886 802 826 846 850 862 866 0
-802 886 0
-826 886 0
-846 886 0
-850 886 0
-862 886 0
-866 886 0
-887 803 827 847 863 0
-803 887 0
-827 887 0
-847 887 0
-863 887 0
-888 804 828 848 864 0
-804 888 0
-828 888 0
-848 888 0
-864 888 0
-889 805 829 849 865 0
-805 889 0
-829 889 0
-849 889 0
-865 889 0
-890 806 830 850 866 0
-806 890 0
-830 890 0
-850 890 0
-866 890 0
-783 -807 0
-783 -831 0
-783 -851 0
-784 -808 0
-784 -832 0
-784 -852 0
-785 -809 0
-785 -833 0
-785 -853 0
-786 -810 0
-786 -834 0
-786 -854 0
-787 -811 0
-787 -831 0
-787 -835 0
-787 -851 0
-787 -855 0
-788 -812 0
-788 -832 0
-788 -836 0
-788 -852 0
-788 -856 0
-789 -813 0
-789 -833 0
-789 -837 0
-789 -853 0
-789 -857 0
-790 -814 0
-790 -834 0
-790 -838 0
-790 -854 0
-790 -858 0
-791 -815 0
-791 -835 0
-791 -839 0
-791 -851 0
-791 -855 0
-791 -859 0
-792 -816 0
-792 -836 0
-792 -840 0
-792 -852 0
-792 -856 0
-792 -860 0
-793 -817 0
-793 -837 0
-793 -841 0
-793 -853 0
-793 -857 0
-793 -861 0
-794 -818 0
-794 -838 0
-794 -842 0
-794 -854 0
-794 -858 0
-794 -862 0
-795 -819 0
-795 -839 0
-795 -843 0
-795 -855 0
-795 -859 0
-795 -863 0
-796 -820 0
-796 -840 0
-796 -844 0
-796 -856 0
-796 -860 0
-796 -864 0
-797 -821 0
-797 -841 0
-797 -845 0
-797 -857 0
-797 -861 0
-797 -865 0
-798 -822 0
-798 -842 0
-798 -846 0
-798 -858 0
-798 -862 0
-798 -866 0
-799 -823 0
-799 -843 0
-799 -847 0
-799 -859 0
-799 -863 0
-800 -824 0
-800 -844 0
-800 -848 0
-800 -860 0
-800 -864 0
-801 -825 0
-801 -845 0
-801 -849 0
-801 -861 0
-801 -865 0
-802 -826 0
-802 -846 0
-802 -850 0
-802 -862 0
-802 -866 0
-803 -827 0
-803 -847 0
-803 -863 0
-804 -828 0
-804 -848 0
-804 -864 0
-805 -829 0
-805 -849 0
-805 -865 0
-806 -830 0
-806 -850 0
-806 -866 0
-807 -831 0
-807 -851 0
-808 -832 0
-808 -852 0
-809 -833 0
-809 -853 0
-810 -834 0
-810 -854 0
-811 -831 0
-811 -835 0
-811 -851 0
-811 -855 0
-812 -832 0
-812 -836 0
-812 -852 0
-812 -856 0
-813 -833 0
-813 -837 0
-813 -853 0
-813 -857 0
-814 -834 0
-814 -838 0
-814 -854 0
-814 -858 0
-815 -835 0
-815 -839 0
-815 -851 0
-815 -855 0
-815 -859 0
-816 -836 0
-816 -840 0
-816 -852 0
-816 -856 0
-816 -860 0
-817 -837 0
-817 -841 0
-817 -853 0
-817 -857 0
-817 -861 0
-818 -838 0
-818 -842 0
-818 -854 0
-818 -858 0
-818 -862 0
-819 -839 0
-819 -843 0
-819 -855 0
-819 -859 0
-819 -863 0
-820 -840 0
-820 -844 0
-820 -856 0
-820 -860 0
-820 -864 0
-821 -841 0
-821 -845 0
-821 -857 0
-821 -861 0
-821 -865 0
-822 -842 0
-822 -846 0
-822 -858 0
-822 -862 0
-822 -866 0
-823 -843 0
-823 -847 0
-823 -859 0
-823 -863 0
-824 -844 0
-824 -848 0
-824 -860 0
-824 -864 0
-825 -845 0
-825 -849 0
-825 -861 0
-825 -865 0
-826 -846 0
-826 -850 0
-826 -862 0
-826 -866 0
-827 -847 0
-827 -863 0
-828 -848 0
-828 -864 0
-829 -849 0
-829 -865 0
-830 -850 0
-830 -866 0
-831 -851 0
-831 -855 0
-832 -852 0
-832 -856 0
-833 -853 0
-833 -857 0
-834 -854 0
-834 -858 0
-835 -851 0
-835 -855 0
-835 -859 0
-836 -852 0
-836 -856 0
-836 -860 0
-837 -853 0
-837 -857 0
-837 -861 0
-838 -854 0
-838 -858 0
-838 -862 0
-839 -851 0
-839 -855 0
-839 -859 0
-839 -863 0
-840 -852 0
-840 -856 0
-840 -860 0
-840 -864 0
-841 -853 0
-841 -857 0
-841 -861 0
-841 -865 0
-842 -854 0
-842 -858 0
-842 -862 0
-842 -866 0
-843 -855 0
-843 -859 0
-843 -863 0
-844 -856 0
-844 -860 0
-844 -864 0
-845 -857 0
-845 -861 0
-845 -865 0
-846 -858 0
-846 -862 0
-846 -866 0
-847 -859 0
-847 -863 0
-848 -860 0
-848 -864 0
-849 -861 0
-849 -865 0
-850 -862 0
-850 -866 0
-783 891 808 809 810 832 833 834 852 853 854 0
-783 -891 -808 0
-783 -891 -809 0
-783 -891 -810 0
-783 -891 -832 0
-783 -891 -833 0
-783 -891 -834 0
-783 -891 -852 0
-783 -891 -853 0
-783 -891 -854 0
-784 867 0
-784 891 809 810 833 834 853 854 0
-784 -891 -809 0
-784 -891 -810 0
-784 -891 -833 0
-784 -891 -834 0
-784 -891 -853 0
-784 -891 -854 0
-785 868 0
-785 891 810 834 854 0
-785 -891 -810 0
-785 -891 -834 0
-785 -891 -854 0
-786 869 0
-786 891 0
-787 891 812 813 814 832 833 834 836 837 838 852 853 854 856 857 858 0
-787 -891 -812 0
-787 -891 -813 0
-787 -891 -814 0
-787 -891 -832 0
-787 -891 -833 0
-787 -891 -834 0
-787 -891 -836 0
-787 -891 -837 0
-787 -891 -838 0
-787 -891 -852 0
-787 -891 -853 0
-787 -891 -854 0
-787 -891 -856 0
-787 -891 -857 0
-787 -891 -858 0
-788 871 0
-788 891 813 814 833 834 837 838 853 854 857 858 0
-788 -891 -813 0
-788 -891 -814 0
-788 -891 -833 0
-788 -891 -834 0
-788 -891 -837 0
-788 -891 -838 0
-788 -891 -853 0
-788 -891 -854 0
-788 -891 -857 0
-788 -891 -858 0
-789 872 0
-789 891 814 834 838 854 858 0
-789 -891 -814 0
-789 -891 -834 0
-789 -891 -838 0
-789 -891 -854 0
-789 -891 -858 0
-790 873 0
-790 891 0
-791 891 816 817 818 836 837 838 840 841 842 852 853 854 856 857 858 860 861 862 0
-791 -891 -816 0
-791 -891 -817 0
-791 -891 -818 0
-791 -891 -836 0
-791 -891 -837 0
-791 -891 -838 0
-791 -891 -840 0
-791 -891 -841 0
-791 -891 -842 0
-791 -891 -852 0
-791 -891 -853 0
-791 -891 -854 0
-791 -891 -856 0
-791 -891 -857 0
-791 -891 -858 0
-791 -891 -860 0
-791 -891 -861 0
-791 -891 -862 0
-792 875 0
-792 891 817 818 837 838 841 842 853 854 857 858 861 862 0
-792 -891 -817 0
-792 -891 -818 0
-792 -891 -837 0
-792 -891 -838 0
-792 -891 -841 0
-792 -891 -842 0
-792 -891 -853 0
-792 -891 -854 0
-792 -891 -857 0
-792 -891 -858 0
-792 -891 -861 0
-792 -891 -862 0
-793 876 0
-793 891 818 838 842 854 858 862 0
-793 -891 -818 0
-793 -891 -838 0
-793 -891 -842 0
-793 -891 -854 0
-793 -891 -858 0
-793 -891 -862 0
-794 877 0
-794 891 0
-795 891 820 821 822 840 841 842 844 845 846 856 857 858 860 861 862 864 865 866 0
-795 -891 -820 0
-795 -891 -821 0
-795 -891 -822 0
-795 -891 -840 0
-795 -891 -841 0
-795 -891 -842 0
-795 -891 -844 0
-795 -891 -845 0
-795 -891 -846 0
-795 -891 -856 0
-795 -891 -857 0
-795 -891 -858 0
-795 -891 -860 0
-795 -891 -861 0
-795 -891 -862 0
-795 -891 -864 0
-795 -891 -865 0
-795 -891 -866 0
-796 879 0
-796 891 821 822 841 842 845 846 857 858 861 862 865 866 0
-796 -891 -821 0
-796 -891 -822 0
-796 -891 -841 0
-796 -891 -842 0
-796 -891 -845 0
-796 -891 -846 0
-796 -891 -857 0
-796 -891 -858 0
-796 -891 -861 0
-796 -891 -862 0
-796 -891 -865 0
-796 -891 -866 0
-797 880 0
-797 891 822 842 846 858 862 866 0
-797 -891 -822 0
-797 -891 -842 0
-797 -891 -846 0
-797 -891 -858 0
-797 -891 -862 0
-797 -891 -866 0
-798 881 0
-798 891 0
-799 891 824 825 826 844 845 846 848 849 850 860 861 862 864 865 866 0
-799 -891 -824 0
-799 -891 -825 0
-799 -891 -826 0
-799 -891 -844 0
-799 -891 -845 0
-799 -891 -846 0
-799 -891 -848 0
-799 -891 -849 0
-799 -891 -850 0
-799 -891 -860 0
-799 -891 -861 0
-799 -891 -862 0
-799 -891 -864 0
-799 -891 -865 0
-799 -891 -866 0
-800 883 0
-800 891 825 826 845 846 849 850 861 862 865 866 0
-800 -891 -825 0
-800 -891 -826 0
-800 -891 -845 0
-800 -891 -846 0
-800 -891 -849 0
-800 -891 -850 0
-800 -891 -861 0
-800 -891 -862 0
-800 -891 -865 0
-800 -891 -866 0
-801 884 0
-801 891 826 846 850 862 866 0
-801 -891 -826 0
-801 -891 -846 0
-801 -891 -850 0
-801 -891 -862 0
-801 -891 -866 0
-802 885 0
-802 891 0
-803 891 828 829 830 848 849 850 864 865 866 0
-803 -891 -828 0
-803 -891 -829 0
-803 -891 -830 0
-803 -891 -848 0
-803 -891 -849 0
-803 -891 -850 0
-803 -891 -864 0
-803 -891 -865 0
-803 -891 -866 0
-804 887 0
-804 891 829 830 849 850 865 866 0
-804 -891 -829 0
-804 -891 -830 0
-804 -891 -849 0
-804 -891 -850 0
-804 -891 -865 0
-804 -891 -866 0
-805 888 0
-805 891 830 850 866 0
-805 -891 -830 0
-805 -891 -850 0
-805 -891 -866 0
-806 889 0
-806 891 0
-807 892 784 785 786 832 833 834 852 853 854 0
-807 -892 -784 0
-807 -892 -785 0
-807 -892 -786 0
-807 -892 -832 0
-807 -892 -833 0
-807 -892 -834 0
-807 -892 -852 0
-807 -892 -853 0
-807 -892 -854 0
-808 867 0
-808 892 785 786 833 834 853 854 0
-808 -892 -785 0
-808 -892 -786 0
-808 -892 -833 0
-808 -892 -834 0
-808 -892 -853 0
-808 -892 -854 0
-809 868 0
-809 892 786 834 854 0
-809 -892 -786 0
-809 -892 -834 0
-809 -892 -854 0
-810 869 0
-810 892 0
-811 892 788 789 790 832 833 834 836 837 838 852 853 854 856 857 858 0
-811 -892 -788 0
-811 -892 -789 0
-811 -892 -790 0
-811 -892 -832 0
-811 -892 -833 0
-811 -892 -834 0
-811 -892 -836 0
-811 -892 -837 0
-811 -892 -838 0
-811 -892 -852 0
-811 -892 -853 0
-811 -892 -854 0
-811 -892 -856 0
-811 -892 -857 0
-811 -892 -858 0
-812 871 0
-812 892 789 790 833 834 837 838 853 854 857 858 0
-812 -892 -789 0
-812 -892 -790 0
-812 -892 -833 0
-812 -892 -834 0
-812 -892 -837 0
-812 -892 -838 0
-812 -892 -853 0
-812 -892 -854 0
-812 -892 -857 0
-812 -892 -858 0
-813 872 0
-813 892 790 834 838 854 858 0
-813 -892 -790 0
-813 -892 -834 0
-813 -892 -838 0
-813 -892 -854 0
-813 -892 -858 0
-814 873 0
-814 892 0
-815 892 792 793 794 836 837 838 840 841 842 852 853 854 856 857 858 860 861 862 0
-815 -892 -792 0
-815 -892 -793 0
-815 -892 -794 0
-815 -892 -836 0
-815 -892 -837 0
-815 -892 -838 0
-815 -892 -840 0
-815 -892 -841 0
-815 -892 -842 0
-815 -892 -852 0
-815 -892 -853 0
-815 -892 -854 0
-815 -892 -856 0
-815 -892 -857 0
-815 -892 -858 0
-815 -892 -860 0
-815 -892 -861 0
-815 -892 -862 0
-816 875 0
-816 892 793 794 837 838 841 842 853 854 857 858 861 862 0
-816 -892 -793 0
-816 -892 -794 0
-816 -892 -837 0
-816 -892 -838 0
-816 -892 -841 0
-816 -892 -842 0
-816 -892 -853 0
-816 -892 -854 0
-816 -892 -857 0
-816 -892 -858 0
-816 -892 -861 0
-816 -892 -862 0
-817 876 0
-817 892 794 838 842 854 858 862 0
-817 -892 -794 0
-817 -892 -838 0
-817 -892 -842 0
-817 -892 -854 0
-817 -892 -858 0
-817 -892 -862 0
-818 877 0
-818 892 0
-819 892 796 797 798 840 841 842 844 845 846 856 857 858 860 861 862 864 865 866 0
-819 -892 -796 0
-819 -892 -797 0
-819 -892 -798 0
-819 -892 -840 0
-819 -892 -841 0
-819 -892 -842 0
-819 -892 -844 0
-819 -892 -845 0
-819 -892 -846 0
-819 -892 -856 0
-819 -892 -857 0
-819 -892 -858 0
-819 -892 -860 0
-819 -892 -861 0
-819 -892 -862 0
-819 -892 -864 0
-819 -892 -865 0
-819 -892 -866 0
-820 879 0
-820 892 797 798 841 842 845 846 857 858 861 862 865 866 0
-820 -892 -797 0
-820 -892 -798 0
-820 -892 -841 0
-820 -892 -842 0
-820 -892 -845 0
-820 -892 -846 0
-820 -892 -857 0
-820 -892 -858 0
-820 -892 -861 0
-820 -892 -862 0
-820 -892 -865 0
-820 -892 -866 0
-821 880 0
-821 892 798 842 846 858 862 866 0
-821 -892 -798 0
-821 -892 -842 0
-821 -892 -846 0
-821 -892 -858 0
-821 -892 -862 0
-821 -892 -866 0
-822 881 0
-822 892 0
-823 892 800 801 802 844 845 846 848 849 850 860 861 862 864 865 866 0
-823 -892 -800 0
-823 -892 -801 0
-823 -892 -802 0
-823 -892 -844 0
-823 -892 -845 0
-823 -892 -846 0
-823 -892 -848 0
-823 -892 -849 0
-823 -892 -850 0
-823 -892 -860 0
-823 -892 -861 0
-823 -892 -862 0
-823 -892 -864 0
-823 -892 -865 0
-823 -892 -866 0
-824 883 0
-824 892 801 802 845 846 849 850 861 862 865 866 0
-824 -892 -801 0
-824 -892 -802 0
-824 -892 -845 0
-824 -892 -846 0
-824 -892 -849 0
-824 -892 -850 0
-824 -892 -861 0
-824 -892 -862 0
-824 -892 -865 0
-824 -892 -866 0
-825 884 0
-825 892 802 846 850 862 866 0
-825 -892 -802 0
-825 -892 -846 0
-825 -892 -850 0
-825 -892 -862 0
-825 -892 -866 0
-826 885 0
-826 892 0
-827 892 804 805 806 848 849 850 864 865 866 0
-827 -892 -804 0
-827 -892 -805 0
-827 -892 -806 0
-827 -892 -848 0
-827 -892 -849 0
-827 -892 -850 0
-827 -892 -864 0
-827 -892 -865 0
-827 -892 -866 0
-828 887 0
-828 892 805 806 849 850 865 866 0
-828 -892 -805 0
-828 -892 -806 0
-828 -892 -849 0
-828 -892 -850 0
-828 -892 -865 0
-828 -892 -866 0
-829 888 0
-829 892 806 850 866 0
-829 -892 -806 0
-829 -892 -850 0
-829 -892 -866 0
-830 889 0
-830 892 0
-831 893 784 785 786 788 789 790 808 809 810 812 813 814 852 853 854 856 857 858 0
-831 -893 -784 0
-831 -893 -785 0
-831 -893 -786 0
-831 -893 -788 0
-831 -893 -789 0
-831 -893 -790 0
-831 -893 -808 0
-831 -893 -809 0
-831 -893 -810 0
-831 -893 -812 0
-831 -893 -813 0
-831 -893 -814 0
-831 -893 -852 0
-831 -893 -853 0
-831 -893 -854 0
-831 -893 -856 0
-831 -893 -857 0
-831 -893 -858 0
-832 867 871 0
-832 893 785 786 789 790 809 810 813 814 853 854 857 858 0
-832 -893 -785 0
-832 -893 -786 0
-832 -893 -789 0
-832 -893 -790 0
-832 -893 -809 0
-832 -893 -810 0
-832 -893 -813 0
-832 -893 -814 0
-832 -893 -853 0
-832 -893 -854 0
-832 -893 -857 0
-832 -893 -858 0
-833 868 872 0
-833 893 786 790 810 814 854 858 0
-833 -893 -786 0
-833 -893 -790 0
-833 -893 -810 0
-833 -893 -814 0
-833 -893 -854 0
-833 -893 -858 0
-834 869 873 0
-834 893 0
-835 893 788 789 790 792 793 794 812 813 814 816 817 818 852 853 854 856 857 858 860 861 862 0
-835 -893 -788 0
-835 -893 -789 0
-835 -893 -790 0
-835 -893 -792 0
-835 -893 -793 0
-835 -893 -794 0
-835 -893 -812 0
-835 -893 -813 0
-835 -893 -814 0
-835 -893 -816 0
-835 -893 -817 0
-835 -893 -818 0
-835 -893 -852 0
-835 -893 -853 0
-835 -893 -854 0
-835 -893 -856 0
-835 -893 -857 0
-835 -893 -858 0
-835 -893 -860 0
-835 -893 -861 0
-835 -893 -862 0
-836 871 875 0
-836 893 789 790 793 794 813 814 817 818 853 854 857 858 861 862 0
-836 -893 -789 0
-836 -893 -790 0
-836 -893 -793 0
-836 -893 -794 0
-836 -893 -813 0
-836 -893 -814 0
-836 -893 -817 0
-836 -893 -818 0
-836 -893 -853 0
-836 -893 -854 0
-836 -893 -857 0
-836 -893 -858 0
-836 -893 -861 0
-836 -893 -862 0
-837 872 876 0
-837 893 790 794 814 818 854 858 862 0
-837 -893 -790 0
-837 -893 -794 0
-837 -893 -814 0
-837 -893 -818 0
-837 -893 -854 0
-837 -893 -858 0
-837 -893 -862 0
-838 873 877 0
-838 893 0
-839 893 792 793 794 796 797 798 816 817 818 820 821 822 852 853 854 856 857 858 860 861 862 864 865 866 0
-839 -893 -792 0
-839 -893 -793 0
-839 -893 -794 0
-839 -893 -796 0
-839 -893 -797 0
-839 -893 -798 0
-839 -893 -816 0
-839 -893 -817 0
-839 -893 -818 0
-839 -893 -820 0
-839 -893 -821 0
-839 -893 -822 0
-839 -893 -852 0
-839 -893 -853 0
-839 -893 -854 0
-839 -893 -856 0
-839 -893 -857 0
-839 -893 -858 0
-839 -893 -860 0
-839 -893 -861 0
-839 -893 -862 0
-839 -893 -864 0
-839 -893 -865 0
-839 -893 -866 0
-840 875 879 0
-840 893 793 794 797 798 817 818 821 822 853 854 857 858 861 862 865 866 0
-840 -893 -793 0
-840 -893 -794 0
-840 -893 -797 0
-840 -893 -798 0
-840 -893 -817 0
-840 -893 -818 0
-840 -893 -821 0
-840 -893 -822 0
-840 -893 -853 0
-840 -893 -854 0
-840 -893 -857 0
-840 -893 -858 0
-840 -893 -861 0
-840 -893 -862 0
-840 -893 -865 0
-840 -893 -866 0
-841 876 880 0
-841 893 794 798 818 822 854 858 862 866 0
-841 -893 -794 0
-841 -893 -798 0
-841 -893 -818 0
-841 -893 -822 0
-841 -893 -854 0
-841 -893 -858 0
-841 -893 -862 0
-841 -893 -866 0
-842 877 881 0
-842 893 0
-843 893 796 797 798 800 801 802 820 821 822 824 825 826 856 857 858 860 861 862 864 865 866 0
-843 -893 -796 0
-843 -893 -797 0
-843 -893 -798 0
-843 -893 -800 0
-843 -893 -801 0
-843 -893 -802 0
-843 -893 -820 0
-843 -893 -821 0
-843 -893 -822 0
-843 -893 -824 0
-843 -893 -825 0
-843 -893 -826 0
-843 -893 -856 0
-843 -893 -857 0
-843 -893 -858 0
-843 -893 -860 0
-843 -893 -861 0
-843 -893 -862 0
-843 -893 -864 0
-843 -893 -865 0
-843 -893 -866 0
-844 879 883 0
-844 893 797 798 801 802 821 822 825 826 857 858 861 862 865 866 0
-844 -893 -797 0
-844 -893 -798 0
-844 -893 -801 0
-844 -893 -802 0
-844 -893 -821 0
-844 -893 -822 0
-844 -893 -825 0
-844 -893 -826 0
-844 -893 -857 0
-844 -893 -858 0
-844 -893 -861 0
-844 -893 -862 0
-844 -893 -865 0
-844 -893 -866 0
-845 880 884 0
-845 893 798 802 822 826 858 862 866 0
-845 -893 -798 0
-845 -893 -802 0
-845 -893 -822 0
-845 -893 -826 0
-845 -893 -858 0
-845 -893 -862 0
-845 -893 -866 0
-846 881 885 0
-846 893 0
-847 893 800 801 802 804 805 806 824 825 826 828 829 830 860 861 862 864 865 866 0
-847 -893 -800 0
-847 -893 -801 0
-847 -893 -802 0
-847 -893 -804 0
-847 -893 -805 0
-847 -893 -806 0
-847 -893 -824 0
-847 -893 -825 0
-847 -893 -826 0
-847 -893 -828 0
-847 -893 -829 0
-847 -893 -830 0
-847 -893 -860 0
-847 -893 -861 0
-847 -893 -862 0
-847 -893 -864 0
-847 -893 -865 0
-847 -893 -866 0
-848 883 887 0
-848 893 801 802 805 806 825 826 829 830 861 862 865 866 0
-848 -893 -801 0
-848 -893 -802 0
-848 -893 -805 0
-848 -893 -806 0
-848 -893 -825 0
-848 -893 -826 0
-848 -893 -829 0
-848 -893 -830 0
-848 -893 -861 0
-848 -893 -862 0
-848 -893 -865 0
-848 -893 -866 0
-849 884 888 0
-849 893 802 806 826 830 862 866 0
-849 -893 -802 0
-849 -893 -806 0
-849 -893 -826 0
-849 -893 -830 0
-849 -893 -862 0
-849 -893 -866 0
-850 885 889 0
-850 893 0
-851 894 784 785 786 788 789 790 792 793 794 808 809 810 812 813 814 816 817 818 832 833 834 836 837 838 840 841 842 0
-851 -894 -784 0
-851 -894 -785 0
-851 -894 -786 0
-851 -894 -788 0
-851 -894 -789 0
-851 -894 -790 0
-851 -894 -792 0
-851 -894 -793 0
-851 -894 -794 0
-851 -894 -808 0
-851 -894 -809 0
-851 -894 -810 0
-851 -894 -812 0
-851 -894 -813 0
-851 -894 -814 0
-851 -894 -816 0
-851 -894 -817 0
-851 -894 -818 0
-851 -894 -832 0
-851 -894 -833 0
-851 -894 -834 0
-851 -894 -836 0
-851 -894 -837 0
-851 -894 -838 0
-851 -894 -840 0
-851 -894 -841 0
-851 -894 -842 0
-852 867 871 0
-852 867 875 0
-852 871 875 0
-852 894 785 786 789 790 793 794 809 810 813 814 817 818 833 834 837 838 841 842 0
-852 -894 -785 0
-852 -894 -786 0
-852 -894 -789 0
-852 -894 -790 0
-852 -894 -793 0
-852 -894 -794 0
-852 -894 -809 0
-852 -894 -810 0
-852 -894 -813 0
-852 -894 -814 0
-852 -894 -817 0
-852 -894 -818 0
-852 -894 -833 0
-852 -894 -834 0
-852 -894 -837 0
-852 -894 -838 0
-852 -894 -841 0
-852 -894 -842 0
-853 868 872 0
-853 868 876 0
-853 872 876 0
-853 894 786 790 794 810 814 818 834 838 842 0
-853 -894 -786 0
-853 -894 -790 0
-853 -894 -794 0
-853 -894 -810 0
-853 -894 -814 0
-853 -894 -818 0
-853 -894 -834 0
-853 -894 -838 0
-853 -894 -842 0
-854 869 873 0
-854 869 877 0
-854 873 877 0
-854 894 0
-855 894 788 789 790 792 793 794 796 797 798 812 813 814 816 817 818 820 821 822 832 833 834 836 837 838 840 841 842 844 845 846 0
-855 -894 -788 0
-855 -894 -789 0
-855 -894 -790 0
-855 -894 -792 0
-855 -894 -793 0
-855 -894 -794 0
-855 -894 -796 0
-855 -894 -797 0
-855 -894 -798 0
-855 -894 -812 0
-855 -894 -813 0
-855 -894 -814 0
-855 -894 -816 0
-855 -894 -817 0
-855 -894 -818 0
-855 -894 -820 0
-855 -894 -821 0
-855 -894 -822 0
-855 -894 -832 0
-855 -894 -833 0
-855 -894 -834 0
-855 -894 -836 0
-855 -894 -837 0
-855 -894 -838 0
-855 -894 -840 0
-855 -894 -841 0
-855 -894 -842 0
-855 -894 -844 0
-855 -894 -845 0
-855 -894 -846 0
-856 871 875 0
-856 871 879 0
-856 875 879 0
-856 894 789 790 793 794 797 798 813 814 817 818 821 822 833 834 837 838 841 842 845 846 0
-856 -894 -789 0
-856 -894 -790 0
-856 -894 -793 0
-856 -894 -794 0
-856 -894 -797 0
-856 -894 -798 0
-856 -894 -813 0
-856 -894 -814 0
-856 -894 -817 0
-856 -894 -818 0
-856 -894 -821 0
-856 -894 -822 0
-856 -894 -833 0
-856 -894 -834 0
-856 -894 -837 0
-856 -894 -838 0
-856 -894 -841 0
-856 -894 -842 0
-856 -894 -845 0
-856 -894 -846 0
-857 872 876 0
-857 872 880 0
-857 876 880 0
-857 894 790 794 798 814 818 822 834 838 842 846 0
-857 -894 -790 0
-857 -894 -794 0
-857 -894 -798 0
-857 -894 -814 0
-857 -894 -818 0
-857 -894 -822 0
-857 -894 -834 0
-857 -894 -838 0
-857 -894 -842 0
-857 -894 -846 0
-858 873 877 0
-858 873 881 0
-858 877 881 0
-858 894 0
-859 894 792 793 794 796 797 798 800 801 802 816 817 818 820 821 822 824 825 826 836 837 838 840 841 842 844 845 846 848 849 850 0
-859 -894 -792 0
-859 -894 -793 0
-859 -894 -794 0
-859 -894 -796 0
-859 -894 -797 0
-859 -894 -798 0
-859 -894 -800 0
-859 -894 -801 0
-859 -894 -802 0
-859 -894 -816 0
-859 -894 -817 0
-859 -894 -818 0
-859 -894 -820 0
-859 -894 -821 0
-859 -894 -822 0
-859 -894 -824 0
-859 -894 -825 0
-859 -894 -826 0
-859 -894 -836 0
-859 -894 -837 0
-859 -894 -838 0
-859 -894 -840 0
-859 -894 -841 0
-859 -894 -842 0
-859 -894 -844 0
-859 -894 -845 0
-859 -894 -846 0
-859 -894 -848 0
-859 -894 -849 0
-859 -894 -850 0
-860 875 879 0
-860 875 883 0
-860 879 883 0
-860 894 793 794 797 798 801 802 817 818 821 822 825 826 837 838 841 842 845 846 849 850 0
-860 -894 -793 0
-860 -894 -794 0
-860 -894 -797 0
-860 -894 -798 0
-860 -894 -801 0
-860 -894 -802 0
-860 -894 -817 0
-860 -894 -818 0
-860 -894 -821 0
-860 -894 -822 0
-860 -894 -825 0
-860 -894 -826 0
-860 -894 -837 0
-860 -894 -838 0
-860 -894 -841 0
-860 -894 -842 0
-860 -894 -845 0
-860 -894 -846 0
-860 -894 -849 0
-860 -894 -850 0
-861 876 880 0
-861 876 884 0
-861 880 884 0
-861 894 794 798 802 818 822 826 838 842 846 850 0
-861 -894 -794 0
-861 -894 -798 0
-861 -894 -802 0
-861 -894 -818 0
-861 -894 -822 0
-861 -894 -826 0
-861 -894 -838 0
-861 -894 -842 0
-861 -894 -846 0
-861 -894 -850 0
-862 877 881 0
-862 877 885 0
-862 881 885 0
-862 894 0
-863 894 796 797 798 800 801 802 804 805 806 820 821 822 824 825 826 828 829 830 840 841 842 844 845 846 848 849 850 0
-863 -894 -796 0
-863 -894 -797 0
-863 -894 -798 0
-863 -894 -800 0
-863 -894 -801 0
-863 -894 -802 0
-863 -894 -804 0
-863 -894 -805 0
-863 -894 -806 0
-863 -894 -820 0
-863 -894 -821 0
-863 -894 -822 0
-863 -894 -824 0
-863 -894 -825 0
-863 -894 -826 0
-863 -894 -828 0
-863 -894 -829 0
-863 -894 -830 0
-863 -894 -840 0
-863 -894 -841 0
-863 -894 -842 0
-863 -894 -844 0
-863 -894 -845 0
-863 -894 -846 0
-863 -894 -848 0
-863 -894 -849 0
-863 -894 -850 0
-864 879 883 0
-864 879 887 0
-864 883 887 0
-864 894 797 798 801 802 805 806 821 822 825 826 829 830 841 842 845 846 849 850 0
-864 -894 -797 0
-864 -894 -798 0
-864 -894 -801 0
-864 -894 -802 0
-864 -894 -805 0
-864 -894 -806 0
-864 -894 -821 0
-864 -894 -822 0
-864 -894 -825 0
-864 -894 -826 0
-864 -894 -829 0
-864 -894 -830 0
-864 -894 -841 0
-864 -894 -842 0
-864 -894 -845 0
-864 -894 -846 0
-864 -894 -849 0
-864 -894 -850 0
-865 880 884 0
-865 880 888 0
-865 884 888 0
-865 894 798 802 806 822 826 830 842 846 850 0
-865 -894 -798 0
-865 -894 -802 0
-865 -894 -806 0
-865 -894 -822 0
-865 -894 -826 0
-865 -894 -830 0
-865 -894 -842 0
-865 -894 -846 0
-865 -894 -850 0
-866 881 885 0
-866 881 889 0
-866 885 889 0
-866 894 0
895 896 897 898 899 900 0
-895 -896 0
-895 -897 0
-895 -898 0
-895 -899 0
-895 -900 0
-896 -897 0
-896 -898 0
-896 -899 0
-896 -900 0
-897 -898 0
-897 -899 0
-897 -900 0
-898 -899 0
-898 -900 0
-899 -900 0
901 902 903 904 0
-901 -902 0
-901 -903 0
-901 -904 0
-902 -903 0
-902 -904 0
-903 -904 0
905 906 907 908 909 910 0
-905 -906 0
-905 -907 0
-905 -908 0
-905 -909 0
-905 -910 0
-906 -907 0
-906 -908 0
-906 -909 0
-906 -910 0
-907 -908 0
-907 -909 0
-907 -910 0
-908 -909 0
-908 -910 0
-909 -910 0
911 912 913 914 0
-911 -912 0
-911 -913 0
-911 -914 0
-912 -913 0
-912 -914 0
-913 -914 0
915 916 917 918 919 0
-915 -916 0
-915 -917 0
-915 -918 0
-915 -919 0
-916 -917 0
-916 -918 0
-916 -919 0
-917 -918 0
-917 -919 0
-918 -919 0
920 921 922 923 0
-920 -921 0
-920 -922 0
-920 -923 0
-921 -922 0
-921 -923 0
-922 -923 0
924 925 926 927 0
-924 -925 0
-924 -926 0
-924 -927 0
-925 -926 0
-925 -927 0
-926 -927 0
928 929 930 931 0
-928 -929 0
-928 -930 0
-928 -931 0
-929 -930 0
-929 -931 0
-930 -931 0
-932 895 0
-932 901 0
-895 -901 932 0
-933 895 0
-933 902 0
-895 -902 933 0
-934 895 0
-934 903 0
-895 -903 934 0
-935 895 0
-935 904 0
-895 -904 935 0
-936 896 0
-936 901 0
-896 -901 936 0
-937 896 0
-937 902 0
-896 -902 937 0
-938 896 0
-938 903 0
-896 -903 938 0
-939 896 0
-939 904 0
-896 -904 939 0
-940 897 0
-940 901 0
-897 -901 940 0
-941 897 0
-941 902 0
-897 -902 941 0
-942 897 0
-942 903 0
-897 -903 942 0
-943 897 0
-943 904 0
-897 -904 943 0
-944 898 0
-944 901 0
-898 -901 944 0
-945 898 0
-945 902 0
-898 -902 945 0
-946 898 0
-946 903 0
-898 -903 946 0
-947 898 0
-947 904 0
-898 -904 947 0
-948 899 0
-948 901 0
-899 -901 948 0
-949 899 0
-949 902 0
-899 -902 949 0
-950 899 0
-950 903 0
-899 -903 950 0
-951 899 0
-951 904 0
-899 -904 951 0
-952 900 0
-952 901 0
-900 -901 952 0
-953 900 0
-953 902 0
-900 -902 953 0
-954 900 0
-954 903 0
-900 -903 954 0
-955 900 0
-955 904 0
-900 -904 955 0
-956 905 0
-956 911 0
-905 -911 956 0
-957 905 0
-957 912 0
-905 -912 957 0
-958 905 0
-958 913 0
-905 -913 958 0
-959 905 0
-959 914 0
-905 -914 959 0
-960 906 0
-960 911 0
-906 -911 960 0
-961 906 0
-961 912 0
-906 -912 961 0
-962 906 0
-962 913 0
-906 -913 962 0
-963 906 0
-963 914 0
-906 -914 963 0
-964 907 0
-964 911 0
-907 -911 964 0
-965 907 0
-965 912 0
-907 -912 965 0
-966 907 0
-966 913 0
-907 -913 966 0
-967 907 0
-967 914 0
-907 -914 967 0
-968 908 0
-968 911 0
-908 -911 968 0
-969 908 0
-969 912 0
-908 -912 969 0
-970 908 0
-970 913 0
-908 -913 970 0
-971 908 0
-971 914 0
-908 -914 971 0
-972 909 0
-972 911 0
-909 -911 972 0
-973 909 0
-973 912 0
-909 -912 973 0
-974 909 0
-974 913 0
-909 -913 974 0
-975 909 0
-975 914 0
-909 -914 975 0
-976 910 0
-976 911 0
-910 -911 976 0
-977 910 0
-977 912 0
-910 -912 977 0
-978 910 0
-978 913 0
-910 -913 978 0
-979 910 0
-979 914 0
-910 -914 979 0
-980 915 0
-980 920 0
-915 -920 980 0
-981 915 0
-981 921 0
-915 -921 981 0
-982 915 0
-982 922 0
-915 -922 982 0
-983 915 0
-983 923 0
-915 -923 983 0
-984 916 0
-984 920 0
-916 -920 984 0
-985 916 0
-985 921 0
-916 -921 985 0
-986 916 0
-986 922 0
-916 -922 986 0
-987 916 0
-987 923 0
-916 -923 987 0
-988 917 0
-988 920 0
-917 -920 988 0
-989 917 0
-989 921 0
-917 -921 989 0
-990 917 0
-990 922 0
-917 -922 990 0
-991 917 0
-991 923 0
-917 -923 991 0
-992 918 0
-992 920 0
-918 -920 992 0
-993 918 0
-993 921 0
-918 -921 993 0
-994 918 0
-994 922 0
-918 -922 994 0
-995 918 0
-995 923 0
-918 -923 995 0
-996 919 0
-996 920 0
-919 -920 996 0
-997 919 0
-997 921 0
-919 -921 997 0
-998 919 0
-998 922 0
-919 -922 998 0
-999 919 0
-999 923 0
-919 -923 999 0
-1000 924 0
-1000 928 0
-924 -928 1000 0
-1001 924 0
-1001 929 0
-924 -929 1001 0
-1002 924 0
-1002 930 0
-924 -930 1002 0
-1003 924 0
-1003 931 0
-924 -931 1003 0
-1004 925 0
-1004 928 0
-925 -928 1004 0
-1005 925 0
-1005 929 0
-925 -929 1005 0
-1006 925 0
-1006 930 0
-925 -930 1006 0
-1007 925 0
-1007 931 0
-925 -931 1007 0
-1008 926 0
-1008 928 0
-926 -928 1008 0
-1009 926 0
-1009 929 0
-926 -929 1009 0
-1010 926 0
-1010 930 0
-926 -930 1010 0
-1011 926 0
-1011 931 0
-926 -931 1011 0
-1012 927 0
-1012 928 0
-927 -928 1012 0
-1013 927 0
-1013 929 0
-927 -929 1013 0
-1014 927 0
-1014 930 0
-927 -930 1014 0
-1015 927 0
-1015 931 0
-927 -931 1015 0
-1016 932 956 980 1000 0
-932 1016 0
-956 1016 0
-980 1016 0
-1000 1016 0
-1017 933 957 981 1001 0
-933 1017 0
-957 1017 0
-981 1017 0
-1001 1017 0
-1018 934 958 982 1002 0
-934 1018 0
-958 1018 0
-982 1018 0
-1002 1018 0
-1019 935 959 983 1003 0
-935 1019 0
-959 1019 0
-983 1019 0
-1003 1019 0
-1020 936 960 980 984 1000 1004 0
-936 1020 0
-960 1020 0
-980 1020 0
-984 1020 0
-1000 1020 0
-1004 1020 0
-1021 937 961 981 985 1001 1005 0
-937 1021 0
-961 1021 0
-981 1021 0
-985 1021 0
-1001 1021 0
-1005 1021 0
-1022 938 962 982 986 1002 1006 0
-938 1022 0
-962 1022 0
-982 1022 0
-986 1022 0
-1002 1022 0
-1006 1022 0
-1023 939 963 983 987 1003 1007 0
-939 1023 0
-963 1023 0
-983 1023 0
-987 1023 0
-1003 1023 0
-1007 1023 0
-1024 940 964 984 988 1000 1004 1008 0
-940 1024 0
-964 1024 0
-984 1024 0
-988 1024 0
-1000 1024 0
-1004 1024 0
-1008 1024 0
-1025 941 965 985 989 1001 1005 1009 0
-941 1025 0
-965 1025 0
-985 1025 0
-989 1025 0
-1001 1025 0
-1005 1025 0
-1009 1025 0
-1026 942 966 986 990 1002 1006 1010 0
-942 1026 0
-966 1026 0
-986 1026 0
-990 1026 0
-1002 1026 0
-1006 1026 0
-1010 1026 0
-1027 943 967 987 991 1003 1007 1011 0
-943 1027 0
-967 1027 0
-987 1027 0
-991 1027 0
-1003 1027 0
-1007 1027 0
-1011 1027 0
-1028 944 968 988 992 1004 1008 1012 0
-944 1028 0
-968 1028 0
-988 1028 0
-992 1028 0
-1004 1028 0
-1008 1028 0
-1012 1028 0
-1029 945 969 989 993 1005 1009 1013 0
-945 1029 0
-969 1029 0
-989 1029 0
-993 1029 0
-1005 1029 0
-1009 1029 0
-1013 1029 0
-1030 946 970 990 994 1006 1010 1014 0
-946 1030 0
-970 1030 0
-990 1030 0
-994 1030 0
-1006 1030 0
-1010 1030 0
-1014 1030 0
-1031 947 971 991 995 1007 1011 1015 0
-947 1031 0
-971 1031 0
-991 1031 0
-995 1031 0
-1007 1031 0
-1011 1031 0
-1015 1031 0
-1032 948 972 992 996 1008 1012 0
-948 1032 0
-972 1032 0
-992 1032 0
-996 1032 0
-1008 1032 0
-1012 1032 0
-1033 949 973 993 997 1009 1013 0
-949 1033 0
-973 1033 0
-993 1033 0
-997 1033 0
-1009 1033 0
-1013 1033 0
-1034 950 974 994 998 1010 1014 0
-950 1034 0
-974 1034 0
-994 1034 0
-998 1034 0
-1010 1034 0
-1014 1034 0
-1035 951 975 995 999 1011 1015 0
-951 1035 0
-975 1035 0
-995 1035 0
-999 1035 0
-1011 1035 0
-1015 1035 0
-1036 952 976 996 1012 0
-952 1036 0
-976 1036 0
-996 1036 0
-1012 1036 0
-1037 953 977 997 1013 0
-953 1037 0
-977 1037 0
-997 1037 0
-1013 1037 0
-1038 954 978 998 1014 0
-954 1038 0
-978 1038 0
-998 1038 0
-1014 1038 0
-1039 955 979 999 1015 0
-955 1039 0
-979 1039 0
-999 1039 0
-1015 1039 0
-932 -956 0
-932 -980 0
-932 -1000 0
-933 -957 0
-933 -981 0
-933 -1001 0
-934 -958 0
-934 -982 0
-934 -1002 0
-935 -959 0
-935 -983 0
-935 -1003 0
-936 -960 0
-936 -980 0
-936 -984 0
-936 -1000 0
-936 -1004 0
-937 -961 0
-937 -981 0
-937 -985 0
-937 -1001 0
-937 -1005 0
-938 -962 0
-938 -982 0
-938 -986 0
-938 -1002 0
-938 -1006 0
-939 -963 0
-939 -983 0
-939 -987 0
-939 -1003 0
-939 -1007 0
-940 -964 0
-940 -984 0
-940 -988 0
-940 -1000 0
-940 -1004 0
-940 -1008 0
-941 -965 0
-941 -985 0
-941 -989 0
-941 -1001 0
-941 -1005 0
-941 -1009 0
-942 -966 0
-942 -986 0
-942 -990 0
-942 -1002 0
-942 -1006 0
-942 -1010 0
-943 -967 0
-943 -987 0
-943 -991 0
-943 -1003 0
-943 -1007 0
-943 -1011 0
-944 -968 0
-944 -988 0
-944 -992 0
-944 -1004 0
-944 -1008 0
-944 -1012 0
-945 -969 0
-945 -989 0
-945 -993 0
-945 -1005 0
-945 -1009 0
-945 -1013 0
-946 -970 0
-946 -990 0
-946 -994 0
-946 -1006 0
-946 -1010 0
-946 -1014 0
-947 -971 0
-947 -991 0
-947 -995 0
-947 -1007 0
-947 -1011 0
-947 -1015 0
-948 -972 0
-948 -992 0
-948 -996 0
-948 -1008 0
-948 -1012 0
-949 -973 0
-949 -993 0
-949 -997 0
-949 -1009 0
-949 -1013 0
-950 -974 0
-950 -994 0
-950 -998 0
-950 -1010 0
-950 -1014 0
-951 -975 0
-951 -995 0
-951 -999 0
-951 -1011 0
-951 -1015 0
-952 -976 0
-952 -996 0
-952 -1012 0
-953 -977 0
-953 -997 0
-953 -1013 0
-954 -978 0
-954 -998 0
-954 -1014 0
-955 -979 0
-955 -999 0
-955 -1015 0
-956 -980 0
-956 -1000 0
-957 -981 0
-957 -1001 0
-958 -982 0
-958 -1002 0
-959 -983 0
-959 -1003 0
-960 -980 0
-960 -984 0
-960 -1000 0
-960 -1004 0
-961 -981 0
-961 -985 0
-961 -1001 0
-961 -1005 0
-962 -982 0
-962 -986 0
-962 -1002 0
-962 -1006 0
-963 -983 0
-963 -987 0
-963 -1003 0
-963 -1007 0
-964 -984 0
-964 -988 0
-964 -1000 0
-964 -1004 0
-964 -1008 0
-965 -985 0
-965 -989 0
-965 -1001 0
-965 -1005 0
-965 -1009 0
-966 -986 0
-966 -990 0
-966 -1002 0
-966 -1006 0
-966 -1010 0
-967 -987 0
-967 -991 0
-967 -1003 0
-967 -1007 0
-967 -1011 0
-968 -988 0
-968 -992 0
-968 -1004 0
-968 -1008 0
-968 -1012 0
-969 -989 0
-969 -993 0
-969 -1005 0
-969 -1009 0
-969 -1013 0
-970 -990 0
-970 -994 0
-970 -1006 0
-970 -1010 0
-970 -1014 0
-971 -991 0
-971 -995 0
-971 -1007 0
-971 -1011 0
-971 -1015 0
-972 -992 0
-972 -996 0
-972 -1008 0
-972 -1012 0
-973 -993 0
-973 -997 0
-973 -1009 0
-973 -1013 0
-974 -994 0
-974 -998 0
-974 -1010 0
-974 -1014 0
-975 -995 0
-975 -999 0
-975 -1011 0
-975 -1015 0
-976 -996 0
-976 -1012 0
-977 -997 0
-977 -1013 0
-978 -998 0
-978 -1014 0
-979 -999 0
-979 -1015 0
-980 -1000 0
-980 -1004 0
-981 -1001 0
-981 -1005 0
-982 -1002 0
-982 -1006 0
-983 -1003 0
-983 -1007 0
-984 -1000 0
-984 -1004 0
-984 -1008 0
-985 -1001 0
-985 -1005 0
-985 -1009 0
-986 -1002 0
-986 -1006 0
-986 -1010 0
-987 -1003 0
-987 -1007 0
-987 -1011 0
-988 -1000 0
-988 -1004 0
-988 -1008 0
-988 -1012 0
-989 -1001 0
-989 -1005 0
-989 -1009 0
-989 -1013 0
-990 -1002 0
-990 -1006 0
-990 -1010 0
-990 -1014 0
-991 -1003 0
-991 -1007 0
-991 -1011 0
-991 -1015 0
-992 -1004 0
-992 -1008 0
-992 -1012 0
-993 -1005 0
-993 -1009 0
-993 -1013 0
-994 -1006 0
-994 -1010 0
-994 -1014 0
-995 -1007 0
-995 -1011 0
-995 -1015 0
-996 -1008 0
-996 -1012 0
-997 -1009 0
-997 -1013 0
-998 -1010 0
-998 -1014 0
-999 -1011 0
-999 -1015 0
-932 1040 957 958 959 981 982 983 1001 1002 1003 0
-932 -1040 -957 0
-932 -1040 -958 0
-932 -1040 -959 0
-932 -1040 -981 0
-932 -1040 -982 0
-932 -1040 -983 0
-932 -1040 -1001 0
-932 -1040 -1002 0
-932 -1040 -1003 0
-933 1016 0
-933 1040 958 959 982 983 1002 1003 0
-933 -1040 -958 0
-933 -1040 -959 0
-933 -1040 -982 0
-933 -1040 -983 0
-933 -1040 -1002 0
-933 -1040 -1003 0
-934 1017 0
-934 1040 959 983 1003 0
-934 -1040 -959 0
-934 -1040 -983 0
-934 -1040 -1003 0
-935 1018 0
-935 1040 0
-936 1040 961 962 963 981 982 983 985 986 987 1001 1002 1003 1005 1006 1007 0
-936 -1040 -961 0
-936 -1040 -962 0
-936 -1040 -963 0
-936 -1040 -981 0
-936 -1040 -982 0
-936 -1040 -983 0
-936 -1040 -985 0
-936 -1040 -986 0
-936 -1040 -987 0
-936 -1040 -1001 0
-936 -1040 -1002 0
-936 -1040 -1003 0
-936 -1040 -1005 0
-936 -1040 -1006 0
-936 -1040 -1007 0
-937 1020 0
-937 1040 962 963 982 983 986 987 1002 1003 1006 1007 0
-937 -1040 -962 0
-937 -1040 -963 0
-937 -1040 -982 0
-937 -1040 -983 0
-937 -1040 -986 0
-937 -1040 -987 0
-937 -1040 -1002 0
-937 -1040 -1003 0
-937 -1040 -1006 0
-937 -1040 -1007 0
-938 1021 0
-938 1040 963 983 987 1003 1007 0
-938 -1040 -963 0
-938 -1040 -983 0
-938 -1040 -987 0
-938 -1040 -1003 0
-938 -1040 -1007 0
-939 1022 0
-939 1040 0
-940 1040 965 966 967 985 986 987 989 990 991 1001 1002 1003 1005 1006 1007 1009 1010 1011 0
-940 -1040 -965 0
-940 -1040 -966 0
-940 -1040 -967 0
-940 -1040 -985 0
-940 -1040 -986 0
-940 -1040 -987 0
-940 -1040 -989 0
-940 -1040 -990 0
-940 -1040 -991 0
-940 -1040 -1001 0
-940 -1040 -1002 0
-940 -1040 -1003 0
-940 -1040 -1005 0
-940 -1040 -1006 0
-940 -1040 -1007 0
-940 -1040 -1009 0
-940 -1040 -1010 0
-940 -1040 -1011 0
-941 1024 0
-941 1040 966 967 986 987 990 991 1002 1003 1006 1007 1010 1011 0
-941 -1040 -966 0
-941 -1040 -967 0
-941 -1040 -986 0
-941 -1040 -987 0
-941 -1040 -990 0
-941 -1040 -991 0
-941 -1040 -1002 0
-941 -1040 -1003 0
-941 -1040 -1006 0
-941 -1040 -1007 0
-941 -1040 -1010 0
-941 -1040 -1011 0
-942 1025 0
-942 1040 967 987 991 1003 1007 1011 0
-942 -1040 -967 0
-942 -1040 -987 0
-942 -1040 -991 0
-942 -1040 -1003 0
-942 -1040 -1007 0
-942 -1040 -1011 0
-943 1026 0
-943 1040 0
-944 1040 969 970 971 989 990 991 993 994 995 1005 1006 1007 1009 1010 1011 1013 1014 1015 0
-944 -1040 -969 0
-944 -1040 -970 0
-944 -1040 -971 0
-944 -1040 -989 0
-944 -1040 -990 0
-944 -1040 -991 0
-944 -1040 -993 0
-944 -1040 -994 0
-944 -1040 -995 0
-944 -1040 -1005 0
-944 -1040 -1006 0
-944 -1040 -1007 0
-944 -1040 -1009 0
-944 -1040 -1010 0
-944 -1040 -1011 0
-944 -1040 -1013 0
-944 -1040 -1014 0
-944 -1040 -1015 0
-945 1028 0
-945 1040 970 971 990 991 994 995 1006 1007 1010 1011 1014 1015 0
-945 -1040 -970 0
-945 -1040 -971 0
-945 -1040 -990 0
-945 -1040 -991 0
-945 -1040 -994 0
-945 -1040 -995 0
-945 -1040 -1006 0
-945 -1040 -1007 0
-945 -1040 -1010 0
-945 -1040 -1011 0
-945 -1040 -1014 0
-945 -1040 -1015 0
-946 1029 0
-946 1040 971 991 995 1007 1011 1015 0
-946 -1040 -971 0
-946 -1040 -991 0
-946 -1040 -995 0
-946 -1040 -1007 0
-946 -1040 -1011 0
-946 -1040 -1015 0
-947 1030 0
-947 1040 0
-948 1040 973 974 975 993 994 995 997 998 999 1009 1010 1011 1013 1014 1015 0
-948 -1040 -973 0
-948 -1040 -974 0
-948 -1040 -975 0
-948 -1040 -993 0
-948 -1040 -994 0
-948 -1040 -995 0
-948 -1040 -997 0
-948 -1040 -998 0
-948 -1040 -999 0
-948 -1040 -1009 0
-948 -1040 -1010 0
-948 -1040 -1011 0
-948 -1040 -1013 0
-948 -1040 -1014 0
-948 -1040 -1015 0
-949 1032 0
-949 1040 974 975 994 995 998 999 1010 1011 1014 1015 0
-949 -1040 -974 0
-949 -1040 -975 0
-949 -1040 -994 0
-949 -1040 -995 0
-949 -1040 -998 0
-949 -1040 -999 0
-949 -1040 -1010 0
-949 -1040 -1011 0
-949 -1040 -1014 0
-949 -1040 -1015 0
-950 1033 0
-950 1040 975 995 999 1011 1015 0
-950 -1040 -975 0
-950 -1040 -995 0
-950 -1040 -999 0
-950 -1040 -1011 0
-950 -1040 -1015 0
-951 1034 0
-951 1040 0
-952 1040 977 978 979 997 998 999 1013 1014 1015 0
-952 -1040 -977 0
-952 -1040 -978 0
-952 -1040 -979 0
-952 -1040 -997 0
-952 -1040 -998 0
-952 -1040 -999 0
-952 -1040 -1013 0
-952 -1040 -1014 0
-952 -1040 -1015 0
-953 1036 0
-953 1040 978 979 998 999 1014 1015 0
-953 -1040 -978 0
-953 -1040 -979 0
-953 -1040 -998 0
-953 -1040 -999 0
-953 -1040 -1014 0
-953 -1040 -1015 0
-954 1037 0
-954 1040 979 999 1015 0
-954 -1040 -979 0
-954 -1040 -999 0
-954 -1040 -1015 0
-955 1038 0
-955 1040 0
-956 1041 933 934 935 981 982 983 1001 1002 1003 0
-956 -1041 -933 0
-956 -1041 -934 0
-956 -1041 -935 0
-956 -1041 -981 0
-956 -1041 -982 0
-956 -1041 -983 0
-956 -1041 -1001 0
-956 -1041 -1002 0
-956 -1041 -1003 0
-957 1016 0
-957 1041 934 935 982 983 1002 1003 0
-957 -1041 -934 0
-957 -1041 -935 0
-957 -1041 -982 0
-957 -1041 -983 0
-957 -1041 -1002 0
-957 -1041 -1003 0
-958 1017 0
-958 1041 935 983 1003 0
-958 -1041 -935 0
-958 -1041 -983 0
-958 -1041 -1003 0
-959 1018 0
-959 1041 0
-960 1041 937 938 939 981 982 983 985 986 987 1001 1002 1003 1005 1006 1007 0
-960 -1041 -937 0
-960 -1041 -938 0
-960 -1041 -939 0
-960 -1041 -981 0
-960 -1041 -982 0
-960 -1041 -983 0
-960 -1041 -985 0
-960 -1041 -986 0
-960 -1041 -987 0
-960 -1041 -1001 0
-960 -1041 -1002 0
-960 -1041 -1003 0
-960 -1041 -1005 0
-960 -1041 -1006 0
-960 -1041 -1007 0
-961 1020 0
-961 1041 938 939 982 983 986 987 1002 1003 1006 1007 0
-961 -1041 -938 0
-961 -1041 -939 0
-961 -1041 -982 0
-961 -1041 -983 0
-961 -1041 -986 0
-961 -1041 -987 0
-961 -1041 -1002 0
-961 -1041 -1003 0
-961 -1041 -1006 0
-961 -1041 -1007 0
-962 1021 0
-962 1041 939 983 987 1003 1007 0
-962 -1041 -939 0
-962 -1041 -983 0
-962 -1041 -987 0
-962 -1041 -1003 0
-962 -1041 -1007 0
-963 1022 0
-963 1041 0
-964 1041 941 942 943 985 986 987 989 990 991 1001 1002 1003 1005 1006 1007 1009 1010 1011 0
-964 -1041 -941 0
-964 -1041 -942 0
-964 -1041 -943 0
-964 -1041 -985 0
-964 -1041 -986 0
-964 -1041 -987 0
-964 -1041 -989 0
-964 -1041 -990 0
-964 -1041 -991 0
-964 -1041 -1001 0
-964 -1041 -1002 0
-964 -1041 -1003 0
-964 -1041 -1005 0
-964 -1041 -1006 0
-964 -1041 -1007 0
-964 -1041 -1009 0
-964 -1041 -1010 0
-964 -1041 -1011 0
-965 1024 0
-965 1041 942 943 986 987 990 991 1002 1003 1006 1007 1010 1011 0
-965 -1041 -942 0
-965 -1041 -943 0
-965 -1041 -986 0
-965 -1041 -987 0
-965 -1041 -990 0
-965 -1041 -991 0
-965 -1041 -1002 0
-965 -1041 -1003 0
-965 -1041 -1006 0
-965 -1041 -1007 0
-965 -1041 -1010 0
-965 -1041 -1011 0
-966 1025 0
-966 1041 943 987 991 1003 1007 1011 0
-966 -1041 -943 0
-966 -1041 -987 0
-966 -1041 -991 0
-966 -1041 -1003 0
-966 -1041 -1007 0
-966 -1041 -1011 0
-967 1026 0
-967 1041 0
-968 1041 945 946 947 989 990 991 993 994 995 1005 1006 1007 1009 1010 1011 1013 1014 1015 0
-968 -1041 -945 0
-968 -1041 -946 0
-968 -1041 -947 0
-968 -1041 -989 0
-968 -1041 -990 0
-968 -1041 -991 0
-968 -1041 -993 0
-968 -1041 -994 0
-968 -1041 -995 0
-968 -1041 -1005 0
-968 -1041 -1006 0
-968 -1041 -1007 0
-968 -1041 -1009 0
-968 -1041 -1010 0
-968 -1041 -1011 0
-968 -1041 -1013 0
-968 -1041 -1014 0
-968 -1041 -1015 0
-969 1028 0
-969 1041 946 947 990 991 994 995 1006 1007 1010 1011 1014 1015 0
-969 -1041 -946 0
-969 -1041 -947 0
-969 -1041 -990 0
-969 -1041 -991 0
-969 -1041 -994 0
-969 -1041 -995 0
-969 -1041 -1006 0
-969 -1041 -1007 0
-969 -1041 -1010 0
-969 -1041 -1011 0
-969 -1041 -1014 0
-969 -1041 -1015 0
-970 1029 0
-970 1041 947 991 995 1007 1011 1015 0
-970 -1041 -947 0
-970 -1041 -991 0
-970 -1041 -995 0
-970 -1041 -1007 0
-970 -1041 -1011 0
-970 -1041 -1015 0
-971 1030 0
-971 1041 0
-972 1041 949 950 951 993 994 995 997 998 999 1009 1010 1011 1013 1014 1015 0
-972 -1041 -949 0
-972 -1041 -950 0
-972 -1041 -951 0
-972 -1041 -993 0
-972 -1041 -994 0
-972 -1041 -995 0
-972 -1041 -997 0
-972 -1041 -998 0
-972 -1041 -999 0
-972 -1041 -1009 0
-972 -1041 -1010 0
-972 -1041 -1011 0
-972 -1041 -1013 0
-972 -1041 -1014 0
-972 -1041 -1015 0
-973 1032 0
-973 1041 950 951 994 995 998 999 1010 1011 1014 1015 0
-973 -1041 -950 0
-973 -1041 -951 0
-973 -1041 -994 0
-973 -1041 -995 0
-973 -1041 -998 0
-973 -1041 -999 0
-973 -1041 -1010 0
-973 -1041 -1011 0
-973 -1041 -1014 0
-973 -1041 -1015 0
-974 1033 0
-974 1041 951 995 999 1011 1015 0
-974 -1041 -951 0
-974 -1041 -995 0
-974 -1041 -999 0
-974 -1041 -1011 0
-974 -1041 -1015 0
-975 1034 0
-975 1041 0
-976 1041 953 954 955 997 998 999 1013 1014 1015 0
-976 -1041 -953 0
-976 -1041 -954 0
-976 -1041 -955 0
-976 -1041 -997 0
-976 -1041 -998 0
-976 -1041 -999 0
-976 -1041 -1013 0
-976 -1041 -1014 0
-976 -1041 -1015 0
-977 1036 0
-977 1041 954 955 998 999 1014 1015 0
-977 -1041 -954 0
-977 -1041 -955 0
-977 -1041 -998 0
-977 -1041 -999 0
-977 -1041 -1014 0
-977 -1041 -1015 0
-978 1037 0
-978 1041 955 999 1015 0
-978 -1041 -955 0
-978 -1041 -999 0
-978 -1041 -1015 0
-979 1038 0
-979 1041 0
-980 1042 933 934 935 937 938 939 957 958 959 961 962 963 1001 1002 1003 1005 1006 1007 0
-980 -1042 -933 0
-980 -1042 -934 0
-980 -1042 -935 0
-980 -1042 -937 0
-980 -1042 -938 0
-980 -1042 -939 0
-980 -1042 -957 0
-980 -1042 -958 0
-980 -1042 -959 0
-980 -1042 -961 0
-980 -1042 -962 0
-980 -1042 -963 0
-980 -1042 -1001 0
-980 -1042 -1002 0
-980 -1042 -1003 0
-980 -1042 -1005 0
-980 -1042 -1006 0
-980 -1042 -1007 0
-981 1016 1020 0
-981 1042 934 935 938 939 958 959 962 963 1002 1003 1006 1007 0
-981 -1042 -934 0
-981 -1042 -935 0
-981 -1042 -938 0
-981 -1042 -939 0
-981 -1042 -958 0
-981 -1042 -959 0
-981 -1042 -962 0
-981 -1042 -963 0
-981 -1042 -1002 0
-981 -1042 -1003 0
-981 -1042 -1006 0
-981 -1042 -1007 0
-982 1017 1021 0
-982 1042 935 939 959 963 1003 1007 0
-982 -1042 -935 0
-982 -1042 -939 0
-982 -1042 -959 0
-982 -1042 -963 0
-982 -1042 -1003 0
-982 -1042 -1007 0
-983 1018 1022 0
-983 1042 0
-984 1042 937 938 939 941 942 943 961 962 963 965 966 967 1001 1002 1003 1005 1006 1007 1009 1010 1011 0
-984 -1042 -937 0
-984 -1042 -938 0
-984 -1042 -939 0
-984 -1042 -941 0
-984 -1042 -942 0
-984 -1042 -943 0
-984 -1042 -961 0
-984 -1042 -962 0
-984 -1042 -963 0
-984 -1042 -965 0
-984 -1042 -966 0
-984 -1042 -967 0
-984 -1042 -1001 0
-984 -1042 -1002 0
-984 -1042 -1003 0
-984 -1042 -1005 0
-984 -1042 -1006 0
-984 -1042 -1007 0
-984 -1042 -1009 0
-984 -1042 -1010 0
-984 -1042 -1011 0
-985 1020 1024 0
-985 1042 938 939 942 943 962 963 966 967 1002 1003 1006 1007 1010 1011 0
-985 -1042 -938 0
-985 -1042 -939 0
-985 -1042 -942 0
-985 -1042 -943 0
-985 -1042 -962 0
-985 -1042 -963 0
-985 -1042 -966 0
-985 -1042 -967 0
-985 -1042 -1002 0
-985 -1042 -1003 0
-985 -1042 -1006 0
-985 -1042 -1007 0
-985 -1042 -1010 0
-985 -1042 -1011 0
-986 1021 1025 0
-986 1042 939 943 963 967 1003 1007 1011 0
-986 -1042 -939 0
-986 -1042 -943 0
-986 -1042 -963 0
-986 -1042 -967 0
-986 -1042 -1003 0
-986 -1042 -1007 0
-986 -1042 -1011 0
-987 1022 1026 0
-987 1042 0
-988 1042 941 942 943 945 946 947 965 966 967 969 970 971 1001 1002 1003 1005 1006 1007 1009 1010 1011 1013 1014 1015 0
-988 -1042 -941 0
-988 -1042 -942 0
-988 -1042 -943 0
-988 -1042 -945 0
-988 -1042 -946 0
-988 -1042 -947 0
-988 -1042 -965 0
-988 -1042 -966 0
-988 -1042 -967 0
-988 -1042 -969 0
-988 -1042 -970 0
-988 -1042 -971 0
-988 -1042 -1001 0
-988 -1042 -1002 0
-988 -1042 -1003 0
-988 -1042 -1005 0
-988 -1042 -1006 0
-988 -1042 -1007 0
-988 -1042 -1009 0
-988 -1042 -1010 0
-988 -1042 -1011 0
-988 -1042 -1013 0
-988 -1042 -1014 0
-988 -1042 -1015 0
-989 1024 1028 0
-989 1042 942 943 946 947 966 967 970 971 1002 1003 1006 1007 1010 1011 1014 1015 0
-989 -1042 -942 0
-989 -1042 -943 0
-989 -1042 -946 0
-989 -1042 -947 0
-989 -1042 -966 0
-989 -1042 -967 0
-989 -1042 -970 0
-989 -1042 -971 0
-989 -1042 -1002 0
-989 -1042 -1003 0
-989 -1042 -1006 0
-989 -1042 -1007 0
-989 -1042 -1010 0
-989 -1042 -1011 0
-989 -1042 -1014 0
-989 -1042 -1015 0
-990 1025 1029 0
-990 1042 943 947 967 971 1003 1007 1011 1015 0
-990 -1042 -943 0
-990 -1042 -947 0
-990 -1042 -967 0
-990 -1042 -971 0
-990 -1042 -1003 0
-990 -1042 -1007 0
-990 -1042 -1011 0
-990 -1042 -1015 0
-991 1026 1030 0
-991 1042 0
-992 1042 945 946 947 949 950 951 969 970 971 973 974 975 1005 1006 1007 1009 1010 1011 1013 1014 1015 0
-992 -1042 -945 0
-992 -1042 -946 0
-992 -1042 -947 0
-992 -1042 -949 0
-992 -1042 -950 0
-992 -1042 -951 0
-992 -1042 -969 0
-992 -1042 -970 0
-992 -1042 -971 0
-992 -1042 -973 0
-992 -1042 -974 0
-992 -1042 -975 0
-992 -1042 -1005 0
-992 -1042 -1006 0
-992 -1042 -1007 0
-992 -1042 -1009 0
-992 -1042 -1010 0
-992 -1042 -1011 0
-992 -1042 -1013 0
-992 -1042 -1014 0
-992 -1042 -1015 0
-993 1028 1032 0
-993 1042 946 947 950 951 970 971 974 975 1006 1007 1010 1011 1014 1015 0
-993 -1042 -946 0
-993 -1042 -947 0
-993 -1042 -950 0
-993 -1042 -951 0
-993 -1042 -970 0
-993 -1042 -971 0
-993 -1042 -974 0
-993 -1042 -975 0
-993 -1042 -1006 0
-993 -1042 -1007 0
-993 -1042 -1010 0
-993 -1042 -1011 0
-993 -1042 -1014 0
-993 -1042 -1015 0
-994 1029 1033 0
-994 1042 947 951 971 975 1007 1011 1015 0
-994 -1042 -947 0
-994 -1042 -951 0
-994 -1042 -971 0
-994 -1042 -975 0
-994 -1042 -1007 0
-994 -1042 -1011 0
-994 -1042 -1015 0
-995 1030 1034 0
-995 1042 0
-996 1042 949 950 951 953 954 955 973 974 975 977 978 979 1009 1010 1011 1013 1014 1015 0
-996 -1042 -949 0
-996 -1042 -950 0
-996 -1042 -951 0
-996 -1042 -953 0
-996 -1042 -954 0
-996 -1042 -955 0
-996 -1042 -973 0
-996 -1042 -974 0
-996 -1042 -975 0
-996 -1042 -977 0
-996 -1042 -978 0
-996 -1042 -979 0
-996 -1042 -1009 0
-996 -1042 -1010 0
-996 -1042 -1011 0
-996 -1042 -1013 0
-996 -1042 -1014 0
-996 -1042 -1015 0
-997 1032 1036 0
-997 1042 950 951 954 955 974 975 978 979 1010 1011 1014 1015 0
-997 -1042 -950 0
-997 -1042 -951 0
-997 -1042 -954 0
-997 -1042 -955 0
-997 -1042 -974 0
-997 -1042 -975 0
-997 -1042 -978 0
-997 -1042 -979 0
-997 -1042 -1010 0
-997 -1042 -1011 0
-997 -1042 -1014 0
-997 -1042 -1015 0
-998 1033 1037 0
-998 1042 951 955 975 979 1011 1015 0
-998 -1042 -951 0
-998 -1042 -955 0
-998 -1042 -975 0
-998 -1042 -979 0
-998 -1042 -1011 0
-998 -1042 -1015 0
-999 1034 1038 0
-999 1042 0
-1000 1043 933 934 935 937 938 939 941 942 943 957 958 959 961 962 963 965 966 967 981 982 983 985 986 987 989 990 991 0
-1000 -1043 -933 0
-1000 -1043 -934 0
-1000 -1043 -935 0
-1000 -1043 -937 0
-1000 -1043 -938 0
-1000 -1043 -939 0
-1000 -1043 -941 0
-1000 -1043 -942 0
-1000 -1043 -943 0
-1000 -1043 -957 0
-1000 -1043 -958 0
-1000 -1043 -959 0
-1000 -1043 -961 0
-1000 -1043 -962 0
-1000 -1043 -963 0
-1000 -1043 -965 0
-1000 -1043 -966 0
-1000 -1043 -967 0
-1000 -1043 -981 0
-1000 -1043 -982 0
-1000 -1043 -983 0
-1000 -1043 -985 0
-1000 -1043 -986 0
-1000 -1043 -987 0
-1000 -1043 -989 0
-1000 -1043 -990 0
-1000 -1043 -991 0
-1001 1016 1020 0
-1001 1016 1024 0
-1001 1020 1024 0
-1001 1043 934 935 938 939 942 943 958 959 962 963 966 967 982 983 986 987 990 991 0
-1001 -1043 -934 0
-1001 -1043 -935 0
-1001 -1043 -938 0
-1001 -1043 -939 0
-1001 -1043 -942 0
-1001 -1043 -943 0
-1001 -1043 -958 0
-1001 -1043 -959 0
-1001 -1043 -962 0
-1001 -1043 -963 0
-1001 -1043 -966 0
-1001 -1043 -967 0
-1001 -1043 -982 0
-1001 -1043 -983 0
-1001 -1043 -986 0
-1001 -1043 -987 0
-1001 -1043 -990 0
-1001 -1043 -991 0
-1002 1017 1021 0
-1002 1017 1025 0
-1002 1021 1025 0
-1002 1043 935 939 943 959 963 967 983 987 991 0
-1002 -1043 -935 0
-1002 -1043 -939 0
-1002 -1043 -943 0
-1002 -1043 -959 0
-1002 -1043 -963 0
-1002 -1043 -967 0
-1002 -1043 -983 0
-1002 -1043 -987 0
-1002 -1043 -991 0
-1003 1018 1022 0
-1003 1018 1026 0
-1003 1022 1026 0
-1003 1043 0
-1004 1043 937 938 939 941 942 943 945 946 947 961 962 963 965 966 967 969 970 971 981 982 983 985 986 987 989 990 991 993 994 995 0
-1004 -1043 -937 0
-1004 -1043 -938 0
-1004 -1043 -939 0
-1004 -1043 -941 0
-1004 -1043 -942 0
-1004 -1043 -943 0
-1004 -1043 -945 0
-1004 -1043 -946 0
-1004 -1043 -947 0
-1004 -1043 -961 0
-1004 -1043 -962 0
-1004 -1043 -963 0
-1004 -1043 -965 0
-1004 -1043 -966 0
-1004 -1043 -967 0
-1004 -1043 -969 0
-1004 -1043 -970 0
-1004 -1043 -971 0
-1004 -1043 -981 0
-1004 -1043 -982 0
-1004 -1043 -983 0
-1004 -1043 -985 0
-1004 -1043 -986 0
-1004 -1043 -987 0
-1004 -1043 -989 0
-1004 -1043 -990 0
-1004 -1043 -991 0
-1004 -1043 -993 0
-1004 -1043 -994 0
-1004 -1043 -995 0
-1005 1020 1024 0
-1005 1020 1028 0
-1005 1024 1028 0
-1005 1043 938 939 942 943 946 947 962 963 966 967 970 971 982 983 986 987 990 991 994 995 0
-1005 -1043 -938 0
-1005 -1043 -939 0
-1005 -1043 -942 0
-1005 -1043 -943 0
-1005 -1043 -946 0
-1005 -1043 -947 0
-1005 -1043 -962 0
-1005 -1043 -963 0
-1005 -1043 -966 0
-1005 -1043 -967 0
-1005 -1043 -970 0
-1005 -1043 -971 0
-1005 -1043 -982 0
-1005 -1043 -983 0
-1005 -1043 -986 0
-1005 -1043 -987 0
-1005 -1043 -990 0
-1005 -1043 -991 0
-1005 -1043 -994 0
-1005 -1043 -995 0
-1006 1021 1025 0
-1006 1021 1029 0
-1006 1025 1029 0
-1006 1043 939 943 947 963 967 971 983 987 991 995 0
-1006 -1043 -939 0
-1006 -1043 -943 0
-1006 -1043 -947 0
-1006 -1043 -963 0
-1006 -1043 -967 0
-1006 -1043 -971 0
-1006 -1043 -983 0
-1006 -1043 -987 0
-1006 -1043 -991 0
-1006 -1043 -995 0
-1007 1022 1026 0
-1007 1022 1030 0
-1007 1026 1030 0
-1007 1043 0
-1008 1043 941 942 943 945 946 947 949 950 951 965 966 967 969 970 971 973 974 975 985 986 987 989 990 991 993 994 995 997 998 999 0
-1008 -1043 -941 0
-1008 -1043 -942 0
-1008 -1043 -943 0
-1008 -1043 -945 0
-1008 -1043 -946 0
-1008 -1043 -947 0
-1008 -1043 -949 0
-1008 -1043 -950 0
-1008 -1043 -951 0
-1008 -1043 -965 0
-1008 -1043 -966 0
-1008 -1043 -967 0
-1008 -1043 -969 0
-1008 -1043 -970 0
-1008 -1043 -971 0
-1008 -1043 -973 0
-1008 -1043 -974 0
-1008 -1043 -975 0
-1008 -1043 -985 0
-1008 -1043 -986 0
-1008 -1043 -987 0
-1008 -1043 -989 0
-1008 -1043 -990 0
-1008 -1043 -991 0
-1008 -1043 -993 0
-1008 -1043 -994 0
-1008 -1043 -995 0
-1008 -1043 -997 0
-1008 -1043 -998 0
-1008 -1043 -999 0
-1009 1024 1028 0
-1009 1024 1032 0
-1009 1028 1032 0
-1009 1043 942 943 946 947 950 951 966 967 970 971 974 975 986 987 990 991 994 995 998 999 0
-1009 -1043 -942 0
-1009 -1043 -943 0
-1009 -1043 -946 0
-1009 -1043 -947 0
-1009 -1043 -950 0
-1009 -1043 -951 0
-1009 -1043 -966 0
-1009 -1043 -967 0
-1009 -1043 -970 0
-1009 -1043 -971 0
-1009 -1043 -974 0
-1009 -1043 -975 0
-1009 -1043 -986 0
-1009 -1043 -987 0
-1009 -1043 -990 0
-1009 -1043 -991 0
-1009 -1043 -994 0
-1009 -1043 -995 0
-1009 -1043 -998 0
-1009 -1043 -999 0
-1010 1025 1029 0
-1010 1025 1033 0
-1010 1029 1033 0
-1010 1043 943 947 951 967 971 975 987 991 995 999 0
-1010 -1043 -943 0
-1010 -1043 -947 0
-1010 -1043 -951 0
-1010 -1043 -967 0
-1010 -1043 -971 0
-1010 -1043 -975 0
-1010 -1043 -987 0
-1010 -1043 -991 0
-1010 -1043 -995 0
-1010 -1043 -999 0
-1011 1026 1030 0
-1011 1026 1034 0
-1011 1030 1034 0
-1011 1043 0
-1012 1043 945 946 947 949 950 951 953 954 955 969 970 971 973 974 975 977 978 979 989 990 991 993 994 995 997 998 999 0
-1012 -1043 -945 0
-1012 -1043 -946 0
-1012 -1043 -947 0
-1012 -1043 -949 0
-1012 -1043 -950 0
-1012 -1043 -951 0
-1012 -1043 -953 0
-1012 -1043 -954 0
-1012 -1043 -955 0
-1012 -1043 -969 0
-1012 -1043 -970 0
-1012 -1043 -971 0
-1012 -1043 -973 0
-1012 -1043 -974 0
-1012 -1043 -975 0
-1012 -1043 -977 0
-1012 -1043 -978 0
-1012 -1043 -979 0
-1012 -1043 -989 0
-1012 -1043 -990 0
-1012 -1043 -991 0
-1012 -1043 -993 0
-1012 -1043 -994 0
-1012 -1043 -995 0
-1012 -1043 -997 0
-1012 -1043 -998 0
-1012 -1043 -999 0
-1013 1028 1032 0
-1013 1028 1036 0
-1013 1032 1036 0
-1013 1043 946 947 950 951 954 955 970 971 974 975 978 979 990 991 994 995 998 999 0
-1013 -1043 -946 0
-1013 -1043 -947 0
-1013 -1043 -950 0
-1013 -1043 -951 0
-1013 -1043 -954 0
-1013 -1043 -955 0
-1013 -1043 -970 0
-1013 -1043 -971 0
-1013 -1043 -974 0
-1013 -1043 -975 0
-1013 -1043 -978 0
-1013 -1043 -979 0
-1013 -1043 -990 0
-1013 -1043 -991 0
-1013 -1043 -994 0
-1013 -1043 -995 0
-1013 -1043 -998 0
-1013 -1043 -999 0
-1014 1029 1033 0
-1014 1029 1037 0
-1014 1033 1037 0
-1014 1043 947 951 955 971 975 979 991 995 999 0
-1014 -1043 -947 0
-1014 -1043 -951 0
-1014 -1043 -955 0
-1014 -1043 -971 0
-1014 -1043 -975 0
-1014 -1043 -979 0
-1014 -1043 -991 0
-1014 -1043 -995 0
-1014 -1043 -999 0
-1015 1030 1034 0
-1015 1030 1038 0
-1015 1034 1038 0
-1015 1043 0
4 0
7 0
16 0
17 0
21 0
26 0
33 0
35 0
895 0
902 0
906 0
912 0
915 0
920 0
927 0
928 0
1044 1045 1046 1047 1048 1049 1050 1051 1052 1053 1054 1055 1056 1057 1058 1059 1060 1061 1062 1063 1064 1065 1066 1067 1068 1069 1070 1071 1072 1073 1074 1075 1076 1077 1078 1079 1080 1081 1082 1083 1084 1085 1086 1087 1088 1089 1090 1091 1092 1093 1094 1095 1096 1097 1098 1099 1100 1101 1102 1103 1104 1105 1106 1107 1108 1109 1110 1111 1112 1113 1114 1115 1116 1117 1118 1119 1120 1121 1122 1123 1124 1125 1126 1127 0
-1044 -1045 0
-1044 -1046 0
-1044 -1047 0
-1044 -1048 0
-1044 -1049 0
-1044 -1050 0
-1044 -1051 0
-1044 -1052 0
-1044 -1053 0
-1044 -1054 0
-1044 -1055 0
-1044 -1056 0
-1044 -1057 0
-1044 -1058 0
-1044 -1059 0
-1044 -1060 0
-1044 -1061 0
-1044 -1062 0
-1044 -1063 0
-1044 -1064 0
-1044 -1065 0
-1044 -1066 0
-1044 -1067 0
-1044 -1068 0
-1044 -1069 0
-1044 -1070 0
-1044 -1071 0
-1044 -1072 0
-1044 -1073 0
-1044 -1074 0
-1044 -1075 0
-1044 -1076 0
-1044 -1077 0
-1044 -1078 0
-1044 -1079 0
-1044 -1080 0
-1044 -1081 0
-1044 -1082 0
-1044 -1083 0
-1044 -1084 0
-1044 -1085 0
-1044 -1086 0
-1044 -1087 0
-1044 -1088 0
-1044 -1089 0
-1044 -1090 0
-1044 -1091 0
-1044 -1092 0
-1044 -1093 0
-1044 -1094 0
-1044 -1095 0
-1044 -1096 0
-1044 -1097 0
-1044 -1098 0
-1044 -1099 0
-1044 -1100 0
-1044 -1101 0
-1044 -1102 0
-1044 -1103 0
-1044 -1104 0
-1044 -1105 0
-1044 -1106 0
-1044 -1107 0
-1044 -1108 0
-1044 -1109 0
-1044 -1110 0
-1044 -1111 0
-1044 -1112 0
-1044 -1113 0
-1044 -1114 0
-1044 -1115 0
-1044 -1116 0
-1044 -1117 0
-1044 -1118 0
-1044 -1119 0
-1044 -1120 0
-1044 -1121 0
-1044 -1122 0
-1044 -1123 0
-1044 -1124 0
-1044 -1125 0
-1044 -1126 0
-1044 -1127 0
-1045 -1046 0
-1045 -1047 0
-1045 -1048 0
-1045 -1049 0
-1045 -1050 0
-1045 -1051 0
-1045 -1052 0
-1045 -1053 0
-1045 -1054 0
-1045 -1055 0
-1045 -1056 0
-1045 -1057 0
-1045 -1058 0
-1045 -1059 0
-1045 -1060 0
-1045 -1061 0
-1045 -1062 0
-1045 -1063 0
-1045 -1064 0
-1045 -1065 0
-1045 -1066 0
-1045 -1067 0
-1045 -1068 0
-1045 -1069 0
-1045 -1070 0
-1045 -1071 0
-1045 -1072 0
-1045 -1073 0
-1045 -1074 0
-1045 -1075 0
-1045 -1076 0
-1045 -1077 0
-1045 -1078 0
-1045 -1079 0
-1045 -1080 0
-1045 -1081 0
-1045 -1082 0
-1045 -1083 0
-1045 -1084 0
-1045 -1085 0
-1045 -1086 0
-1045 -1087 0
-1045 -1088 0
-1045 -1089 0
-1045 -1090 0
-1045 -1091 0
-1045 -1092 0
-1045 -1093 0
-1045 -1094 0
-1045 -1095 0
-1045 -1096 0
-1045 -1097 0
-1045 -1098 0
-1045 -1099 0
-1045 -1100 0
-1045 -1101 0
-1045 -1102 0
-1045 -1103 0
-1045 -1104 0
-1045 -1105 0
-1045 -1106 0
-1045 -1107 0
-1045 -1108 0
-1045 -1109 0
-1045 -1110 0
-1045 -1111 0
-1045 -1112 0
-1045 -1113 0
-1045 -1114 0
-1045 -1115 0
-1045 -1116 0
-1045 -1117 0
-1045 -1118 0
-1045 -1119 0
-1045 -1120 0
-1045 -1121 0
-1045 -1122 0
-1045 -1123 0
-1045 -1124 0
-1045 -1125 0
-1045 -1126 0
-1045 -1127 0
-1046 -1047 0
-1046 -1048 0
-1046 -1049 0
-1046 -1050 0
-1046 -1051 0
-1046 -1052 0
-1046 -1053 0
-1046 -1054 0
-1046 -1055 0
-1046 -1056 0
-1046 -1057 0
-1046 -1058 0
-1046 -1059 0
-1046 -1060 0
-1046 -1061 0
-1046 -1062 0
-1046 -1063 0
-1046 -1064 0
-1046 -1065 0
-1046 -1066 0
-1046 -1067 0
-1046 -1068 0
-1046 -1069 0
-1046 -1070 0
-1046 -1071 0
-1046 -1072 0
-1046 -1073 0
-1046 -1074 0
-1046 -1075 0
-1046 -1076 0
-1046 -1077 0
-1046 -1078 0
-1046 -1079 0
-1046 -1080 0
-1046 -1081 0
-1046 -1082 0
-1046 -1083 0
-1046 -1084 0
-1046 -1085 0
-1046 -1086 0
-1046 -1087 0
-1046 -1088 0
-1046 -1089 0
-1046 -1090 0
-1046 -1091 0
-1046 -1092 0
-1046 -1093 0
-1046 -1094 0
-1046 -1095 0
-1046 -1096 0
-1046 -1097 0
-1046 -1098 0
-1046 -1099 0
-1046 -1100 0
-1046 -1101 0
-1046 -1102 0
-1046 -1103 0
-1046 -1104 0
-1046 -1105 0
-1046 -1106 0
-1046 -1107 0
-1046 -1108 0
-1046 -1109 0
-1046 -1110 0
-1046 -1111 0
-1046 -1112 0
-1046 -1113 0
-1046 -1114 0
-1046 -1115 0
-1046 -1116 0
-1046 -1117 0
-1046 -1118 0
-1046 -1119 0
-1046 -1120 0
-1046 -1121 0
-1046 -1122 0
-1046 -1123 0
-1046 -1124 0
-1046 -1125 0
-1046 -1126 0
-1046 -1127 0
-1047 -1048 0
-1047 -1049 0
-1047 -1050 0
-1047 -1051 0
-1047 -1052 0
-1047 -1053 0
-1047 -1054 0
-1047 -1055 0
-1047 -1056 0
-1047 -1057 0
-1047 -1058 0
-1047 -1059 0
-1047 -1060 0
-1047 -1061 0
-1047 -1062 0
-1047 -1063 0
-1047 -1064 0
-1047 -1065 0
-1047 -1066 0
-1047 -1067 0
-1047 -1068 0
-1047 -1069 0
-1047 -1070 0
-1047 -1071 0
-1047 -1072 0
-1047 -1073 0
-1047 -1074 0
-1047 -1075 0
-1047 -1076 0
-1047 -1077 0
-1047 -1078 0
-1047 -1079 0
-1047 -1080 0
-1047 -1081 0
-1047 -1082 0
-1047 -1083 0
-1047 -1084 0
-1047 -1085 0
-1047 -1086 0
-1047 -1087 0
-1047 -1088 0
-1047 -1089 0
-1047 -1090 0
-1047 -1091 0
-1047 -1092 0
-1047 -1093 0
-1047 -1094 0
-1047 -1095 0
-1047 -1096 0
-1047 -1097 0
-1047 -1098 0
-1047 -1099 0
-1047 -1100 0
-1047 -1101 0
-1047 -1102 0
-1047 -1103 0
-1047 -1104 0
-1047 -1105 0
-1047 -1106 0
-1047 -1107 0
-1047 -1108 0
-1047 -1109 0
-1047 -1110 0
-1047 -1111 0
-1047 -1112 0
-1047 -1113 0
-1047 -1114 0
-1047 -1115 0
-1047 -1116 0
-1047 -1117 0
-1047 -1118 0
-1047 -1119 0
-1047 -1120 0
-1047 -1121 0
-1047 -1122 0
-1047 -1123 0
-1047 -1124 0
-1047 -1125 0
-1047 -1126 0
-1047 -1127 0
-1048 -1049 0
-1048 -1050 0
-1048 -1051 0
-1048 -1052 0
-1048 -1053 0
-1048 -1054 0
-1048 -1055 0
-1048 -1056 0
-1048 -1057 0
-1048 -1058 0
-1048 -1059 0
-1048 -1060 0
-1048 -1061 0
-1048 -1062 0
-1048 -1063 0
-1048 -1064 0
-1048 -1065 0
-1048 -1066 0
-1048 -1067 0
-1048 -1068 0
-1048 -1069 0
-1048 -1070 0
-1048 -1071 0
-1048 -1072 0
-1048 -1073 0
-1048 -1074 0
-1048 -1075 0
-1048 -1076 0
-1048 -1077 0
-1048 -1078 0
-1048 -1079 0
-1048 -1080 0
-1048 -1081 0
-1048 -1082 0
-1048 -1083 0
-1048 -1084 0
-1048 -1085 0
-1048 -1086 0
-1048 -1087 0
-1048 -1088 0
-1048 -1089 0
-1048 -1090 0
-1048 -1091 0
-1048 -1092 0
-1048 -1093 0
-1048 -1094 0
-1048 -1095 0
-1048 -1096 0
-1048 -1097 0
-1048 -1098 0
-1048 -1099 0
-1048 -1100 0
-1048 -1101 0
-1048 -1102 0
-1048 -1103 0
-1048 -1104 0
-1048 -1105 0
-1048 -1106 0
-1048 -1107 0
-1048 -1108 0
-1048 -1109 0
-1048 -1110 0
-1048 -1111 0
-1048 -1112 0
-1048 -1113 0
-1048 -1114 0
-1048 -1115 0
-1048 -1116 0
-1048 -1117 0
-1048 -1118 0
-1048 -1119 0
-1048 -1120 0
-1048 -1121 0
-1048 -1122 0
-1048 -1123 0
-1048 -1124 0
-1048 -1125 0
-1048 -1126 0
-1048 -1127 0
-1049 -1050 0
-1049 -1051 0
-1049 -1052 0
-1049 -1053 0
-1049 -1054 0
-1049 -1055 0
-1049 -1056 0
-1049 -1057 0
-1049 -1058 0
-1049 -1059 0
-1049 -1060 0
-1049 -1061 0
-1049 -1062 0
-1049 -1063 0
-1049 -1064 0
-1049 -1065 0
-1049 -1066 0
-1049 -1067 0
-1049 -1068 0
-1049 -1069 0
-1049 -1070 0
-1049 -1071 0
-1049 -1072 0
-1049 -1073 0
-1049 -1074 0
-1049 -1075 0
-1049 -1076 0
-1049 -1077 0
-1049 -1078 0
-1049 -1079 0
-1049 -1080 0
-1049 -1081 0
-1049 -1082 0
-1049 -1083 0
-1049 -1084 0
-1049 -1085 0
-1049 -1086 0
-1049 -1087 0
-1049 -1088 0
-1049 -1089 0
-1049 -1090 0
-1049 -1091 0
-1049 -1092 0
-1049 -1093 0
-1049 -1094 0
-1049 -1095 0
-1049 -1096 0
-1049 -1097 0
-1049 -1098 0
-1049 -1099 0
-1049 -1100 0
-1049 -1101 0
-1049 -1102 0
-1049 -1103 0
-1049 -1104 0
-1049 -1105 0
-1049 -1106 0
-1049 -1107 0
-1049 -1108 0
-1049 -1109 0
-1049 -1110 0
-1049 -1111 0
-1049 -1112 0
-1049 -1113 0
-1049 -1114 0
-1049 -1115 0
-1049 -1116 0
-1049 -1117 0
-1049 -1118 0
-1049 -1119 0
-1049 -1120 0
-1049 -1121 0
-1049 -1122 0
-1049 -1123 0
-1049 -1124 0
-1049 -1125 0
-1049 -1126 0
-1049 -1127 0
-1050 -1051 0
-1050 -1052 0
-1050 -1053 0
-1050 -1054 0
-1050 -1055 0
-1050 -1056 0
-1050 -1057 0
-1050 -1058 0
-1050 -1059 0
-1050 -1060 0
-1050 -1061 0
-1050 -1062 0
-1050 -1063 0
-1050 -1064 0
-1050 -1065 0
-1050 -1066 0
-1050 -1067 0
-1050 -1068 0
-1050 -1069 0
-1050 -1070 0
-1050 -1071 0
-1050 -1072 0
-1050 -1073 0
-1050 -1074 0
-1050 -1075 0
-1050 -1076 0
-1050 -1077 0
-1050 -1078 0
-1050 -1079 0
-1050 -1080 0
-1050 -1081 0
-1050 -1082 0
-1050 -1083 0
-1050 -1084 0
-1050 -1085 0
-1050 -1086 0
-1050 -1087 0
-1050 -1088 0
-1050 -1089 0
-1050 -1090 0
-1050 -1091 0
-1050 -1092 0
-1050 -1093 0
-1050 -1094 0
-1050 -1095 0
-1050 -1096 0
-1050 -1097 0
-1050 -1098 0
-1050 -1099 0
-1050 -1100 0
-1050 -1101 0
-1050 -1102 0
-1050 -1103 0
-1050 -1104 0
-1050 -1105 0
-1050 -1106 0
-1050 -1107 0
-1050 -1108 0
-1050 -1109 0
-1050 -1110 0
-1050 -1111 0
-1050 -1112 0
-1050 -1113 0
-1050 -1114 0
-1050 -1115 0
-1050 -1116 0
-1050 -1117 0
-1050 -1118 0
-1050 -1119 0
-1050 -1120 0
-1050 -1121 0
-1050 -1122 0
-1050 -1123 0
-1050 -1124 0
-1050 -1125 0
-1050 -1126 0
-1050 -1127 0
-1051 -1052 0
-1051 -1053 0
-1051 -1054 0
-1051 -1055 0
-1051 -1056 0
-1051 -1057 0
-1051 -1058 0
-1051 -1059 0
-1051 -1060 0
-1051 -1061 0
-1051 -1062 0
-1051 -1063 0
-1051 -1064 0
-1051 -1065 0
-1051 -1066 0
-1051 -1067 0
-1051 -1068 0
-1051 -1069 0
-1051 -1070 0
-1051 -1071 0
-1051 -1072 0
-1051 -1073 0
-1051 -1074 0
-1051 -1075 0
-1051 -1076 0
-1051 -1077 0
-1051 -1078 0
-1051 -1079 0
-1051 -1080 0
-1051 -1081 0
-1051 -1082 0
-1051 -1083 0
-1051 -1084 0
-1051 -1085 0
-1051 -1086 0
-1051 -1087 0
-1051 -1088 0
-1051 -1089 0
-1051 -1090 0
-1051 -1091 0
-1051 -1092 0
-1051 -1093 0
-1051 -1094 0
-1051 -1095 0
-1051 -1096 0
-1051 -1097 0
-1051 -1098 0
-1051 -1099 0
-1051 -1100 0
-1051 -1101 0
-1051 -1102 0
-1051 -1103 0
-1051 -1104 0
-1051 -1105 0
-1051 -1106 0
-1051 -1107 0
-1051 -1108 0
-1051 -1109 0
-1051 -1110 0
-1051 -1111 0
-1051 -1112 0
-1051 -1113 0
-1051 -1114 0
-1051 -1115 0
-1051 -1116 0
-1051 -1117 0
-1051 -1118 0
-1051 -1119 0
-1051 -1120 0
-1051 -1121 0
-1051 -1122 0
-1051 -1123 0
-1051 -1124 0
-1051 -1125 0
-1051 -1126 0
-1051 -1127 0
-1052 -1053 0
-1052 -1054 0
-1052 -1055 0
-1052 -1056 0
-1052 -1057 0
-1052 -1058 0
-1052 -1059 0
-1052 -1060 0
-1052 -1061 0
-1052 -1062 0
-1052 -1063 0
-1052 -1064 0
-1052 -1065 0
-1052 -1066 0
-1052 -1067 0
-1052 -1068 0
-1052 -1069 0
-1052 -1070 0
-1052 -1071 0
-1052 -1072 0
-1052 -1073 0
-1052 -1074 0
-1052 -1075 0
-1052 -1076 0
-1052 -1077 0
-1052 -1078 0
-1052 -1079 0
-1052 -1080 0
-1052 -1081 0
-1052 -1082 0
-1052 -1083 0
-1052 -1084 0
-1052 -1085 0
-1052 -1086 0
-1052 -1087 0
-1052 -1088 0
-1052 -1089 0
-1052 -1090 0
-1052 -1091 0
-1052 -1092 0
-1052 -1093 0
-1052 -1094 0
-1052 -1095 0
-1052 -1096 0
-1052 -1097 0
-1052 -1098 0
-1052 -1099 0
-1052 -1100 0
-1052 -1101 0
-1052 -1102 0
-1052 -1103 0
-1052 -1104 0
-1052 -1105 0
-1052 -1106 0
-1052 -1107 0
-1052 -1108 0
-1052 -1109 0
-1052 -1110 0
-1052 -1111 0
-1052 -1112 0
-1052 -1113 0
-1052 -1114 0
-1052 -1115 0
-1052 -1116 0
-1052 -1117 0
-1052 -1118 0
-1052 -1119 0
-1052 -1120 0
-1052 -1121 0
-1052 -1122 0
-1052 -1123 0
-1052 -1124 0
-1052 -1125 0
-1052 -1126 0
-1052 -1127 0
-1053 -1054 0
-1053 -1055 0
-1053 -1056 0
-1053 -1057 0
-1053 -1058 0
-1053 -1059 0
-1053 -1060 0
-1053 -1061 0
-1053 -1062 0
-1053 -1063 0
-1053 -1064 0
-1053 -1065 0
-1053 -1066 0
-1053 -1067 0
-1053 -1068 0
-1053 -1069 0
-1053 -1070 0
-1053 -1071 0
-1053 -1072 0
-1053 -1073 0
-1053 -1074 0
-1053 -1075 0
-1053 -1076 0
-1053 -1077 0
-1053 -1078 0
-1053 -1079 0
-1053 -1080 0
-1053 -1081 0
-1053 -1082 0
-1053 -1083 0
-1053 -1084 0
-1053 -1085 0
-1053 -1086 0
-1053 -1087 0
-1053 -1088 0
-1053 -1089 0
-1053 -1090 0
-1053 -1091 0
-1053 -1092 0
-1053 -1093 0
-1053 -1094 0
-1053 -1095 0
-1053 -1096 0
-1053 -1097 0
-1053 -1098 0
-1053 -1099 0
-1053 -1100 0
-1053 -1101 0
-1053 -1102 0
-1053 -1103 0
-1053 -1104 0
-1053 -1105 0
-1053 -1106 0
-1053 -1107 0
-1053 -1108 0
-1053 -1109 0
-1053 -1110 0
-1053 -1111 0
-1053 -1112 0
-1053 -1113 0
-1053 -1114 0
-1053 -1115 0
-1053 -1116 0
-1053 -1117 0
-1053 -1118 0
-1053 -1119 0
-1053 -1120 0
-1053 -1121 0
-1053 -1122 0
-1053 -1123 0
-1053 -1124 0
-1053 -1125 0
-1053 -1126 0
-1053 -1127 0
-1054 -1055 0
-1054 -1056 0
-1054 -1057 0
-1054 -1058 0
-1054 -1059 0
-1054 -1060 0
-1054 -1061 0
-1054 -1062 0
-1054 -1063 0
-1054 -1064 0
-1054 -1065 0
-1054 -1066 0
-1054 -1067 0
-1054 -1068 0
-1054 -1069 0
-1054 -1070 0
-1054 -1071 0
-1054 -1072 0
-1054 -1073 0
-1054 -1074 0
-1054 -1075 0
-1054 -1076 0
-1054 -1077 0
-1054 -1078 0
-1054 -1079 0
-1054 -1080 0
-1054 -1081 0
-1054 -1082 0
-1054 -1083 0
-1054 -1084 0
-1054 -1085 0
-1054 -1086 0
-1054 -1087 0
-1054 -1088 0
-1054 -1089 0
-1054 -1090 0
-1054 -1091 0
-1054 -1092 0
-1054 -1093 0
-1054 -1094 0
-1054 -1095 0
-1054 -1096 0
-1054 -1097 0
-1054 -1098 0
-1054 -1099 0
-1054 -1100 0
-1054 -1101 0
-1054 -1102 0
-1054 -1103 0
-1054 -1104 0
-1054 -1105 0
-1054 -1106 0
-1054 -1107 0
-1054 -1108 0
-1054 -1109 0
-1054 -1110 0
-1054 -1111 0
-1054 -1112 0
-1054 -1113 0
-1054 -1114 0
-1054 -1115 0
-1054 -1116 0
-1054 -1117 0
-1054 -1118 0
-1054 -1119 0
-1054 -1120 0
-1054 -1121 0
-1054 -1122 0
-1054 -1123 0
-1054 -1124 0
-1054 -1125 0
-1054 -1126 0
-1054 -1127 0
-1055 -1056 0
-1055 -1057 0
-1055 -1058 0
-1055 -1059 0
-1055 -1060 0
-1055 -1061 0
-1055 -1062 0
-1055 -1063 0
-1055 -1064 0
-1055 -1065 0
-1055 -1066 0
-1055 -1067 0
-1055 -1068 0
-1055 -1069 0
-1055 -1070 0
-1055 -1071 0
-1055 -1072 0
-1055 -1073 0
-1055 -1074 0
-1055 -1075 0
-1055 -1076 0
-1055 -1077 0
-1055 -1078 0
-1055 -1079 0
-1055 -1080 0
-1055 -1081 0
-1055 -1082 0
-1055 -1083 0
-1055 -1084 0
-1055 -1085 0
-1055 -1086 0
-1055 -1087 0
-1055 -1088 0
-1055 -1089 0
-1055 -1090 0
-1055 -1091 0
-1055 -1092 0
-1055 -1093 0
-1055 -1094 0
-1055 -1095 0
-1055 -1096 0
-1055 -1097 0
-1055 -1098 0
-1055 -1099 0
-1055 -1100 0
-1055 -1101 0
-1055 -1102 0
-1055 -1103 0
-1055 -1104 0
-1055 -1105 0
-1055 -1106 0
-1055 -1107 0
-1055 -1108 0
-1055 -1109 0
-1055 -1110 0
-1055 -1111 0
-1055 -1112 0
-1055 -1113 0
-1055 -1114 0
-1055 -1115 0
-1055 -1116 0
-1055 -1117 0
-1055 -1118 0
-1055 -1119 0
-1055 -1120 0
-1055 -1121 0
-1055 -1122 0
-1055 -1123 0
-1055 -1124 0
-1055 -1125 0
-1055 -1126 0
-1055 -1127 0
-1056 -1057 0
-1056 -1058 0
-1056 -1059 0
-1056 -1060 0
-1056 -1061 0
-1056 -1062 0
-1056 -1063 0
-1056 -1064 0
-1056 -1065 0
-1056 -1066 0
-1056 -1067 0
-1056 -1068 0
-1056 -1069 0
-1056 -1070 0
-1056 -1071 0
-1056 -1072 0
-1056 -1073 0
-1056 -1074 0
-1056 -1075 0
-1056 -1076 0
-1056 -1077 0
-1056 -1078 0
-1056 -1079 0
-1056 -1080 0
-1056 -1081 0
-1056 -1082 0
-1056 -1083 0
-1056 -1084 0
-1056 -1085 0
-1056 -1086 0
-1056 -1087 0
-1056 -1088 0
-1056 -1089 0
-1056 -1090 0
-1056 -1091 0
-1056 -1092 0
-1056 -1093 0
-1056 -1094 0
-1056 -1095 0
-1056 -1096 0
-1056 -1097 0
-1056 -1098 0
-1056 -1099 0
-1056 -1100 0
-1056 -1101 0
-1056 -1102 0
-1056 -1103 0
-1056 -1104 0
-1056 -1105 0
-1056 -1106 0
-1056 -1107 0
-1056 -1108 0
-1056 -1109 0
-1056 -1110 0
-1056 -1111 0
-1056 -1112 0
-1056 -1113 0
-1056 -1114 0
-1056 -1115 0
-1056 -1116 0
-1056 -1117 0
-1056 -1118 0
-1056 -1119 0
-1056 -1120 0
-1056 -1121 0
-1056 -1122 0
-1056 -1123 0
-1056 -1124 0
-1056 -1125 0
-1056 -1126 0
-1056 -1127 0
-1057 -1058 0
-1057 -1059 0
-1057 -1060 0
-1057 -1061 0
-1057 -1062 0
-1057 -1063 0
-1057 -1064 0
-1057 -1065 0
-1057 -1066 0
-1057 -1067 0
-1057 -1068 0
-1057 -1069 0
-1057 -1070 0
-1057 -1071 0
-1057 -1072 0
-1057 -1073 0
-1057 -1074 0
-1057 -1075 0
-1057 -1076 0
-1057 -1077 0
-1057 -1078 0
-1057 -1079 0
-1057 -1080 0
-1057 -1081 0
-1057 -1082 0
-1057 -1083 0
-1057 -1084 0
-1057 -1085 0
-1057 -1086 0
-1057 -1087 0
-1057 -1088 0
-1057 -1089 0
-1057 -1090 0
-1057 -1091 0
-1057 -1092 0
-1057 -1093 0
-1057 -1094 0
-1057 -1095 0
-1057 -1096 0
-1057 -1097 0
-1057 -1098 0
-1057 -1099 0
-1057 -1100 0
-1057 -1101 0
-1057 -1102 0
-1057 -1103 0
-1057 -1104 0
-1057 -1105 0
-1057 -1106 0
-1057 -1107 0
-1057 -1108 0
-1057 -1109 0
-1057 -1110 0
-1057 -1111 0
-1057 -1112 0
-1057 -1113 0
-1057 -1114 0
-1057 -1115 0
-1057 -1116 0
-1057 -1117 0
-1057 -1118 0
-1057 -1119 0
-1057 -1120 0
-1057 -1121 0
-1057 -1122 0
-1057 -1123 0
-1057 -1124 0
-1057 -1125 0
-1057 -1126 0
-1057 -1127 0
-1058 -1059 0
-1058 -1060 0
-1058 -1061 0
-1058 -1062 0
-1058 -1063 0
-1058 -1064 0
-1058 -1065 0
-1058 -1066 0
-1058 -1067 0
-1058 -1068 0
-1058 -1069 0
-1058 -1070 0
-1058 -1071 0
-1058 -1072 0
-1058 -1073 0
-1058 -1074 0
-1058 -1075 0
-1058 -1076 0
-1058 -1077 0
-1058 -1078 0
-1058 -1079 0
-1058 -1080 0
-1058 -1081 0
-1058 -1082 0
-1058 -1083 0
-1058 -1084 0
-1058 -1085 0
-1058 -1086 0
-1058 -1087 0
-1058 -1088 0
-1058 -1089 0
-1058 -1090 0
-1058 -1091 0
-1058 -1092 0
-1058 -1093 0
-1058 -1094 0
-1058 -1095 0
-1058 -1096 0
-1058 -1097 0
-1058 -1098 0
-1058 -1099 0
-1058 -1100 0
-1058 -1101 0
-1058 -1102 0
-1058 -1103 0
-1058 -1104 0
-1058 -1105 0
-1058 -1106 0
-1058 -1107 0
-1058 -1108 0
-1058 -1109 0
-1058 -1110 0
-1058 -1111 0
-1058 -1112 0
-1058 -1113 0
-1058 -1114 0
-1058 -1115 0
-1058 -1116 0
-1058 -1117 0
-1058 -1118 0
-1058 -1119 0
-1058 -1120 0
-1058 -1121 0
-1058 -1122 0
-1058 -1123 0
-1058 -1124 0
-1058 -1125 0
-1058 -1126 0
-1058 -1127 0
-1059 -1060 0
-1059 -1061 0
-1059 -1062 0
-1059 -1063 0
-1059 -1064 0
-1059 -1065 0
-1059 -1066 0
-1059 -1067 0
-1059 -1068 0
-1059 -1069 0
-1059 -1070 0
-1059 -1071 0
-1059 -1072 0
-1059 -1073 0
-1059 -1074 0
-1059 -1075 0
-1059 -1076 0
-1059 -1077 0
-1059 -1078 0
-1059 -1079 0
-1059 -1080 0
-1059 -1081 0
-1059 -1082 0
-1059 -1083 0
-1059 -1084 0
-1059 -1085 0
-1059 -1086 0
-1059 -1087 0
-1059 -1088 0
-1059 -1089 0
-1059 -1090 0
-1059 -1091 0
-1059 -1092 0
-1059 -1093 0
-1059 -1094 0
-1059 -1095 0
-1059 -1096 0
-1059 -1097 0
-1059 -1098 0
-1059 -1099 0
-1059 -1100 0
-1059 -1101 0
-1059 -1102 0
-1059 -1103 0
-1059 -1104 0
-1059 -1105 0
-1059 -1106 0
-1059 -1107 0
-1059 -1108 0
-1059 -1109 0
-1059 -1110 0
-1059 -1111 0
-1059 -1112 0
-1059 -1113 0
-1059 -1114 0
-1059 -1115 0
-1059 -1116 0
-1059 -1117 0
-1059 -1118 0
-1059 -1119 0
-1059 -1120 0
-1059 -1121 0
-1059 -1122 0
-1059 -1123 0
-1059 -1124 0
-1059 -1125 0
-1059 -1126 0
-1059 -1127 0
-1060 -1061 0
-1060 -1062 0
-1060 -1063 0
-1060 -1064 0
-1060 -1065 0
-1060 -1066 0
-1060 -1067 0
-1060 -1068 0
-1060 -1069 0
-1060 -1070 0
-1060 -1071 0
-1060 -1072 0
-1060 -1073 0
-1060 -1074 0
-1060 -1075 0
-1060 -1076 0
-1060 -1077 0
-1060 -1078 0
-1060 -1079 0
-1060 -1080 0
-1060 -1081 0
-1060 -1082 0
-1060 -1083 0
-1060 -1084 0
-1060 -1085 0
-1060 -1086 0
-1060 -1087 0
-1060 -1088 0
-1060 -1089 0
-1060 -1090 0
-1060 -1091 0
-1060 -1092 0
-1060 -1093 0
-1060 -1094 0
-1060 -1095 0
-1060 -1096 0
-1060 -1097 0
-1060 -1098 0
-1060 -1099 0
-1060 -1100 0
-1060 -1101 0
-1060 -1102 0
-1060 -1103 0
-1060 -1104 0
-1060 -1105 0
-1060 -1106 0
-1060 -1107 0
-1060 -1108 0
-1060 -1109 0
-1060 -1110 0
-1060 -1111 0
-1060 -1112 0
-1060 -1113 0
-1060 -1114 0
-1060 -1115 0
-1060 -1116 0
-1060 -1117 0
-1060 -1118 0
-1060 -1119 0
-1060 -1120 0
-1060 -1121 0
-1060 -1122 0
-1060 -1123 0
-1060 -1124 0
-1060 -1125 0
-1060 -1126 0
-1060 -1127 0
-1061 -1062 0
-1061 -1063 0
-1061 -1064 0
-1061 -1065 0
-1061 -1066 0
-1061 -1067 0
-1061 -1068 0
-1061 -1069 0
-1061 -1070 0
-1061 -1071 0
-1061 -1072 0
-1061 -1073 0
-1061 -1074 0
-1061 -1075 0
-1061 -1076 0
-1061 -1077 0
-1061 -1078 0
-1061 -1079 0
-1061 -1080 0
-1061 -1081 0
-1061 -1082 0
-1061 -1083 0
-1061 -1084 0
-1061 -1085 0
-1061 -1086 0
-1061 -1087 0
-1061 -1088 0
-1061 -1089 0
-1061 -1090 0
-1061 -1091 0
-1061 -1092 0
-1061 -1093 0
-1061 -1094 0
-1061 -1095 0
-1061 -1096 0
-1061 -1097 0
-1061 -1098 0
-1061 -1099 0
-1061 -1100 0
-1061 -1101 0
-1061 -1102 0
-1061 -1103 0
-1061 -1104 0
-1061 -1105 0
-1061 -1106 0
-1061 -1107 0
-1061 -1108 0
-1061 -1109 0
-1061 -1110 0
-1061 -1111 0
-1061 -1112 0
-1061 -1113 0
-1061 -1114 0
-1061 -1115 0
-1061 -1116 0
-1061 -1117 0
-1061 -1118 0
-1061 -1119 0
-1061 -1120 0
-1061 -1121 0
-1061 -1122 0
-1061 -1123 0
-1061 -1124 0
-1061 -1125 0
-1061 -1126 0
-1061 -1127 0
-1062 -1063 0
-1062 -1064 0
-1062 -1065 0
-1062 -1066 0
-1062 -1067 0
-1062 -1068 0
-1062 -1069 0
-1062 -1070 0
-1062 -1071 0
-1062 -1072 0
-1062 -1073 0
-1062 -1074 0
-1062 -1075 0
-1062 -1076 0
-1062 -1077 0
-1062 -1078 0
-1062 -1079 0
-1062 -1080 0
-1062 -1081 0
-1062 -1082 0
-1062 -1083 0
-1062 -1084 0
-1062 -1085 0
-1062 -1086 0
-1062 -1087 0
-1062 -1088 0
-1062 -1089 0
-1062 -1090 0
-1062 -1091 0
-1062 -1092 0
-1062 -1093 0
-1062 -1094 0
-1062 -1095 0
-1062 -1096 0
-1062 -1097 0
-1062 -1098 0
-1062 -1099 0
-1062 -1100 0
-1062 -1101 0
-1062 -1102 0
-1062 -1103 0
-1062 -1104 0
-1062 -1105 0
-1062 -1106 0
-1062 -1107 0
-1062 -1108 0
-1062 -1109 0
-1062 -1110 0
-1062 -1111 0
-1062 -1112 0
-1062 -1113 0
-1062 -1114 0
-1062 -1115 0
-1062 -1116 0
-1062 -1117 0
-1062 -1118 0
-1062 -1119 0
-1062 -1120 0
-1062 -1121 0
-1062 -1122 0
-1062 -1123 0
-1062 -1124 0
-1062 -1125 0
-1062 -1126 0
-1062 -1127 0
-1063 -1064 0
-1063 -1065 0
-1063 -1066 0
-1063 -1067 0
-1063 -1068 0
-1063 -1069 0
-1063 -1070 0
-1063 -1071 0
-1063 -1072 0
-1063 -1073 0
-1063 -1074 0
-1063 -1075 0
-1063 -1076 0
-1063 -1077 0
-1063 -1078 0
-1063 -1079 0
-1063 -1080 0
-1063 -1081 0
-1063 -1082 0
-1063 -1083 0
-1063 -1084 0
-1063 -1085 0
-1063 -1086 0
-1063 -1087 0
-1063 -1088 0
-1063 -1089 0
-1063 -1090 0
-1063 -1091 0
-1063 -1092 0
-1063 -1093 0
-1063 -1094 0
-1063 -1095 0
-1063 -1096 0
-1063 -1097 0
-1063 -1098 0
-1063 -1099 0
-1063 -1100 0
-1063 -1101 0
-1063 -1102 0
-1063 -1103 0
-1063 -1104 0
-1063 -1105 0
-1063 -1106 0
-1063 -1107 0
-1063 -1108 0
-1063 -1109 0
-1063 -1110 0
-1063 -1111 0
-1063 -1112 0
-1063 -1113 0
-1063 -1114 0
-1063 -1115 0
-1063 -1116 0
-1063 -1117 0
-1063 -1118 0
-1063 -1119 0
-1063 -1120 0
-1063 -1121 0
-1063 -1122 0
-1063 -1123 0
-1063 -1124 0
-1063 -1125 0
-1063 -1126 0
-1063 -1127 0
-1064 -1065 0
-1064 -1066 0
-1064 -1067 0
-1064 -1068 0
-1064 -1069 0
-1064 -1070 0
-1064 -1071 0
-1064 -1072 0
-1064 -1073 0
-1064 -1074 0
-1064 -1075 0
-1064 -1076 0
-1064 -1077 0
-1064 -1078 0
-1064 -1079 0
-1064 -1080 0
-1064 -1081 0
-1064 -1082 0
-1064 -1083 0
-1064 -1084 0
-1064 -1085 0
-1064 -1086 0
-1064 -1087 0
-1064 -1088 0
-1064 -1089 0
-1064 -1090 0
-1064 -1091 0
-1064 -1092 0
-1064 -1093 0
-1064 -1094 0
-1064 -1095 0
-1064 -1096 0
-1064 -1097 0
-1064 -1098 0
-1064 -1099 0
-1064 -1100 0
-1064 -1101 0
-1064 -1102 0
-1064 -1103 0
-1064 -1104 0
-1064 -1105 0
-1064 -1106 0
-1064 -1107 0
-1064 -1108 0
-1064 -1109 0
-1064 -1110 0
-1064 -1111 0
-1064 -1112 0
-1064 -1113 0
-1064 -1114 0
-1064 -1115 0
-1064 -1116 0
-1064 -1117 0
-1064 -1118 0
-1064 -1119 0
-1064 -1120 0
-1064 -1121 0
-1064 -1122 0
-1064 -1123 0
-1064 -1124 0
-1064 -1125 0
-1064 -1126 0
-1064 -1127 0
-1065 -1066 0
-1065 -1067 0
-1065 -1068 0
-1065 -1069 0
-1065 -1070 0
-1065 -1071 0
-1065 -1072 0
-1065 -1073 0
-1065 -1074 0
-1065 -1075 0
-1065 -1076 0
-1065 -1077 0
-1065 -1078 0
-1065 -1079 0
-1065 -1080 0
-1065 -1081 0
-1065 -1082 0
-1065 -1083 0
-1065 -1084 0
-1065 -1085 0
-1065 -1086 0
-1065 -1087 0
-1065 -1088 0
-1065 -1089 0
-1065 -1090 0
-1065 -1091 0
-1065 -1092 0
-1065 -1093 0
-1065 -1094 0
-1065 -1095 0
-1065 -1096 0
-1065 -1097 0
-1065 -1098 0
-1065 -1099 0
-1065 -1100 0
-1065 -1101 0
-1065 -1102 0
-1065 -1103 0
-1065 -1104 0
-1065 -1105 0
-1065 -1106 0
-1065 -1107 0
-1065 -1108 0
-1065 -1109 0
-1065 -1110 0
-1065 -1111 0
-1065 -1112 0
-1065 -1113 0
-1065 -1114 0
-1065 -1115 0
-1065 -1116 0
-1065 -1117 0
-1065 -1118 0
-1065 -1119 0
-1065 -1120 0
-1065 -1121 0
-1065 -1122 0
-1065 -1123 0
-1065 -1124 0
-1065 -1125 0
-1065 -1126 0
-1065 -1127 0
-1066 -1067 0
-1066 -1068 0
-1066 -1069 0
-1066 -1070 0
-1066 -1071 0
-1066 -1072 0
-1066 -1073 0
-1066 -1074 0
-1066 -1075 0
-1066 -1076 0
-1066 -1077 0
-1066 -1078 0
-1066 -1079 0
-1066 -1080 0
-1066 -1081 0
-1066 -1082 0
-1066 -1083 0
-1066 -1084 0
-1066 -1085 0
-1066 -1086 0
-1066 -1087 0
-1066 -1088 0
-1066 -1089 0
-1066 -1090 0
-1066 -1091 0
-1066 -1092 0
-1066 -1093 0
-1066 -1094 0
-1066 -1095 0
-1066 -1096 0
-1066 -1097 0
-1066 -1098 0
-1066 -1099 0
-1066 -1100 0
-1066 -1101 0
-1066 -1102 0
-1066 -1103 0
-1066 -1104 0
-1066 -1105 0
-1066 -1106 0
-1066 -1107 0
-1066 -1108 0
-1066 -1109 0
-1066 -1110 0
-1066 -1111 0
-1066 -1112 0
-1066 -1113 0
-1066 -1114 0
-1066 -1115 0
-1066 -1116 0
-1066 -1117 0
-1066 -1118 0
-1066 -1119 0
-1066 -1120 0
-1066 -1121 0
-1066 -1122 0
-1066 -1123 0
-1066 -1124 0
-1066 -1125 0
-1066 -1126 0
-1066 -1127 0
-1067 -1068 0
-1067 -1069 0
-1067 -1070 0
-1067 -1071 0
-1067 -1072 0
-1067 -1073 0
-1067 -1074 0
-1067 -1075 0
-1067 -1076 0
-1067 -1077 0
-1067 -1078 0
-1067 -1079 0
-1067 -1080 0
-1067 -1081 0
-1067 -1082 0
-1067 -1083 0
-1067 -1084 0
-1067 -1085 0
-1067 -1086 0
-1067 -1087 0
-1067 -1088 0
-1067 -1089 0
-1067 -1090 0
-1067 -1091 0
-1067 -1092 0
-1067 -1093 0
-1067 -1094 0
-1067 -1095 0
-1067 -1096 0
-1067 -1097 0
-1067 -1098 0
-1067 -1099 0
-1067 -1100 0
-1067 -1101 0
-1067 -1102 0
-1067 -1103 0
-1067 -1104 0
-1067 -1105 0
-1067 -1106 0
-1067 -1107 0
-1067 -1108 0
-1067 -1109 0
-1067 -1110 0
-1067 -1111 0
-1067 -1112 0
-1067 -1113 0
-1067 -1114 0
-1067 -1115 0
-1067 -1116 0
-1067 -1117 0
-1067 -1118 0
-1067 -1119 0
-1067 -1120 0
-1067 -1121 0
-1067 -1122 0
-1067 -1123 0
-1067 -1124 0
-1067 -1125 0
-1067 -1126 0
-1067 -1127 0
-1068 -1069 0
-1068 -1070 0
-1068 -1071 0
-1068 -1072 0
-1068 -1073 0
-1068 -1074 0
-1068 -1075 0
-1068 -1076 0
-1068 -1077 0
-1068 -1078 0
-1068 -1079 0
-1068 -1080 0
-1068 -1081 0
-1068 -1082 0
-1068 -1083 0
-1068 -1084 0
-1068 -1085 0
-1068 -1086 0
-1068 -1087 0
-1068 -1088 0
-1068 -1089 0
-1068 -1090 0
-1068 -1091 0
-1068 -1092 0
-1068 -1093 0
-1068 -1094 0
-1068 -1095 0
-1068 -1096 0
-1068 -1097 0
-1068 -1098 0
-1068 -1099 0
-1068 -1100 0
-1068 -1101 0
-1068 -1102 0
-1068 -1103 0
-1068 -1104 0
-1068 -1105 0
-1068 -1106 0
-1068 -1107 0
-1068 -1108 0
-1068 -1109 0
-1068 -1110 0
-1068 -1111 0
-1068 -1112 0
-1068 -1113 0
-1068 -1114 0
-1068 -1115 0
-1068 -1116 0
-1068 -1117 0
-1068 -1118 0
-1068 -1119 0
-1068 -1120 0
-1068 -1121 0
-1068 -1122 0
-1068 -1123 0
-1068 -1124 0
-1068 -1125 0
-1068 -1126 0
-1068 -1127 0
-1069 -1070 0
-1069 -1071 0
-1069 -1072 0
-1069 -1073 0
-1069 -1074 0
-1069 -1075 0
-1069 -1076 0
-1069 -1077 0
-1069 -1078 0
-1069 -1079 0
-1069 -1080 0
-1069 -1081 0
-1069 -1082 0
-1069 -1083 0
-1069 -1084 0
-1069 -1085 0
-1069 -1086 0
-1069 -1087 0
-1069 -1088 0
-1069 -1089 0
-1069 -1090 0
-1069 -1091 0
-1069 -1092 0
-1069 -1093 0
-1069 -1094 0
-1069 -1095 0
-1069 -1096 0
-1069 -1097 0
-1069 -1098 0
-1069 -1099 0
-1069 -1100 0
-1069 -1101 0
-1069 -1102 0
-1069 -1103 0
-1069 -1104 0
-1069 -1105 0
-1069 -1106 0
-1069 -1107 0
-1069 -1108 0
-1069 -1109 0
-1069 -1110 0
-1069 -1111 0
-1069 -1112 0
-1069 -1113 0
-1069 -1114 0
-1069 -1115 0
-1069 -1116 0
-1069 -1117 0
-1069 -1118 0
-1069 -1119 0
-1069 -1120 0
-1069 -1121 0
-1069 -1122 0
-1069 -1123 0
-1069 -1124 0
-1069 -1125 0
-1069 -1126 0
-1069 -1127 0
-1070 -1071 0
-1070 -1072 0
-1070 -1073 0
-1070 -1074 0
-1070 -1075 0
-1070 -1076 0
-1070 -1077 0
-1070 -1078 0
-1070 -1079 0
-1070 -1080 0
-1070 -1081 0
-1070 -1082 0
-1070 -1083 0
-1070 -1084 0
-1070 -1085 0
-1070 -1086 0
-1070 -1087 0
-1070 -1088 0
-1070 -1089 0
-1070 -1090 0
-1070 -1091 0
-1070 -1092 0
-1070 -1093 0
-1070 -1094 0
-1070 -1095 0
-1070 -1096 0
-1070 -1097 0
-1070 -1098 0
-1070 -1099 0
-1070 -1100 0
-1070 -1101 0
-1070 -1102 0
-1070 -1103 0
-1070 -1104 0
-1070 -1105 0
-1070 -1106 0
-1070 -1107 0
-1070 -1108 0
-1070 -1109 0
-1070 -1110 0
-1070 -1111 0
-1070 -1112 0
-1070 -1113 0
-1070 -1114 0
-1070 -1115 0
-1070 -1116 0
-1070 -1117 0
-1070 -1118 0
-1070 -1119 0
-1070 -1120 0
-1070 -1121 0
-1070 -1122 0
-1070 -1123 0
-1070 -1124 0
-1070 -1125 0
-1070 -1126 0
-1070 -1127 0
-1071 -1072 0
-1071 -1073 0
-1071 -1074 0
-1071 -1075 0
-1071 -1076 0
-1071 -1077 0
-1071 -1078 0
-1071 -1079 0
-1071 -1080 0
-1071 -1081 0
-1071 -1082 0
-1071 -1083 0
-1071 -1084 0
-1071 -1085 0
-1071 -1086 0
-1071 -1087 0
-1071 -1088 0
-1071 -1089 0
-1071 -1090 0
-1071 -1091 0
-1071 -1092 0
-1071 -1093 0
-1071 -1094 0
-1071 -1095 0
-1071 -1096 0
-1071 -1097 0
-1071 -1098 0
-1071 -1099 0
-1071 -1100 0
-1071 -1101 0
-1071 -1102 0
-1071 -1103 0
-1071 -1104 0
-1071 -1105 0
-1071 -1106 0
-1071 -1107 0
-1071 -1108 0
-1071 -1109 0
-1071 -1110 0
-1071 -1111 0
-1071 -1112 0
-1071 -1113 0
-1071 -1114 0
-1071 -1115 0
-1071 -1116 0
-1071 -1117 0
-1071 -1118 0
-1071 -1119 0
-1071 -1120 0
-1071 -1121 0
-1071 -1122 0
-1071 -1123 0
-1071 -1124 0
-1071 -1125 0
-1071 -1126 0
-1071 -1127 0
-1072 -1073 0
-1072 -1074 0
-1072 -1075 0
-1072 -1076 0
-1072 -1077 0
-1072 -1078 0
-1072 -1079 0
-1072 -1080 0
-1072 -1081 0
-1072 -1082 0
-1072 -1083 0
-1072 -1084 0
-1072 -1085 0
-1072 -1086 0
-1072 -1087 0
-1072 -1088 0
-1072 -1089 0
-1072 -1090 0
-1072 -1091 0
-1072 -1092 0
-1072 -1093 0
-1072 -1094 0
-1072 -1095 0
-1072 -1096 0
-1072 -1097 0
-1072 -1098 0
-1072 -1099 0
-1072 -1100 0
-1072 -1101 0
-1072 -1102 0
-1072 -1103 0
-1072 -1104 0
-1072 -1105 0
-1072 -1106 0
-1072 -1107 0
-1072 -1108 0
-1072 -1109 0
-1072 -1110 0
-1072 -1111 0
-1072 -1112 0
-1072 -1113 0
-1072 -1114 0
-1072 -1115 0
-1072 -1116 0
-1072 -1117 0
-1072 -1118 0
-1072 -1119 0
-1072 -1120 0
-1072 -1121 0
-1072 -1122 0
-1072 -1123 0
-1072 -1124 0
-1072 -1125 0
-1072 -1126 0
-1072 -1127 0
-1073 -1074 0
-1073 -1075 0
-1073 -1076 0
-1073 -1077 0
-1073 -1078 0
-1073 -1079 0
-1073 -1080 0
-1073 -1081 0
-1073 -1082 0
-1073 -1083 0
-1073 -1084 0
-1073 -1085 0
-1073 -1086 0
-1073 -1087 0
-1073 -1088 0
-1073 -1089 0
-1073 -1090 0
-1073 -1091 0
-1073 -1092 0
-1073 -1093 0
-1073 -1094 0
-1073 -1095 0
-1073 -1096 0
-1073 -1097 0
-1073 -1098 0
-1073 -1099 0
-1073 -1100 0
-1073 -1101 0
-1073 -1102 0
-1073 -1103 0
-1073 -1104 0
-1073 -1105 0
-1073 -1106 0
-1073 -1107 0
-1073 -1108 0
-1073 -1109 0
-1073 -1110 0
-1073 -1111 0
-1073 -1112 0
-1073 -1113 0
-1073 -1114 0
-1073 -1115 0
-1073 -1116 0
-1073 -1117 0
-1073 -1118 0
-1073 -1119 0
-1073 -1120 0
-1073 -1121 0
-1073 -1122 0
-1073 -1123 0
-1073 -1124 0
-1073 -1125 0
-1073 -1126 0
-1073 -1127 0
-1074 -1075 0
-1074 -1076 0
-1074 -1077 0
-1074 -1078 0
-1074 -1079 0
-1074 -1080 0
-1074 -1081 0
-1074 -1082 0
-1074 -1083 0
-1074 -1084 0
-1074 -1085 0
-1074 -1086 0
-1074 -1087 0
-1074 -1088 0
-1074 -1089 0
-1074 -1090 0
-1074 -1091 0
-1074 -1092 0
-1074 -1093 0
-1074 -1094 0
-1074 -1095 0
-1074 -1096 0
-1074 -1097 0
-1074 -1098 0
-1074 -1099 0
-1074 -1100 0
-1074 -1101 0
-1074 -1102 0
-1074 -1103 0
-1074 -1104 0
-1074 -1105 0
-1074 -1106 0
-1074 -1107 0
-1074 -1108 0
-1074 -1109 0
-1074 -1110 0
-1074 -1111 0
-1074 -1112 0
-1074 -1113 0
-1074 -1114 0
-1074 -1115 0
-1074 -1116 0
-1074 -1117 0
-1074 -1118 0
-1074 -1119 0
-1074 -1120 0
-1074 -1121 0
-1074 -1122 0
-1074 -1123 0
-1074 -1124 0
-1074 -1125 0
-1074 -1126 0
-1074 -1127 0
-1075 -1076 0
-1075 -1077 0
-1075 -1078 0
-1075 -1079 0
-1075 -1080 0
-1075 -1081 0
-1075 -1082 0
-1075 -1083 0
-1075 -1084 0
-1075 -1085 0
-1075 -1086 0
-1075 -1087 0
-1075 -1088 0
-1075 -1089 0
-1075 -1090 0
-1075 -1091 0
-1075 -1092 0
-1075 -1093 0
-1075 -1094 0
-1075 -1095 0
-1075 -1096 0
-1075 -1097 0
-1075 -1098 0
-1075 -1099 0
-1075 -1100 0
-1075 -1101 0
-1075 -1102 0
-1075 -1103 0
-1075 -1104 0
-1075 -1105 0
-1075 -1106 0
-1075 -1107 0
-1075 -1108 0
-1075 -1109 0
-1075 -1110 0
-1075 -1111 0
-1075 -1112 0
-1075 -1113 0
-1075 -1114 0
-1075 -1115 0
-1075 -1116 0
-1075 -1117 0
-1075 -1118 0
-1075 -1119 0
-1075 -1120 0
-1075 -1121 0
-1075 -1122 0
-1075 -1123 0
-1075 -1124 0
-1075 -1125 0
-1075 -1126 0
-1075 -1127 0
-1076 -1077 0
-1076 -1078 0
-1076 -1079 0
-1076 -1080 0
-1076 -1081 0
-1076 -1082 0
-1076 -1083 0
-1076 -1084 0
-1076 -1085 0
-1076 -1086 0
-1076 -1087 0
-1076 -1088 0
-1076 -1089 0
-1076 -1090 0
-1076 -1091 0
-1076 -1092 0
-1076 -1093 0
-1076 -1094 0
-1076 -1095 0
-1076 -1096 0
-1076 -1097 0
-1076 -1098 0
-1076 -1099 0
-1076 -1100 0
-1076 -1101 0
-1076 -1102 0
-1076 -1103 0
-1076 -1104 0
-1076 -1105 0
-1076 -1106 0
-1076 -1107 0
-1076 -1108 0
-1076 -1109 0
-1076 -1110 0
-1076 -1111 0
-1076 -1112 0
-1076 -1113 0
-1076 -1114 0
-1076 -1115 0
-1076 -1116 0
-1076 -1117 0
-1076 -1118 0
-1076 -1119 0
-1076 -1120 0
-1076 -1121 0
-1076 -1122 0
-1076 -1123 0
-1076 -1124 0
-1076 -1125 0
-1076 -1126 0
-1076 -1127 0
-1077 -1078 0
-1077 -1079 0
-1077 -1080 0
-1077 -1081 0
-1077 -1082 0
-1077 -1083 0
-1077 -1084 0
-1077 -1085 0
-1077 -1086 0
-1077 -1087 0
-1077 -1088 0
-1077 -1089 0
-1077 -1090 0
-1077 -1091 0
-1077 -1092 0
-1077 -1093 0
-1077 -1094 0
-1077 -1095 0
-1077 -1096 0
-1077 -1097 0
-1077 -1098 0
-1077 -1099 0
-1077 -1100 0
-1077 -1101 0
-1077 -1102 0
-1077 -1103 0
-1077 -1104 0
-1077 -1105 0
-1077 -1106 0
-1077 -1107 0
-1077 -1108 0
-1077 -1109 0
-1077 -1110 0
-1077 -1111 0
-1077 -1112 0
-1077 -1113 0
-1077 -1114 0
-1077 -1115 0
-1077 -1116 0
-1077 -1117 0
-1077 -1118 0
-1077 -1119 0
-1077 -1120 0
-1077 -1121 0
-1077 -1122 0
-1077 -1123 0
-1077 -1124 0
-1077 -1125 0
-1077 -1126 0
-1077 -1127 0
-1078 -1079 0
-1078 -1080 0
-1078 -1081 0
-1078 -1082 0
-1078 -1083 0
-1078 -1084 0
-1078 -1085 0
-1078 -1086 0
-1078 -1087 0
-1078 -1088 0
-1078 -1089 0
-1078 -1090 0
-1078 -1091 0
-1078 -1092 0
-1078 -1093 0
-1078 -1094 0
-1078 -1095 0
-1078 -1096 0
-1078 -1097 0
-1078 -1098 0
-1078 -1099 0
-1078 -1100 0
-1078 -1101 0
-1078 -1102 0
-1078 -1103 0
-1078 -1104 0
-1078 -1105 0
-1078 -1106 0
-1078 -1107 0
-1078 -1108 0
-1078 -1109 0
-1078 -1110 0
-1078 -1111 0
-1078 -1112 0
-1078 -1113 0
-1078 -1114 0
-1078 -1115 0
-1078 -1116 0
-1078 -1117 0
-1078 -1118 0
-1078 -1119 0
-1078 -1120 0
-1078 -1121 0
-1078 -1122 0
-1078 -1123 0
-1078 -1124 0
-1078 -1125 0
-1078 -1126 0
-1078 -1127 0
-1079 -1080 0
-1079 -1081 0
-1079 -1082 0
-1079 -1083 0
-1079 -1084 0
-1079 -1085 0
-1079 -1086 0
-1079 -1087 0
-1079 -1088 0
-1079 -1089 0
-1079 -1090 0
-1079 -1091 0
-1079 -1092 0
-1079 -1093 0
-1079 -1094 0
-1079 -1095 0
-1079 -1096 0
-1079 -1097 0
-1079 -1098 0
-1079 -1099 0
-1079 -1100 0
-1079 -1101 0
-1079 -1102 0
-1079 -1103 0
-1079 -1104 0
-1079 -1105 0
-1079 -1106 0
-1079 -1107 0
-1079 -1108 0
-1079 -1109 0
-1079 -1110 0
-1079 -1111 0
-1079 -1112 0
-1079 -1113 0
-1079 -1114 0
-1079 -1115 0
-1079 -1116 0
-1079 -1117 0
-1079 -1118 0
-1079 -1119 0
-1079 -1120 0
-1079 -1121 0
-1079 -1122 0
-1079 -1123 0
-1079 -1124 0
-1079 -1125 0
-1079 -1126 0
-1079 -1127 0
-1080 -1081 0
-1080 -1082 0
-1080 -1083 0
-1080 -1084 0
-1080 -1085 0
-1080 -1086 0
-1080 -1087 0
-1080 -1088 0
-1080 -1089 0
-1080 -1090 0
-1080 -1091 0
-1080 -1092 0
-1080 -1093 0
-1080 -1094 0
-1080 -1095 0
-1080 -1096 0
-1080 -1097 0
-1080 -1098 0
-1080 -1099 0
-1080 -1100 0
-1080 -1101 0
-1080 -1102 0
-1080 -1103 0
-1080 -1104 0
-1080 -1105 0
-1080 -1106 0
-1080 -1107 0
-1080 -1108 0
-1080 -1109 0
-1080 -1110 0
-1080 -1111 0
-1080 -1112 0
-1080 -1113 0
-1080 -1114 0
-1080 -1115 0
-1080 -1116 0
-1080 -1117 0
-1080 -1118 0
-1080 -1119 0
-1080 -1120 0
-1080 -1121 0
-1080 -1122 0
-1080 -1123 0
-1080 -1124 0
-1080 -1125 0
-1080 -1126 0
-1080 -1127 0
-1081 -1082 0
-1081 -1083 0
-1081 -1084 0
-1081 -1085 0
-1081 -1086 0
-1081 -1087 0
-1081 -1088 0
-1081 -1089 0
-1081 -1090 0
-1081 -1091 0
-1081 -1092 0
-1081 -1093 0
-1081 -1094 0
-1081 -1095 0
-1081 -1096 0
-1081 -1097 0
-1081 -1098 0
-1081 -1099 0
-1081 -1100 0
-1081 -1101 0
-1081 -1102 0
-1081 -1103 0
-1081 -1104 0
-1081 -1105 0
-1081 -1106 0
-1081 -1107 0
-1081 -1108 0
-1081 -1109 0
-1081 -1110 0
-1081 -1111 0
-1081 -1112 0
-1081 -1113 0
-1081 -1114 0
-1081 -1115 0
-1081 -1116 0
-1081 -1117 0
-1081 -1118 0
-1081 -1119 0
-1081 -1120 0
-1081 -1121 0
-1081 -1122 0
-1081 -1123 0
-1081 -1124 0
-1081 -1125 0
-1081 -1126 0
-1081 -1127 0
-1082 -1083 0
-1082 -1084 0
-1082 -1085 0
-1082 -1086 0
-1082 -1087 0
-1082 -1088 0
-1082 -1089 0
-1082 -1090 0
-1082 -1091 0
-1082 -1092 0
-1082 -1093 0
-1082 -1094 0
-1082 -1095 0
-1082 -1096 0
-1082 -1097 0
-1082 -1098 0
-1082 -1099 0
-1082 -1100 0
-1082 -1101 0
-1082 -1102 0
-1082 -1103 0
-1082 -1104 0
-1082 -1105 0
-1082 -1106 0
-1082 -1107 0
-1082 -1108 0
-1082 -1109 0
-1082 -1110 0
-1082 -1111 0
-1082 -1112 0
-1082 -1113 0
-1082 -1114 0
-1082 -1115 0
-1082 -1116 0
-1082 -1117 0
-1082 -1118 0
-1082 -1119 0
-1082 -1120 0
-1082 -1121 0
-1082 -1122 0
-1082 -1123 0
-1082 -1124 0
-1082 -1125 0
-1082 -1126 0
-1082 -1127 0
-1083 -1084 0
-1083 -1085 0
-1083 -1086 0
-1083 -1087 0
-1083 -1088 0
-1083 -1089 0
-1083 -1090 0
-1083 -1091 0
-1083 -1092 0
-1083 -1093 0
-1083 -1094 0
-1083 -1095 0
-1083 -1096 0
-1083 -1097 0
-1083 -1098 0
-1083 -1099 0
-1083 -1100 0
-1083 -1101 0
-1083 -1102 0
-1083 -1103 0
-1083 -1104 0
-1083 -1105 0
-1083 -1106 0
-1083 -1107 0
-1083 -1108 0
-1083 -1109 0
-1083 -1110 0
-1083 -1111 0
-1083 -1112 0
-1083 -1113 0
-1083 -1114 0
-1083 -1115 0
-1083 -1116 0
-1083 -1117 0
-1083 -1118 0
-1083 -1119 0
-1083 -1120 0
-1083 -1121 0
-1083 -1122 0
-1083 -1123 0
-1083 -1124 0
-1083 -1125 0
-1083 -1126 0
-1083 -1127 0
-1084 -1085 0
-1084 -1086 0
-1084 -1087 0
-1084 -1088 0
-1084 -1089 0
-1084 -1090 0
-1084 -1091 0
-1084 -1092 0
-1084 -1093 0
-1084 -1094 0
-1084 -1095 0
-1084 -1096 0
-1084 -1097 0
-1084 -1098 0
-1084 -1099 0
-1084 -1100 0
-1084 -1101 0
-1084 -1102 0
-1084 -1103 0
-1084 -1104 0
-1084 -1105 0
-1084 -1106 0
-1084 -1107 0
-1084 -1108 0
-1084 -1109 0
-1084 -1110 0
-1084 -1111 0
-1084 -1112 0
-1084 -1113 0
-1084 -1114 0
-1084 -1115 0
-1084 -1116 0
-1084 -1117 0
-1084 -1118 0
-1084 -1119 0
-1084 -1120 0
-1084 -1121 0
-1084 -1122 0
-1084 -1123 0
-1084 -1124 0
-1084 -1125 0
-1084 -1126 0
-1084 -1127 0
-1085 -1086 0
-1085 -1087 0
-1085 -1088 0
-1085 -1089 0
-1085 -1090 0
-1085 -1091 0
-1085 -1092 0
-1085 -1093 0
-1085 -1094 0
-1085 -1095 0
-1085 -1096 0
-1085 -1097 0
-1085 -1098 0
-1085 -1099 0
-1085 -1100 0
-1085 -1101 0
-1085 -1102 0
-1085 -1103 0
-1085 -1104 0
-1085 -1105 0
-1085 -1106 0
-1085 -1107 0
-1085 -1108 0
-1085 -1109 0
-1085 -1110 0
-1085 -1111 0
-1085 -1112 0
-1085 -1113 0
-1085 -1114 0
-1085 -1115 0
-1085 -1116 0
-1085 -1117 0
-1085 -1118 0
-1085 -1119 0
-1085 -1120 0
-1085 -1121 0
-1085 -1122 0
-1085 -1123 0
-1085 -1124 0
-1085 -1125 0
-1085 -1126 0
-1085 -1127 0
-1086 -1087 0
-1086 -1088 0
-1086 -1089 0
-1086 -1090 0
-1086 -1091 0
-1086 -1092 0
-1086 -1093 0
-1086 -1094 0
-1086 -1095 0
-1086 -1096 0
-1086 -1097 0
-1086 -1098 0
-1086 -1099 0
-1086 -1100 0
-1086 -1101 0
-1086 -1102 0
-1086 -1103 0
-1086 -1104 0
-1086 -1105 0
-1086 -1106 0
-1086 -1107 0
-1086 -1108 0
-1086 -1109 0
-1086 -1110 0
-1086 -1111 0
-1086 -1112 0
-1086 -1113 0
-1086 -1114 0
-1086 -1115 0
-1086 -1116 0
-1086 -1117 0
-1086 -1118 0
-1086 -1119 0
-1086 -1120 0
-1086 -1121 0
-1086 -1122 0
-1086 -1123 0
-1086 -1124 0
-1086 -1125 0
-1086 -1126 0
-1086 -1127 0
-1087 -1088 0
-1087 -1089 0
-1087 -1090 0
-1087 -1091 0
-1087 -1092 0
-1087 -1093 0
-1087 -1094 0
-1087 -1095 0
-1087 -1096 0
-1087 -1097 0
-1087 -1098 0
-1087 -1099 0
-1087 -1100 0
-1087 -1101 0
-1087 -1102 0
-1087 -1103 0
-1087 -1104 0
-1087 -1105 0
-1087 -1106 0
-1087 -1107 0
-1087 -1108 0
-1087 -1109 0
-1087 -1110 0
-1087 -1111 0
-1087 -1112 0
-1087 -1113 0
-1087 -1114 0
-1087 -1115 0
-1087 -1116 0
-1087 -1117 0
-1087 -1118 0
-1087 -1119 0
-1087 -1120 0
-1087 -1121 0
-1087 -1122 0
-1087 -1123 0
-1087 -1124 0
-1087 -1125 0
-1087 -1126 0
-1087 -1127 0
-1088 -1089 0
-1088 -1090 0
-1088 -1091 0
-1088 -1092 0
-1088 -1093 0
-1088 -1094 0
-1088 -1095 0
-1088 -1096 0
-1088 -1097 0
-1088 -1098 0
-1088 -1099 0
-1088 -1100 0
-1088 -1101 0
-1088 -1102 0
-1088 -1103 0
-1088 -1104 0
-1088 -1105 0
-1088 -1106 0
-1088 -1107 0
-1088 -1108 0
-1088 -1109 0
-1088 -1110 0
-1088 -1111 0
-1088 -1112 0
-1088 -1113 0
-1088 -1114 0
-1088 -1115 0
-1088 -1116 0
-1088 -1117 0
-1088 -1118 0
-1088 -1119 0
-1088 -1120 0
-1088 -1121 0
-1088 -1122 0
-1088 -1123 0
-1088 -1124 0
-1088 -1125 0
-1088 -1126 0
-1088 -1127 0
-1089 -1090 0
-1089 -1091 0
-1089 -1092 0
-1089 -1093 0
-1089 -1094 0
-1089 -1095 0
-1089 -1096 0
-1089 -1097 0
-1089 -1098 0
-1089 -1099 0
-1089 -1100 0
-1089 -1101 0
-1089 -1102 0
-1089 -1103 0
-1089 -1104 0
-1089 -1105 0
-1089 -1106 0
-1089 -1107 0
-1089 -1108 0
-1089 -1109 0
-1089 -1110 0
-1089 -1111 0
-1089 -1112 0
-1089 -1113 0
-1089 -1114 0
-1089 -1115 0
-1089 -1116 0
-1089 -1117 0
-1089 -1118 0
-1089 -1119 0
-1089 -1120 0
-1089 -1121 0
-1089 -1122 0
-1089 -1123 0
-1089 -1124 0
-1089 -1125 0
-1089 -1126 0
-1089 -1127 0
-1090 -1091 0
-1090 -1092 0
-1090 -1093 0
-1090 -1094 0
-1090 -1095 0
-1090 -1096 0
-1090 -1097 0
-1090 -1098 0
-1090 -1099 0
-1090 -1100 0
-1090 -1101 0
-1090 -1102 0
-1090 -1103 0
-1090 -1104 0
-1090 -1105 0
-1090 -1106 0
-1090 -1107 0
-1090 -1108 0
-1090 -1109 0
-1090 -1110 0
-1090 -1111 0
-1090 -1112 0
-1090 -1113 0
-1090 -1114 0
-1090 -1115 0
-1090 -1116 0
-1090 -1117 0
-1090 -1118 0
-1090 -1119 0
-1090 -1120 0
-1090 -1121 0
-1090 -1122 0
-1090 -1123 0
-1090 -1124 0
-1090 -1125 0
-1090 -1126 0
-1090 -1127 0
-1091 -1092 0
-1091 -1093 0
-1091 -1094 0
-1091 -1095 0
-1091 -1096 0
-1091 -1097 0
-1091 -1098 0
-1091 -1099 0
-1091 -1100 0
-1091 -1101 0
-1091 -1102 0
-1091 -1103 0
-1091 -1104 0
-1091 -1105 0
-1091 -1106 0
-1091 -1107 0
-1091 -1108 0
-1091 -1109 0
-1091 -1110 0
-1091 -1111 0
-1091 -1112 0
-1091 -1113 0
-1091 -1114 0
-1091 -1115 0
-1091 -1116 0
-1091 -1117 0
-1091 -1118 0
-1091 -1119 0
-1091 -1120 0
-1091 -1121 0
-1091 -1122 0
-1091 -1123 0
-1091 -1124 0
-1091 -1125 0
-1091 -1126 0
-1091 -1127 0
-1092 -1093 0
-1092 -1094 0
-1092 -1095 0
-1092 -1096 0
-1092 -1097 0
-1092 -1098 0
-1092 -1099 0
-1092 -1100 0
-1092 -1101 0
-1092 -1102 0
-1092 -1103 0
-1092 -1104 0
-1092 -1105 0
-1092 -1106 0
-1092 -1107 0
-1092 -1108 0
-1092 -1109 0
-1092 -1110 0
-1092 -1111 0
-1092 -1112 0
-1092 -1113 0
-1092 -1114 0
-1092 -1115 0
-1092 -1116 0
-1092 -1117 0
-1092 -1118 0
-1092 -1119 0
-1092 -1120 0
-1092 -1121 0
-1092 -1122 0
-1092 -1123 0
-1092 -1124 0
-1092 -1125 0
-1092 -1126 0
-1092 -1127 0
-1093 -1094 0
-1093 -1095 0
-1093 -1096 0
-1093 -1097 0
-1093 -1098 0
-1093 -1099 0
-1093 -1100 0
-1093 -1101 0
-1093 -1102 0
-1093 -1103 0
-1093 -1104 0
-1093 -1105 0
-1093 -1106 0
-1093 -1107 0
-1093 -1108 0
-1093 -1109 0
-1093 -1110 0
-1093 -1111 0
-1093 -1112 0
-1093 -1113 0
-1093 -1114 0
-1093 -1115 0
-1093 -1116 0
-1093 -1117 0
-1093 -1118 0
-1093 -1119 0
-1093 -1120 0
-1093 -1121 0
-1093 -1122 0
-1093 -1123 0
-1093 -1124 0
-1093 -1125 0
-1093 -1126 0
-1093 -1127 0
-1094 -1095 0
-1094 -1096 0
-1094 -1097 0
-1094 -1098 0
-1094 -1099 0
-1094 -1100 0
-1094 -1101 0
-1094 -1102 0
-1094 -1103 0
-1094 -1104 0
-1094 -1105 0
-1094 -1106 0
-1094 -1107 0
-1094 -1108 0
-1094 -1109 0
-1094 -1110 0
-1094 -1111 0
-1094 -1112 0
-1094 -1113 0
-1094 -1114 0
-1094 -1115 0
-1094 -1116 0
-1094 -1117 0
-1094 -1118 0
-1094 -1119 0
-1094 -1120 0
-1094 -1121 0
-1094 -1122 0
-1094 -1123 0
-1094 -1124 0
-1094 -1125 0
-1094 -1126 0
-1094 -1127 0
-1095 -1096 0
-1095 -1097 0
-1095 -1098 0
-1095 -1099 0
-1095 -1100 0
-1095 -1101 0
-1095 -1102 0
-1095 -1103 0
-1095 -1104 0
-1095 -1105 0
-1095 -1106 0
-1095 -1107 0
-1095 -1108 0
-1095 -1109 0
-1095 -1110 0
-1095 -1111 0
-1095 -1112 0
-1095 -1113 0
-1095 -1114 0
-1095 -1115 0
-1095 -1116 0
-1095 -1117 0
-1095 -1118 0
-1095 -1119 0
-1095 -1120 0
-1095 -1121 0
-1095 -1122 0
-1095 -1123 0
-1095 -1124 0
-1095 -1125 0
-1095 -1126 0
-1095 -1127 0
-1096 -1097 0
-1096 -1098 0
-1096 -1099 0
-1096 -1100 0
-1096 -1101 0
-1096 -1102 0
-1096 -1103 0
-1096 -1104 0
-1096 -1105 0
-1096 -1106 0
-1096 -1107 0
-1096 -1108 0
-1096 -1109 0
-1096 -1110 0
-1096 -1111 0
-1096 -1112 0
-1096 -1113 0
-1096 -1114 0
-1096 -1115 0
-1096 -1116 0
-1096 -1117 0
-1096 -1118 0
-1096 -1119 0
-1096 -1120 0
-1096 -1121 0
-1096 -1122 0
-1096 -1123 0
-1096 -1124 0
-1096 -1125 0
-1096 -1126 0
-1096 -1127 0
-1097 -1098 0
-1097 -1099 0
-1097 -1100 0
-1097 -1101 0
-1097 -1102 0
-1097 -1103 0
-1097 -1104 0
-1097 -1105 0
-1097 -1106 0
-1097 -1107 0
-1097 -1108 0
-1097 -1109 0
-1097 -1110 0
-1097 -1111 0
-1097 -1112 0
-1097 -1113 0
-1097 -1114 0
-1097 -1115 0
-1097 -1116 0
-1097 -1117 0
-1097 -1118 0
-1097 -1119 0
-1097 -1120 0
-1097 -1121 0
-1097 -1122 0
-1097 -1123 0
-1097 -1124 0
-1097 -1125 0
-1097 -1126 0
-1097 -1127 0
-1098 -1099 0
-1098 -1100 0
-1098 -1101 0
-1098 -1102 0
-1098 -1103 0
-1098 -1104 0
-1098 -1105 0
-1098 -1106 0
-1098 -1107 0
-1098 -1108 0
-1098 -1109 0
-1098 -1110 0
-1098 -1111 0
-1098 -1112 0
-1098 -1113 0
-1098 -1114 0
-1098 -1115 0
-1098 -1116 0
-1098 -1117 0
-1098 -1118 0
-1098 -1119 0
-1098 -1120 0
-1098 -1121 0
-1098 -1122 0
-1098 -1123 0
-1098 -1124 0
-1098 -1125 0
-1098 -1126 0
-1098 -1127 0
-1099 -1100 0
-1099 -1101 0
-1099 -1102 0
-1099 -1103 0
-1099 -1104 0
-1099 -1105 0
-1099 -1106 0
-1099 -1107 0
-1099 -1108 0
-1099 -1109 0
-1099 -1110 0
-1099 -1111 0
-1099 -1112 0
-1099 -1113 0
-1099 -1114 0
-1099 -1115 0
-1099 -1116 0
-1099 -1117 0
-1099 -1118 0
-1099 -1119 0
-1099 -1120 0
-1099 -1121 0
-1099 -1122 0
-1099 -1123 0
-1099 -1124 0
-1099 -1125 0
-1099 -1126 0
-1099 -1127 0
-1100 -1101 0
-1100 -1102 0
-1100 -1103 0
-1100 -1104 0
-1100 -1105 0
-1100 -1106 0
-1100 -1107 0
-1100 -1108 0
-1100 -1109 0
-1100 -1110 0
-1100 -1111 0
-1100 -1112 0
-1100 -1113 0
-1100 -1114 0
-1100 -1115 0
-1100 -1116 0
-1100 -1117 0
-1100 -1118 0
-1100 -1119 0
-1100 -1120 0
-1100 -1121 0
-1100 -1122 0
-1100 -1123 0
-1100 -1124 0
-1100 -1125 0
-1100 -1126 0
-1100 -1127 0
-1101 -1102 0
-1101 -1103 0
-1101 -1104 0
-1101 -1105 0
-1101 -1106 0
-1101 -1107 0
-1101 -1108 0
-1101 -1109 0
-1101 -1110 0
-1101 -1111 0
-1101 -1112 0
-1101 -1113 0
-1101 -1114 0
-1101 -1115 0
-1101 -1116 0
-1101 -1117 0
-1101 -1118 0
-1101 -1119 0
-1101 -1120 0
-1101 -1121 0
-1101 -1122 0
-1101 -1123 0
-1101 -1124 0
-1101 -1125 0
-1101 -1126 0
-1101 -1127 0
-1102 -1103 0
-1102 -1104 0
-1102 -1105 0
-1102 -1106 0
-1102 -1107 0
-1102 -1108 0
-1102 -1109 0
-1102 -1110 0
-1102 -1111 0
-1102 -1112 0
-1102 -1113 0
-1102 -1114 0
-1102 -1115 0
-1102 -1116 0
-1102 -1117 0
-1102 -1118 0
-1102 -1119 0
-1102 -1120 0
-1102 -1121 0
-1102 -1122 0
-1102 -1123 0
-1102 -1124 0
-1102 -1125 0
-1102 -1126 0
-1102 -1127 0
-1103 -1104 0
-1103 -1105 0
-1103 -1106 0
-1103 -1107 0
-1103 -1108 0
-1103 -1109 0
-1103 -1110 0
-1103 -1111 0
-1103 -1112 0
-1103 -1113 0
-1103 -1114 0
-1103 -1115 0
-1103 -1116 0
-1103 -1117 0
-1103 -1118 0
-1103 -1119 0
-1103 -1120 0
-1103 -1121 0
-1103 -1122 0
-1103 -1123 0
-1103 -1124 0
-1103 -1125 0
-1103 -1126 0
-1103 -1127 0
-1104 -1105 0
-1104 -1106 0
-1104 -1107 0
-1104 -1108 0
-1104 -1109 0
-1104 -1110 0
-1104 -1111 0
-1104 -1112 0
-1104 -1113 0
-1104 -1114 0
-1104 -1115 0
-1104 -1116 0
-1104 -1117 0
-1104 -1118 0
-1104 -1119 0
-1104 -1120 0
-1104 -1121 0
-1104 -1122 0
-1104 -1123 0
-1104 -1124 0
-1104 -1125 0
-1104 -1126 0
-1104 -1127 0
-1105 -1106 0
-1105 -1107 0
-1105 -1108 0
-1105 -1109 0
-1105 -1110 0
-1105 -1111 0
-1105 -1112 0
-1105 -1113 0
-1105 -1114 0
-1105 -1115 0
-1105 -1116 0
-1105 -1117 0
-1105 -1118 0
-1105 -1119 0
-1105 -1120 0
-1105 -1121 0
-1105 -1122 0
-1105 -1123 0
-1105 -1124 0
-1105 -1125 0
-1105 -1126 0
-1105 -1127 0
-1106 -1107 0
-1106 -1108 0
-1106 -1109 0
-1106 -1110 0
-1106 -1111 0
-1106 -1112 0
-1106 -1113 0
-1106 -1114 0
-1106 -1115 0
-1106 -1116 0
-1106 -1117 0
-1106 -1118 0
-1106 -1119 0
-1106 -1120 0
-1106 -1121 0
-1106 -1122 0
-1106 -1123 0
-1106 -1124 0
-1106 -1125 0
-1106 -1126 0
-1106 -1127 0
-1107 -1108 0
-1107 -1109 0
-1107 -1110 0
-1107 -1111 0
-1107 -1112 0
-1107 -1113 0
-1107 -1114 0
-1107 -1115 0
-1107 -1116 0
-1107 -1117 0
-1107 -1118 0
-1107 -1119 0
-1107 -1120 0
-1107 -1121 0
-1107 -1122 0
-1107 -1123 0
-1107 -1124 0
-1107 -1125 0
-1107 -1126 0
-1107 -1127 0
-1108 -1109 0
-1108 -1110 0
-1108 -1111 0
-1108 -1112 0
-1108 -1113 0
-1108 -1114 0
-1108 -1115 0
-1108 -1116 0
-1108 -1117 0
-1108 -1118 0
-1108 -1119 0
-1108 -1120 0
-1108 -1121 0
-1108 -1122 0
-1108 -1123 0
-1108 -1124 0
-1108 -1125 0
-1108 -1126 0
-1108 -1127 0
-1109 -1110 0
-1109 -1111 0
-1109 -1112 0
-1109 -1113 0
-1109 -1114 0
-1109 -1115 0
-1109 -1116 0
-1109 -1117 0
-1109 -1118 0
-1109 -1119 0
-1109 -1120 0
-1109 -1121 0
-1109 -1122 0
-1109 -1123 0
-1109 -1124 0
-1109 -1125 0
-1109 -1126 0
-1109 -1127 0
-1110 -1111 0
-1110 -1112 0
-1110 -1113 0
-1110 -1114 0
-1110 -1115 0
-1110 -1116 0
-1110 -1117 0
-1110 -1118 0
-1110 -1119 0
-1110 -1120 0
-1110 -1121 0
-1110 -1122 0
-1110 -1123 0
-1110 -1124 0
-1110 -1125 0
-1110 -1126 0
-1110 -1127 0
-1111 -1112 0
-1111 -1113 0
-1111 -1114 0
-1111 -1115 0
-1111 -1116 0
-1111 -1117 0
-1111 -1118 0
-1111 -1119 0
-1111 -1120 0
-1111 -1121 0
-1111 -1122 0
-1111 -1123 0
-1111 -1124 0
-1111 -1125 0
-1111 -1126 0
-1111 -1127 0
-1112 -1113 0
-1112 -1114 0
-1112 -1115 0
-1112 -1116 0
-1112 -1117 0
-1112 -1118 0
-1112 -1119 0
-1112 -1120 0
-1112 -1121 0
-1112 -1122 0
-1112 -1123 0
-1112 -1124 0
-1112 -1125 0
-1112 -1126 0
-1112 -1127 0
-1113 -1114 0
-1113 -1115 0
-1113 -1116 0
-1113 -1117 0
-1113 -1118 0
-1113 -1119 0
-1113 -1120 0
-1113 -1121 0
-1113 -1122 0
-1113 -1123 0
-1113 -1124 0
-1113 -1125 0
-1113 -1126 0
-1113 -1127 0
-1114 -1115 0
-1114 -1116 0
-1114 -1117 0
-1114 -1118 0
-1114 -1119 0
-1114 -1120 0
-1114 -1121 0
-1114 -1122 0
-1114 -1123 0
-1114 -1124 0
-1114 -1125 0
-1114 -1126 0
-1114 -1127 0
-1115 -1116 0
-1115 -1117 0
-1115 -1118 0
-1115 -1119 0
-1115 -1120 0
-1115 -1121 0
-1115 -1122 0
-1115 -1123 0
-1115 -1124 0
-1115 -1125 0
-1115 -1126 0
-1115 -1127 0
-1116 -1117 0
-1116 -1118 0
-1116 -1119 0
-1116 -1120 0
-1116 -1121 0
-1116 -1122 0
-1116 -1123 0
-1116 -1124 0
-1116 -1125 0
-1116 -1126 0
-1116 -1127 0
-1117 -1118 0
-1117 -1119 0
-1117 -1120 0
-1117 -1121 0
-1117 -1122 0
-1117 -1123 0
-1117 -1124 0
-1117 -1125 0
-1117 -1126 0
-1117 -1127 0
-1118 -1119 0
-1118 -1120 0
-1118 -1121 0
-1118 -1122 0
-1118 -1123 0
-1118 -1124 0
-1118 -1125 0
-1118 -1126 0
-1118 -1127 0
-1119 -1120 0
-1119 -1121 0
-1119 -1122 0
-1119 -1123 0
-1119 -1124 0
-1119 -1125 0
-1119 -1126 0
-1119 -1127 0
-1120 -1121 0
-1120 -1122 0
-1120 -1123 0
-1120 -1124 0
-1120 -1125 0
-1120 -1126 0
-1120 -1127 0
-1121 -1122 0
-1121 -1123 0
-1121 -1124 0
-1121 -1125 0
-1121 -1126 0
-1121 -1127 0
-1122 -1123 0
-1122 -1124 0
-1122 -1125 0
-1122 -1126 0
-1122 -1127 0
-1123 -1124 0
-1123 -1125 0
-1123 -1126 0
-1123 -1127 0
-1124 -1125 0
-1124 -1126 0
-1124 -1127 0
-1125 -1126 0
-1125 -1127 0
-1126 -1127 0
-1128 1044 1045 1046 1047 1048 1049 1050 1051 1052 1053 1054 1055 1056 1057 1058 1059 1060 1061 1062 1063 1064 1065 1066 1067 0
-1044 1128 0
-1045 1128 0
-1046 1128 0
-1047 1128 0
-1048 1128 0
-1049 1128 0
-1050 1128 0
-1051 1128 0
-1052 1128 0
-1053 1128 0
-1054 1128 0
-1055 1128 0
-1056 1128 0
-1057 1128 0
-1058 1128 0
-1059 1128 0
-1060 1128 0
-1061 1128 0
-1062 1128 0
-1063 1128 0
-1064 1128 0
-1065 1128 0
-1066 1128 0
-1067 1128 0
1128 -1 150 0
1128 1 -150 0
1128 -2 151 0
1128 2 -151 0
1128 -3 152 0
1128 3 -152 0
1128 -4 153 0
1128 4 -153 0
1128 -5 154 0
1128 5 -154 0
1128 -6 155 0
1128 6 -155 0
1128 -7 156 0
1128 7 -156 0
1128 -8 157 0
1128 8 -157 0
1128 -9 158 0
1128 9 -158 0
1128 -10 159 0
1128 10 -159 0
-1129 1068 1069 1070 1071 1072 1073 1074 1075 1076 1077 1078 1079 1080 1081 1082 1083 1084 1085 1086 1087 1088 1089 1090 1091 0
-1068 1129 0
-1069 1129 0
-1070 1129 0
-1071 1129 0
-1072 1129 0
-1073 1129 0
-1074 1129 0
-1075 1129 0
-1076 1129 0
-1077 1129 0
-1078 1129 0
-1079 1129 0
-1080 1129 0
-1081 1129 0
-1082 1129 0
-1083 1129 0
-1084 1129 0
-1085 1129 0
-1086 1129 0
-1087 1129 0
-1088 1129 0
-1089 1129 0
-1090 1129 0
-1091 1129 0
1129 -11 160 0
1129 11 -160 0
1129 -12 161 0
1129 12 -161 0
1129 -13 162 0
1129 13 -162 0
1129 -14 163 0
1129 14 -163 0
1129 -15 164 0
1129 15 -164 0
1129 -16 165 0
1129 16 -165 0
1129 -17 166 0
1129 17 -166 0
1129 -18 167 0
1129 18 -167 0
1129 -19 168 0
1129 19 -168 0
1129 -20 169 0
1129 20 -169 0
-1130 1092 1093 1094 1095 1096 1097 1098 1099 1100 1101 1102 1103 1104 1105 1106 1107 1108 1109 1110 1111 0
-1092 1130 0
-1093 1130 0
-1094 1130 0
-1095 1130 0
-1096 1130 0
-1097 1130 0
-1098 1130 0
-1099 1130 0
-1100 1130 0
-1101 1130 0
-1102 1130 0
-1103 1130 0
-1104 1130 0
-1105 1130 0
-1106 1130 0
-1107 1130 0
-1108 1130 0
-1109 1130 0
-1110 1130 0
-1111 1130 0
1130 -21 170 0
1130 21 -170 0
1130 -22 171 0
1130 22 -171 0
1130 -23 172 0
1130 23 -172 0
1130 -24 173 0
1130 24 -173 0
1130 -25 174 0
1130 25 -174 0
1130 -26 175 0
1130 26 -175 0
1130 -27 176 0
1130 27 -176 0
1130 -28 177 0
1130 28 -177 0
1130 -29 178 0
1130 29 -178 0
-1131 1112 1113 1114 1115 1116 1117 1118 1119 1120 1121 1122 1123 1124 1125 1126 1127 0
-1112 1131 0
-1113 1131 0
-1114 1131 0
-1115 1131 0
-1116 1131 0
-1117 1131 0
-1118 1131 0
-1119 1131 0
-1120 1131 0
-1121 1131 0
-1122 1131 0
-1123 1131 0
-1124 1131 0
-1125 1131 0
-1126 1131 0
-1127 1131 0
1131 -30 179 0
1131 30 -179 0
1131 -31 180 0
1131 31 -180 0
1131 -32 181 0
1131 32 -181 0
1131 -33 182 0
1131 33 -182 0
1131 -34 183 0
1131 34 -183 0
1131 -35 184 0
1131 35 -184 0
1131 -36 185 0
1131 36 -185 0
1131 -37 186 0
1131 37 -186 0
-1044 146 0
-1044 150 0
-1044 -12 0
-1044 -13 0
-1044 -14 0
-1044 -15 0
-1044 -16 0
-1044 -20 0
-1044 -17 157 0
-1044 -17 -1 -8 0
-1044 -17 -63 0
-1044 -17 -64 0
-1044 -17 -65 0
-1044 -17 -87 0
-1044 -17 -88 0
-1044 -17 -89 0
-1044 -17 -107 0
-1044 -17 -108 0
-1044 -17 -109 0
-1044 -18 158 0
-1044 -18 -1 -9 0
-1044 -18 -64 0
-1044 -18 -65 0
-1044 -18 -88 0
-1044 -18 -89 0
-1044 -18 -108 0
-1044 -18 -109 0
-1044 -19 159 0
-1044 -19 -1 -10 0
-1044 -19 -65 0
-1044 -19 -89 0
-1044 -19 -109 0
-1045 146 0
-1045 151 0
-1045 -11 0
-1045 -13 0
-1045 -14 0
-1045 -15 0
-1045 -16 0
-1045 -20 0
-1045 -17 157 0
-1045 -17 -2 -8 0
-1045 -17 -67 0
-1045 -17 -68 0
-1045 -17 -69 0
-1045 -17 -87 0
-1045 -17 -88 0
-1045 -17 -89 0
-1045 -17 -91 0
-1045 -17 -92 0
-1045 -17 -93 0
-1045 -17 -107 0
-1045 -17 -108 0
-1045 -17 -109 0
-1045 -17 -111 0
-1045 -17 -112 0
-1045 -17 -113 0
-1045 -18 158 0
-1045 -18 -2 -9 0
-1045 -18 -68 0
-1045 -18 -69 0
-1045 -18 -88 0
-1045 -18 -89 0
-1045 -18 -92 0
-1045 -18 -93 0
-1045 -18 -108 0
-1045 -18 -109 0
-1045 -18 -112 0
-1045 -18 -113 0
-1045 -19 159 0
-1045 -19 -2 -10 0
-1045 -19 -69 0
-1045 -19 -89 0
-1045 -19 -93 0
-1045 -19 -109 0
-1045 -19 -113 0
-1046 146 0
-1046 152 0
-1046 -11 0
-1046 -12 0
-1046 -14 0
-1046 -15 0
-1046 -16 0
-1046 -20 0
-1046 -17 157 0
-1046 -17 -3 -8 0
-1046 -17 -71 0
-1046 -17 -72 0
-1046 -17 -73 0
-1046 -17 -91 0
-1046 -17 -92 0
-1046 -17 -93 0
-1046 -17 -95 0
-1046 -17 -96 0
-1046 -17 -97 0
-1046 -17 -107 0
-1046 -17 -108 0
-1046 -17 -109 0
-1046 -17 -111 0
-1046 -17 -112 0
-1046 -17 -113 0
-1046 -17 -115 0
-1046 -17 -116 0
-1046 -17 -117 0
-1046 -18 158 0
-1046 -18 -3 -9 0
-1046 -18 -72 0
-1046 -18 -73 0
-1046 -18 -92 0
-1046 -18 -93 0
-1046 -18 -96 0
-1046 -18 -97 0
-1046 -18 -108 0
-1046 -18 -109 0
-1046 -18 -112 0
-1046 -18 -113 0
-1046 -18 -116 0
-1046 -18 -117 0
-1046 -19 159 0
-1046 -19 -3 -10 0
-1046 -19 -73 0
-1046 -19 -93 0
-1046 -19 -97 0
-1046 -19 -109 0
-1046 -19 -113 0
-1046 -19 -117 0
-1047 146 0
-1047 153 0
-1047 -11 0
-1047 -12 0
-1047 -13 0
-1047 -15 0
-1047 -16 0
-1047 -20 0
-1047 -17 157 0
-1047 -17 -4 -8 0
-1047 -17 -75 0
-1047 -17 -76 0
-1047 -17 -77 0
-1047 -17 -95 0
-1047 -17 -96 0
-1047 -17 -97 0
-1047 -17 -99 0
-1047 -17 -100 0
-1047 -17 -101 0
-1047 -17 -111 0
-1047 -17 -112 0
-1047 -17 -113 0
-1047 -17 -115 0
-1047 -17 -116 0
-1047 -17 -117 0
-1047 -17 -119 0
-1047 -17 -120 0
-1047 -17 -121 0
-1047 -18 158 0
-1047 -18 -4 -9 0
-1047 -18 -76 0
-1047 -18 -77 0
-1047 -18 -96 0
-1047 -18 -97 0
-1047 -18 -100 0
-1047 -18 -101 0
-1047 -18 -112 0
-1047 -18 -113 0
-1047 -18 -116 0
-1047 -18 -117 0
-1047 -18 -120 0
-1047 -18 -121 0
-1047 -19 159 0
-1047 -19 -4 -10 0
-1047 -19 -77 0
-1047 -19 -97 0
-1047 -19 -101 0
-1047 -19 -113 0
-1047 -19 -117 0
-1047 -19 -121 0
-1048 146 0
-1048 154 0
-1048 -11 0
-1048 -12 0
-1048 -13 0
-1048 -14 0
-1048 -16 0
-1048 -20 0
-1048 -17 157 0
-1048 -17 -5 -8 0
-1048 -17 -79 0
-1048 -17 -80 0
-1048 -17 -81 0
-1048 -17 -99 0
-1048 -17 -100 0
-1048 -17 -101 0
-1048 -17 -103 0
-1048 -17 -104 0
-1048 -17 -105 0
-1048 -17 -115 0
-1048 -17 -116 0
-1048 -17 -117 0
-1048 -17 -119 0
-1048 -17 -120 0
-1048 -17 -121 0
-1048 -18 158 0
-1048 -18 -5 -9 0
-1048 -18 -80 0
-1048 -18 -81 0
-1048 -18 -100 0
-1048 -18 -101 0
-1048 -18 -104 0
-1048 -18 -105 0
-1048 -18 -116 0
-1048 -18 -117 0
-1048 -18 -120 0
-1048 -18 -121 0
-1048 -19 159 0
-1048 -19 -5 -10 0
-1048 -19 -81 0
-1048 -19 -101 0
-1048 -19 -105 0
-1048 -19 -117 0
-1048 -19 -121 0
-1049 146 0
-1049 155 0
-1049 -11 0
-1049 -12 0
-1049 -13 0
-1049 -14 0
-1049 -15 0
-1049 -20 0
-1049 -17 157 0
-1049 -17 -6 -8 0
-1049 -17 -83 0
-1049 -17 -84 0
-1049 -17 -85 0
-1049 -17 -103 0
-1049 -17 -104 0
-1049 -17 -105 0
-1049 -17 -119 0
-1049 -17 -120 0
-1049 -17 -121 0
-1049 -18 158 0
-1049 -18 -6 -9 0
-1049 -18 -84 0
-1049 -18 -85 0
-1049 -18 -104 0
-1049 -18 -105 0
-1049 -18 -120 0
-1049 -18 -121 0
-1049 -19 159 0
-1049 -19 -6 -10 0
-1049 -19 -85 0
-1049 -19 -105 0
-1049 -19 -121 0
-1050 146 0
-1050 150 0
-1050 -22 0
-1050 -23 0
-1050 -24 0
-1050 -25 0
-1050 -29 0
-1050 -26 157 0
-1050 -26 -1 -8 0
-1050 -26 -63 0
-1050 -26 -64 0
-1050 -26 -65 0
-1050 -26 -87 0
-1050 -26 -88 0
-1050 -26 -89 0
-1050 -26 -107 0
-1050 -26 -108 0
-1050 -26 -109 0
-1050 -27 158 0
-1050 -27 -1 -9 0
-1050 -27 -64 0
-1050 -27 -65 0
-1050 -27 -88 0
-1050 -27 -89 0
-1050 -27 -108 0
-1050 -27 -109 0
-1050 -28 159 0
-1050 -28 -1 -10 0
-1050 -28 -65 0
-1050 -28 -89 0
-1050 -28 -109 0
-1051 146 0
-1051 151 0
-1051 -23 0
-1051 -24 0
-1051 -25 0
-1051 -29 0
-1051 -26 157 0
-1051 -26 -2 -8 0
-1051 -26 -67 0
-1051 -26 -68 0
-1051 -26 -69 0
-1051 -26 -87 0
-1051 -26 -88 0
-1051 -26 -89 0
-1051 -26 -91 0
-1051 -26 -92 0
-1051 -26 -93 0
-1051 -26 -107 0
-1051 -26 -108 0
-1051 -26 -109 0
-1051 -26 -111 0
-1051 -26 -112 0
-1051 -26 -113 0
-1051 -27 158 0
-1051 -27 -2 -9 0
-1051 -27 -68 0
-1051 -27 -69 0
-1051 -27 -88 0
-1051 -27 -89 0
-1051 -27 -92 0
-1051 -27 -93 0
-1051 -27 -108 0
-1051 -27 -109 0
-1051 -27 -112 0
-1051 -27 -113 0
-1051 -28 159 0
-1051 -28 -2 -10 0
-1051 -28 -69 0
-1051 -28 -89 0
-1051 -28 -93 0
-1051 -28 -109 0
-1051 -28 -113 0
-1052 146 0
-1052 152 0
-1052 -21 0
-1052 -24 0
-1052 -25 0
-1052 -29 0
-1052 -26 157 0
-1052 -26 -3 -8 0
-1052 -26 -71 0
-1052 -26 -72 0
-1052 -26 -73 0
-1052 -26 -91 0
-1052 -26 -92 0
-1052 -26 -93 0
-1052 -26 -95 0
-1052 -26 -96 0
-1052 -26 -97 0
-1052 -26 -107 0
-1052 -26 -108 0
-1052 -26 -109 0
-1052 -26 -111 0
-1052 -26 -112 0
-1052 -26 -113 0
-1052 -26 -115 0
-1052 -26 -116 0
-1052 -26 -117 0
-1052 -27 158 0
-1052 -27 -3 -9 0
-1052 -27 -72 0
-1052 -27 -73 0
-1052 -27 -92 0
-1052 -27 -93 0
-1052 -27 -96 0
-1052 -27 -97 0
-1052 -27 -108 0
-1052 -27 -109 0
-1052 -27 -112 0
-1052 -27 -113 0
-1052 -27 -116 0
-1052 -27 -117 0
-1052 -28 159 0
-1052 -28 -3 -10 0
-1052 -28 -73 0
-1052 -28 -93 0
-1052 -28 -97 0
-1052 -28 -109 0
-1052 -28 -113 0
-1052 -28 -117 0
-1053 146 0
-1053 153 0
-1053 -21 0
-1053 -22 0
-1053 -25 0
-1053 -29 0
-1053 -26 157 0
-1053 -26 -4 -8 0
-1053 -26 -75 0
-1053 -26 -76 0
-1053 -26 -77 0
-1053 -26 -95 0
-1053 -26 -96 0
-1053 -26 -97 0
-1053 -26 -99 0
-1053 -26 -100 0
-1053 -26 -101 0
-1053 -26 -111 0
-1053 -26 -112 0
-1053 -26 -113 0
-1053 -26 -115 0
-1053 -26 -116 0
-1053 -26 -117 0
-1053 -26 -119 0
-1053 -26 -120 0
-1053 -26 -121 0
-1053 -27 158 0
-1053 -27 -4 -9 0
-1053 -27 -76 0
-1053 -27 -77 0
-1053 -27 -96 0
-1053 -27 -97 0
-1053 -27 -100 0
-1053 -27 -101 0
-1053 -27 -112 0
-1053 -27 -113 0
-1053 -27 -116 0
-1053 -27 -117 0
-1053 -27 -120 0
-1053 -27 -121 0
-1053 -28 159 0
-1053 -28 -4 -10 0
-1053 -28 -77 0
-1053 -28 -97 0
-1053 -28 -101 0
-1053 -28 -113 0
-1053 -28 -117 0
-1053 -28 -121 0
-1054 146 0
-1054 154 0
-1054 -21 0
-1054 -22 0
-1054 -23 0
-1054 -29 0
-1054 -26 157 0
-1054 -26 -5 -8 0
-1054 -26 -79 0
-1054 -26 -80 0
-1054 -26 -81 0
-1054 -26 -99 0
-1054 -26 -100 0
-1054 -26 -101 0
-1054 -26 -103 0
-1054 -26 -104 0
-1054 -26 -105 0
-1054 -26 -115 0
-1054 -26 -116 0
-1054 -26 -117 0
-1054 -26 -119 0
-1054 -26 -120 0
-1054 -26 -121 0
-1054 -27 158 0
-1054 -27 -5 -9 0
-1054 -27 -80 0
-1054 -27 -81 0
-1054 -27 -100 0
-1054 -27 -101 0
-1054 -27 -104 0
-1054 -27 -105 0
-1054 -27 -116 0
-1054 -27 -117 0
-1054 -27 -120 0
-1054 -27 -121 0
-1054 -28 159 0
-1054 -28 -5 -10 0
-1054 -28 -81 0
-1054 -28 -101 0
-1054 -28 -105 0
-1054 -28 -117 0
-1054 -28 -121 0
-1055 146 0
-1055 155 0
-1055 -21 0
-1055 -22 0
-1055 -23 0
-1055 -24 0
-1055 -29 0
-1055 -26 157 0
-1055 -26 -6 -8 0
-1055 -26 -83 0
-1055 -26 -84 0
-1055 -26 -85 0
-1055 -26 -103 0
-1055 -26 -104 0
-1055 -26 -105 0
-1055 -26 -119 0
-1055 -26 -120 0
-1055 -26 -121 0
-1055 -27 158 0
-1055 -27 -6 -9 0
-1055 -27 -84 0
-1055 -27 -85 0
-1055 -27 -104 0
-1055 -27 -105 0
-1055 -27 -120 0
-1055 -27 -121 0
-1055 -28 159 0
-1055 -28 -6 -10 0
-1055 -28 -85 0
-1055 -28 -105 0
-1055 -28 -121 0
-1056 146 0
-1056 150 0
-1056 -31 0
-1056 -32 0
-1056 -33 0
-1056 -37 0
-1056 -34 157 0
-1056 -34 -1 -8 0
-1056 -34 -63 0
-1056 -34 -64 0
-1056 -34 -65 0
-1056 -34 -87 0
-1056 -34 -88 0
-1056 -34 -89 0
-1056 -34 -107 0
-1056 -34 -108 0
-1056 -34 -109 0
-1056 -35 158 0
-1056 -35 -1 -9 0
-1056 -35 -64 0
-1056 -35 -65 0
-1056 -35 -88 0
-1056 -35 -89 0
-1056 -35 -108 0
-1056 -35 -109 0
-1056 -36 159 0
-1056 -36 -1 -10 0
-1056 -36 -65 0
-1056 -36 -89 0
-1056 -36 -109 0
-1057 146 0
-1057 151 0
-1057 -32 0
-1057 -33 0
-1057 -37 0
-1057 -34 157 0
-1057 -34 -2 -8 0
-1057 -34 -67 0
-1057 -34 -68 0
-1057 -34 -69 0
-1057 -34 -87 0
-1057 -34 -88 0
-1057 -34 -89 0
-1057 -34 -91 0
-1057 -34 -92 0
-1057 -34 -93 0
-1057 -34 -107 0
-1057 -34 -108 0
-1057 -34 -109 0
-1057 -34 -111 0
-1057 -34 -112 0
-1057 -34 -113 0
-1057 -35 158 0
-1057 -35 -2 -9 0
-1057 -35 -68 0
-1057 -35 -69 0
-1057 -35 -88 0
-1057 -35 -89 0
-1057 -35 -92 0
-1057 -35 -93 0
-1057 -35 -108 0
-1057 -35 -109 0
-1057 -35 -112 0
-1057 -35 -113 0
-1057 -36 159 0
-1057 -36 -2 -10 0
-1057 -36 -69 0
-1057 -36 -89 0
-1057 -36 -93 0
-1057 -36 -109 0
-1057 -36 -113 0
-1058 146 0
-1058 152 0
-1058 -33 0
-1058 -37 0
-1058 -34 157 0
-1058 -34 -3 -8 0
-1058 -34 -71 0
-1058 -34 -72 0
-1058 -34 -73 0
-1058 -34 -91 0
-1058 -34 -92 0
-1058 -34 -93 0
-1058 -34 -95 0
-1058 -34 -96 0
-1058 -34 -97 0
-1058 -34 -107 0
-1058 -34 -108 0
-1058 -34 -109 0
-1058 -34 -111 0
-1058 -34 -112 0
-1058 -34 -113 0
-1058 -34 -115 0
-1058 -34 -116 0
-1058 -34 -117 0
-1058 -35 158 0
-1058 -35 -3 -9 0
-1058 -35 -72 0
-1058 -35 -73 0
-1058 -35 -92 0
-1058 -35 -93 0
-1058 -35 -96 0
-1058 -35 -97 0
-1058 -35 -108 0
-1058 -35 -109 0
-1058 -35 -112 0
-1058 -35 -113 0
-1058 -35 -116 0
-1058 -35 -117 0
-1058 -36 159 0
-1058 -36 -3 -10 0
-1058 -36 -73 0
-1058 -36 -93 0
-1058 -36 -97 0
-1058 -36 -109 0
-1058 -36 -113 0
-1058 -36 -117 0
-1059 146 0
-1059 153 0
-1059 -30 0
-1059 -37 0
-1059 -34 157 0
-1059 -34 -4 -8 0
-1059 -34 -75 0
-1059 -34 -76 0
-1059 -34 -77 0
-1059 -34 -95 0
-1059 -34 -96 0
-1059 -34 -97 0
-1059 -34 -99 0
-1059 -34 -100 0
-1059 -34 -101 0
-1059 -34 -111 0
-1059 -34 -112 0
-1059 -34 -113 0
-1059 -34 -115 0
-1059 -34 -116 0
-1059 -34 -117 0
-1059 -34 -119 0
-1059 -34 -120 0
-1059 -34 -121 0
-1059 -35 158 0
-1059 -35 -4 -9 0
-1059 -35 -76 0
-1059 -35 -77 0
-1059 -35 -96 0
-1059 -35 -97 0
-1059 -35 -100 0
-1059 -35 -101 0
-1059 -35 -112 0
-1059 -35 -113 0
-1059 -35 -116 0
-1059 -35 -117 0
-1059 -35 -120 0
-1059 -35 -121 0
-1059 -36 159 0
-1059 -36 -4 -10 0
-1059 -36 -77 0
-1059 -36 -97 0
-1059 -36 -101 0
-1059 -36 -113 0
-1059 -36 -117 0
-1059 -36 -121 0
-1060 146 0
-1060 154 0
-1060 -30 0
-1060 -31 0
-1060 -37 0
-1060 -34 157 0
-1060 -34 -5 -8 0
-1060 -34 -79 0
-1060 -34 -80 0
-1060 -34 -81 0
-1060 -34 -99 0
-1060 -34 -100 0
-1060 -34 -101 0
-1060 -34 -103 0
-1060 -34 -104 0
-1060 -34 -105 0
-1060 -34 -115 0
-1060 -34 -116 0
-1060 -34 -117 0
-1060 -34 -119 0
-1060 -34 -120 0
-1060 -34 -121 0
-1060 -35 158 0
-1060 -35 -5 -9 0
-1060 -35 -80 0
-1060 -35 -81 0
-1060 -35 -100 0
-1060 -35 -101 0
-1060 -35 -104 0
-1060 -35 -105 0
-1060 -35 -116 0
-1060 -35 -117 0
-1060 -35 -120 0
-1060 -35 -121 0
-1060 -36 159 0
-1060 -36 -5 -10 0
-1060 -36 -81 0
-1060 -36 -101 0
-1060 -36 -105 0
-1060 -36 -117 0
-1060 -36 -121 0
-1061 146 0
-1061 155 0
-1061 -30 0
-1061 -31 0
-1061 -32 0
-1061 -37 0
-1061 -34 157 0
-1061 -34 -6 -8 0
-1061 -34 -83 0
-1061 -34 -84 0
-1061 -34 -85 0
-1061 -34 -103 0
-1061 -34 -104 0
-1061 -34 -105 0
-1061 -34 -119 0
-1061 -34 -120 0
-1061 -34 -121 0
-1061 -35 158 0
-1061 -35 -6 -9 0
-1061 -35 -84 0
-1061 -35 -85 0
-1061 -35 -104 0
-1061 -35 -105 0
-1061 -35 -120 0
-1061 -35 -121 0
-1061 -36 159 0
-1061 -36 -6 -10 0
-1061 -36 -85 0
-1061 -36 -105 0
-1061 -36 -121 0
-1062 146 0
-1062 150 0
-1062 156 0
-1062 -1 -7 0
-1062 -62 0
-1062 -63 0
-1062 -64 0
-1062 -65 0
-1062 -86 0
-1062 -87 0
-1062 -88 0
-1062 -89 0
-1062 -106 0
-1062 -107 0
-1062 -108 0
-1062 -109 0
-1063 146 0
-1063 151 0
-1063 156 0
-1063 -2 -7 0
-1063 -66 0
-1063 -67 0
-1063 -68 0
-1063 -69 0
-1063 -86 0
-1063 -87 0
-1063 -88 0
-1063 -89 0
-1063 -90 0
-1063 -91 0
-1063 -92 0
-1063 -93 0
-1063 -106 0
-1063 -107 0
-1063 -108 0
-1063 -109 0
-1063 -110 0
-1063 -111 0
-1063 -112 0
-1063 -113 0
-1064 146 0
-1064 152 0
-1064 156 0
-1064 -3 -7 0
-1064 -70 0
-1064 -71 0
-1064 -72 0
-1064 -73 0
-1064 -90 0
-1064 -91 0
-1064 -92 0
-1064 -93 0
-1064 -94 0
-1064 -95 0
-1064 -96 0
-1064 -97 0
-1064 -106 0
-1064 -107 0
-1064 -108 0
-1064 -109 0
-1064 -110 0
-1064 -111 0
-1064 -112 0
-1064 -113 0
-1064 -114 0
-1064 -115 0
-1064 -116 0
-1064 -117 0
-1065 146 0
-1065 153 0
-1065 156 0
-1065 -4 -7 0
-1065 -74 0
-1065 -75 0
-1065 -76 0
-1065 -77 0
-1065 -94 0
-1065 -95 0
-1065 -96 0
-1065 -97 0
-1065 -98 0
-1065 -99 0
-1065 -100 0
-1065 -101 0
-1065 -110 0
-1065 -111 0
-1065 -112 0
-1065 -113 0
-1065 -114 0
-1065 -115 0
-1065 -116 0
-1065 -117 0
-1065 -118 0
-1065 -119 0
-1065 -120 0
-1065 -121 0
-1066 146 0
-1066 154 0
-1066 156 0
-1066 -5 -7 0
-1066 -78 0
-1066 -79 0
-1066 -80 0
-1066 -81 0
-1066 -98 0
-1066 -99 0
-1066 -100 0
-1066 -101 0
-1066 -102 0
-1066 -103 0
-1066 -104 0
-1066 -105 0
-1066 -114 0
-1066 -115 0
-1066 -116 0
-1066 -117 0
-1066 -118 0
-1066 -119 0
-1066 -120 0
-1066 -121 0
-1067 146 0
-1067 155 0
-1067 156 0
-1067 -6 -7 0
-1067 -82 0
-1067 -83 0
-1067 -84 0
-1067 -85 0
-1067 -102 0
-1067 -103 0
-1067 -104 0
-1067 -105 0
-1067 -118 0
-1067 -119 0
-1067 -120 0
-1067 -121 0
-1068 147 0
-1068 160 0
-1068 -2 0
-1068 -3 0
-1068 -4 0
-1068 -5 0
-1068 -6 0
-1068 -10 0
-1068 -7 167 0
-1068 -7 -11 -18 0
-1068 -7 -39 0
-1068 -7 -40 0
-1068 -7 -41 0
-1068 -7 -87 0
-1068 -7 -88 0
-1068 -7 -89 0
-1068 -7 -107 0
-1068 -7 -108 0
-1068 -7 -109 0
-1068 -8 168 0
-1068 -8 -11 -19 0
-1068 -8 -40 0
-1068 -8 -41 0
-1068 -8 -88 0
-1068 -8 -89 0
-1068 -8 -108 0
-1068 -8 -109 0
-1068 -9 169 0
-1068 -9 -11 -20 0
-1068 -9 -41 0
-1068 -9 -89 0
-1068 -9 -109 0
-1069 147 0
-1069 161 0
-1069 -1 0
-1069 -3 0
-1069 -4 0
-1069 -5 0
-1069 -6 0
-1069 -10 0
-1069 -7 167 0
-1069 -7 -12 -18 0
-1069 -7 -43 0
-1069 -7 -44 0
-1069 -7 -45 0
-1069 -7 -87 0
-1069 -7 -88 0
-1069 -7 -89 0
-1069 -7 -91 0
-1069 -7 -92 0
-1069 -7 -93 0
-1069 -7 -107 0
-1069 -7 -108 0
-1069 -7 -109 0
-1069 -7 -111 0
-1069 -7 -112 0
-1069 -7 -113 0
-1069 -8 168 0
-1069 -8 -12 -19 0
-1069 -8 -44 0
-1069 -8 -45 0
-1069 -8 -88 0
-1069 -8 -89 0
-1069 -8 -92 0
-1069 -8 -93 0
-1069 -8 -108 0
-1069 -8 -109 0
-1069 -8 -112 0
-1069 -8 -113 0
-1069 -9 169 0
-1069 -9 -12 -20 0
-1069 -9 -45 0
-1069 -9 -89 0
-1069 -9 -93 0
-1069 -9 -109 0
-1069 -9 -113 0
-1070 147 0
-1070 162 0
-1070 -1 0
-1070 -2 0
-1070 -4 0
-1070 -5 0
-1070 -6 0
-1070 -10 0
-1070 -7 167 0
-1070 -7 -13 -18 0
-1070 -7 -47 0
-1070 -7 -48 0
-1070 -7 -49 0
-1070 -7 -91 0
-1070 -7 -92 0
-1070 -7 -93 0
-1070 -7 -95 0
-1070 -7 -96 0
-1070 -7 -97 0
-1070 -7 -107 0
-1070 -7 -108 0
-1070 -7 -109 0
-1070 -7 -111 0
-1070 -7 -112 0
-1070 -7 -113 0
-1070 -7 -115 0
-1070 -7 -116 0
-1070 -7 -117 0
-1070 -8 168 0
-1070 -8 -13 -19 0
-1070 -8 -48 0
-1070 -8 -49 0
-1070 -8 -92 0
-1070 -8 -93 0
-1070 -8 -96 0
-1070 -8 -97 0
-1070 -8 -108 0
-1070 -8 -109 0
-1070 -8 -112 0
-1070 -8 -113 0
-1070 -8 -116 0
-1070 -8 -117 0
-1070 -9 169 0
-1070 -9 -13 -20 0
-1070 -9 -49 0
-1070 -9 -93 0
-1070 -9 -97 0
-1070 -9 -109 0
-1070 -9 -113 0
-1070 -9 -117 0
-1071 147 0
-1071 163 0
-1071 -1 0
-1071 -2 0
-1071 -3 0
-1071 -5 0
-1071 -6 0
-1071 -10 0
-1071 -7 167 0
-1071 -7 -14 -18 0
-1071 -7 -51 0
-1071 -7 -52 0
-1071 -7 -53 0
-1071 -7 -95 0
-1071 -7 -96 0
-1071 -7 -97 0
-1071 -7 -99 0
-1071 -7 -100 0
-1071 -7 -101 0
-1071 -7 -111 0
-1071 -7 -112 0
-1071 -7 -113 0
-1071 -7 -115 0
-1071 -7 -116 0
-1071 -7 -117 0
-1071 -7 -119 0
-1071 -7 -120 0
-1071 -7 -121 0
-1071 -8 168 0
-1071 -8 -14 -19 0
-1071 -8 -52 0
-1071 -8 -53 0
-1071 -8 -96 0
-1071 -8 -97 0
-1071 -8 -100 0
-1071 -8 -101 0
-1071 -8 -112 0
-1071 -8 -113 0
-1071 -8 -116 0
-1071 -8 -117 0
-1071 -8 -120 0
-1071 -8 -121 0
-1071 -9 169 0
-1071 -9 -14 -20 0
-1071 -9 -53 0
-1071 -9 -97 0
-1071 -9 -101 0
-1071 -9 -113 0
-1071 -9 -117 0
-1071 -9 -121 0
-1072 147 0
-1072 164 0
-1072 -1 0
-1072 -2 0
-1072 -3 0
-1072 -4 0
-1072 -6 0
-1072 -10 0
-1072 -7 167 0
-1072 -7 -15 -18 0
-1072 -7 -55 0
-1072 -7 -56 0
-1072 -7 -57 0
-1072 -7 -99 0
-1072 -7 -100 0
-1072 -7 -101 0
-1072 -7 -103 0
-1072 -7 -104 0
-1072 -7 -105 0
-1072 -7 -115 0
-1072 -7 -116 0
-1072 -7 -117 0
-1072 -7 -119 0
-1072 -7 -120 0
-1072 -7 -121 0
-1072 -8 168 0
-1072 -8 -15 -19 0
-1072 -8 -56 0
-1072 -8 -57 0
-1072 -8 -100 0
-1072 -8 -101 0
-1072 -8 -104 0
-1072 -8 -105 0
-1072 -8 -116 0
-1072 -8 -117 0
-1072 -8 -120 0
-1072 -8 -121 0
-1072 -9 169 0
-1072 -9 -15 -20 0
-1072 -9 -57 0
-1072 -9 -101 0
-1072 -9 -105 0
-1072 -9 -117 0
-1072 -9 -121 0
-1073 147 0
-1073 165 0
-1073 -1 0
-1073 -2 0
-1073 -3 0
-1073 -4 0
-1073 -5 0
-1073 -10 0
-1073 -7 167 0
-1073 -7 -16 -18 0
-1073 -7 -59 0
-1073 -7 -60 0
-1073 -7 -61 0
-1073 -7 -103 0
-1073 -7 -104 0
-1073 -7 -105 0
-1073 -7 -119 0
-1073 -7 -120 0
-1073 -7 -121 0
-1073 -8 168 0
-1073 -8 -16 -19 0
-1073 -8 -60 0
-1073 -8 -61 0
-1073 -8 -104 0
-1073 -8 -105 0
-1073 -8 -120 0
-1073 -8 -121 0
-1073 -9 169 0
-1073 -9 -16 -20 0
-1073 -9 -61 0
-1073 -9 -105 0
-1073 -9 -121 0
-1074 147 0
-1074 160 0
-1074 -22 0
-1074 -23 0
-1074 -24 0
-1074 -25 0
-1074 -29 0
-1074 -26 167 0
-1074 -26 -11 -18 0
-1074 -26 -39 0
-1074 -26 -40 0
-1074 -26 -41 0
-1074 -26 -87 0
-1074 -26 -88 0
-1074 -26 -89 0
-1074 -26 -107 0
-1074 -26 -108 0
-1074 -26 -109 0
-1074 -27 168 0
-1074 -27 -11 -19 0
-1074 -27 -40 0
-1074 -27 -41 0
-1074 -27 -88 0
-1074 -27 -89 0
-1074 -27 -108 0
-1074 -27 -109 0
-1074 -28 169 0
-1074 -28 -11 -20 0
-1074 -28 -41 0
-1074 -28 -89 0
-1074 -28 -109 0
-1075 147 0
-1075 161 0
-1075 -23 0
-1075 -24 0
-1075 -25 0
-1075 -29 0
-1075 -26 167 0
-1075 -26 -12 -18 0
-1075 -26 -43 0
-1075 -26 -44 0
-1075 -26 -45 0
-1075 -26 -87 0
-1075 -26 -88 0
-1075 -26 -89 0
-1075 -26 -91 0
-1075 -26 -92 0
-1075 -26 -93 0
-1075 -26 -107 0
-1075 -26 -108 0
-1075 -26 -109 0
-1075 -26 -111 0
-1075 -26 -112 0
-1075 -26 -113 0
-1075 -27 168 0
-1075 -27 -12 -19 0
-1075 -27 -44 0
-1075 -27 -45 0
-1075 -27 -88 0
-1075 -27 -89 0
-1075 -27 -92 0
-1075 -27 -93 0
-1075 -27 -108 0
-1075 -27 -109 0
-1075 -27 -112 0
-1075 -27 -113 0
-1075 -28 169 0
-1075 -28 -12 -20 0
-1075 -28 -45 0
-1075 -28 -89 0
-1075 -28 -93 0
-1075 -28 -109 0
-1075 -28 -113 0
-1076 147 0
-1076 162 0
-1076 -21 0
-1076 -24 0
-1076 -25 0
-1076 -29 0
-1076 -26 167 0
-1076 -26 -13 -18 0
-1076 -26 -47 0
-1076 -26 -48 0
-1076 -26 -49 0
-1076 -26 -91 0
-1076 -26 -92 0
-1076 -26 -93 0
-1076 -26 -95 0
-1076 -26 -96 0
-1076 -26 -97 0
-1076 -26 -107 0
-1076 -26 -108 0
-1076 -26 -109 0
-1076 -26 -111 0
-1076 -26 -112 0
-1076 -26 -113 0
-1076 -26 -115 0
-1076 -26 -116 0
-1076 -26 -117 0
-1076 -27 168 0
-1076 -27 -13 -19 0
-1076 -27 -48 0
-1076 -27 -49 0
-1076 -27 -92 0
-1076 -27 -93 0
-1076 -27 -96 0
-1076 -27 -97 0
-1076 -27 -108 0
-1076 -27 -109 0
-1076 -27 -112 0
-1076 -27 -113 0
-1076 -27 -116 0
-1076 -27 -117 0
-1076 -28 169 0
-1076 -28 -13 -20 0
-1076 -28 -49 0
-1076 -28 -93 0
-1076 -28 -97 0
-1076 -28 -109 0
-1076 -28 -113 0
-1076 -28 -117 0
-1077 147 0
-1077 163 0
-1077 -21 0
-1077 -22 0
-1077 -25 0
-1077 -29 0
-1077 -26 167 0
-1077 -26 -14 -18 0
-1077 -26 -51 0
-1077 -26 -52 0
-1077 -26 -53 0
-1077 -26 -95 0
-1077 -26 -96 0
-1077 -26 -97 0
-1077 -26 -99 0
-1077 -26 -100 0
-1077 -26 -101 0
-1077 -26 -111 0
-1077 -26 -112 0
-1077 -26 -113 0
-1077 -26 -115 0
-1077 -26 -116 0
-1077 -26 -117 0
-1077 -26 -119 0
-1077 -26 -120 0
-1077 -26 -121 0
-1077 -27 168 0
-1077 -27 -14 -19 0
-1077 -27 -52 0
-1077 -27 -53 0
-1077 -27 -96 0
-1077 -27 -97 0
-1077 -27 -100 0
-1077 -27 -101 0
-1077 -27 -112 0
-1077 -27 -113 0
-1077 -27 -116 0
-1077 -27 -117 0
-1077 -27 -120 0
-1077 -27 -121 0
-1077 -28 169 0
-1077 -28 -14 -20 0
-1077 -28 -53 0
-1077 -28 -97 0
-1077 -28 -101 0
-1077 -28 -113 0
-1077 -28 -117 0
-1077 -28 -121 0
-1078 147 0
-1078 164 0
-1078 -21 0
-1078 -22 0
-1078 -23 0
-1078 -29 0
-1078 -26 167 0
-1078 -26 -15 -18 0
-1078 -26 -55 0
-1078 -26 -56 0
-1078 -26 -57 0
-1078 -26 -99 0
-1078 -26 -100 0
-1078 -26 -101 0
-1078 -26 -103 0
-1078 -26 -104 0
-1078 -26 -105 0
-1078 -26 -115 0
-1078 -26 -116 0
-1078 -26 -117 0
-1078 -26 -119 0
-1078 -26 -120 0
-1078 -26 -121 0
-1078 -27 168 0
-1078 -27 -15 -19 0
-1078 -27 -56 0
-1078 -27 -57 0
-1078 -27 -100 0
-1078 -27 -101 0
-1078 -27 -104 0
-1078 -27 -105 0
-1078 -27 -116 0
-1078 -27 -117 0
-1078 -27 -120 0
-1078 -27 -121 0
-1078 -28 169 0
-1078 -28 -15 -20 0
-1078 -28 -57 0
-1078 -28 -101 0
-1078 -28 -105 0
-1078 -28 -117 0
-1078 -28 -121 0
-1079 147 0
-1079 165 0
-1079 -21 0
-1079 -22 0
-1079 -23 0
-1079 -24 0
-1079 -29 0
-1079 -26 167 0
-1079 -26 -16 -18 0
-1079 -26 -59 0
-1079 -26 -60 0
-1079 -26 -61 0
-1079 -26 -103 0
-1079 -26 -104 0
-1079 -26 -105 0
-1079 -26 -119 0
-1079 -26 -120 0
-1079 -26 -121 0
-1079 -27 168 0
-1079 -27 -16 -19 0
-1079 -27 -60 0
-1079 -27 -61 0
-1079 -27 -104 0
-1079 -27 -105 0
-1079 -27 -120 0
-1079 -27 -121 0
-1079 -28 169 0
-1079 -28 -16 -20 0
-1079 -28 -61 0
-1079 -28 -105 0
-1079 -28 -121 0
-1080 147 0
-1080 160 0
-1080 -31 0
-1080 -32 0
-1080 -33 0
-1080 -37 0
-1080 -34 167 0
-1080 -34 -11 -18 0
-1080 -34 -39 0
-1080 -34 -40 0
-1080 -34 -41 0
-1080 -34 -87 0
-1080 -34 -88 0
-1080 -34 -89 0
-1080 -34 -107 0
-1080 -34 -108 0
-1080 -34 -109 0
-1080 -35 168 0
-1080 -35 -11 -19 0
-1080 -35 -40 0
-1080 -35 -41 0
-1080 -35 -88 0
-1080 -35 -89 0
-1080 -35 -108 0
-1080 -35 -109 0
-1080 -36 169 0
-1080 -36 -11 -20 0
-1080 -36 -41 0
-1080 -36 -89 0
-1080 -36 -109 0
-1081 147 0
-1081 161 0
-1081 -32 0
-1081 -33 0
-1081 -37 0
-1081 -34 167 0
-1081 -34 -12 -18 0
-1081 -34 -43 0
-1081 -34 -44 0
-1081 -34 -45 0
-1081 -34 -87 0
-1081 -34 -88 0
-1081 -34 -89 0
-1081 -34 -91 0
-1081 -34 -92 0
-1081 -34 -93 0
-1081 -34 -107 0
-1081 -34 -108 0
-1081 -34 -109 0
-1081 -34 -111 0
-1081 -34 -112 0
-1081 -34 -113 0
-1081 -35 168 0
-1081 -35 -12 -19 0
-1081 -35 -44 0
-1081 -35 -45 0
-1081 -35 -88 0
-1081 -35 -89 0
-1081 -35 -92 0
-1081 -35 -93 0
-1081 -35 -108 0
-1081 -35 -109 0
-1081 -35 -112 0
-1081 -35 -113 0
-1081 -36 169 0
-1081 -36 -12 -20 0
-1081 -36 -45 0
-1081 -36 -89 0
-1081 -36 -93 0
-1081 -36 -109 0
-1081 -36 -113 0
-1082 147 0
-1082 162 0
-1082 -33 0
-1082 -37 0
-1082 -34 167 0
-1082 -34 -13 -18 0
-1082 -34 -47 0
-1082 -34 -48 0
-1082 -34 -49 0
-1082 -34 -91 0
-1082 -34 -92 0
-1082 -34 -93 0
-1082 -34 -95 0
-1082 -34 -96 0
-1082 -34 -97 0
-1082 -34 -107 0
-1082 -34 -108 0
-1082 -34 -109 0
-1082 -34 -111 0
-1082 -34 -112 0
-1082 -34 -113 0
-1082 -34 -115 0
-1082 -34 -116 0
-1082 -34 -117 0
-1082 -35 168 0
-1082 -35 -13 -19 0
-1082 -35 -48 0
-1082 -35 -49 0
-1082 -35 -92 0
-1082 -35 -93 0
-1082 -35 -96 0
-1082 -35 -97 0
-1082 -35 -108 0
-1082 -35 -109 0
-1082 -35 -112 0
-1082 -35 -113 0
-1082 -35 -116 0
-1082 -35 -117 0
-1082 -36 169 0
-1082 -36 -13 -20 0
-1082 -36 -49 0
-1082 -36 -93 0
-1082 -36 -97 0
-1082 -36 -109 0
-1082 -36 -113 0
-1082 -36 -117 0
-1083 147 0
-1083 163 0
-1083 -30 0
-1083 -37 0
-1083 -34 167 0
-1083 -34 -14 -18 0
-1083 -34 -51 0
-1083 -34 -52 0
-1083 -34 -53 0
-1083 -34 -95 0
-1083 -34 -96 0
-1083 -34 -97 0
-1083 -34 -99 0
-1083 -34 -100 0
-1083 -34 -101 0
-1083 -34 -111 0
-1083 -34 -112 0
-1083 -34 -113 0
-1083 -34 -115 0
-1083 -34 -116 0
-1083 -34 -117 0
-1083 -34 -119 0
-1083 -34 -120 0
-1083 -34 -121 0
-1083 -35 168 0
-1083 -35 -14 -19 0
-1083 -35 -52 0
-1083 -35 -53 0
-1083 -35 -96 0
-1083 -35 -97 0
-1083 -35 -100 0
-1083 -35 -101 0
-1083 -35 -112 0
-1083 -35 -113 0
-1083 -35 -116 0
-1083 -35 -117 0
-1083 -35 -120 0
-1083 -35 -121 0
-1083 -36 169 0
-1083 -36 -14 -20 0
-1083 -36 -53 0
-1083 -36 -97 0
-1083 -36 -101 0
-1083 -36 -113 0
-1083 -36 -117 0
-1083 -36 -121 0
-1084 147 0
-1084 164 0
-1084 -30 0
-1084 -31 0
-1084 -37 0
-1084 -34 167 0
-1084 -34 -15 -18 0
-1084 -34 -55 0
-1084 -34 -56 0
-1084 -34 -57 0
-1084 -34 -99 0
-1084 -34 -100 0
-1084 -34 -101 0
-1084 -34 -103 0
-1084 -34 -104 0
-1084 -34 -105 0
-1084 -34 -115 0
-1084 -34 -116 0
-1084 -34 -117 0
-1084 -34 -119 0
-1084 -34 -120 0
-1084 -34 -121 0
-1084 -35 168 0
-1084 -35 -15 -19 0
-1084 -35 -56 0
-1084 -35 -57 0
-1084 -35 -100 0
-1084 -35 -101 0
-1084 -35 -104 0
-1084 -35 -105 0
-1084 -35 -116 0
-1084 -35 -117 0
-1084 -35 -120 0
-1084 -35 -121 0
-1084 -36 169 0
-1084 -36 -15 -20 0
-1084 -36 -57 0
-1084 -36 -101 0
-1084 -36 -105 0
-1084 -36 -117 0
-1084 -36 -121 0
-1085 147 0
-1085 165 0
-1085 -30 0
-1085 -31 0
-1085 -32 0
-1085 -37 0
-1085 -34 167 0
-1085 -34 -16 -18 0
-1085 -34 -59 0
-1085 -34 -60 0
-1085 -34 -61 0
-1085 -34 -103 0
-1085 -34 -104 0
-1085 -34 -105 0
-1085 -34 -119 0
-1085 -34 -120 0
-1085 -34 -121 0
-1085 -35 168 0
-1085 -35 -16 -19 0
-1085 -35 -60 0
-1085 -35 -61 0
-1085 -35 -104 0
-1085 -35 -105 0
-1085 -35 -120 0
-1085 -35 -121 0
-1085 -36 169 0
-1085 -36 -16 -20 0
-1085 -36 -61 0
-1085 -36 -105 0
-1085 -36 -121 0
-1086 147 0
-1086 160 0
-1086 166 0
-1086 -11 -17 0
-1086 -38 0
-1086 -39 0
-1086 -40 0
-1086 -41 0
-1086 -86 0
-1086 -87 0
-1086 -88 0
-1086 -89 0
-1086 -106 0
-1086 -107 0
-1086 -108 0
-1086 -109 0
-1087 147 0
-1087 161 0
-1087 166 0
-1087 -12 -17 0
-1087 -42 0
-1087 -43 0
-1087 -44 0
-1087 -45 0
-1087 -86 0
-1087 -87 0
-1087 -88 0
-1087 -89 0
-1087 -90 0
-1087 -91 0
-1087 -92 0
-1087 -93 0
-1087 -106 0
-1087 -107 0
-1087 -108 0
-1087 -109 0
-1087 -110 0
-1087 -111 0
-1087 -112 0
-1087 -113 0
-1088 147 0
-1088 162 0
-1088 166 0
-1088 -13 -17 0
-1088 -46 0
-1088 -47 0
-1088 -48 0
-1088 -49 0
-1088 -90 0
-1088 -91 0
-1088 -92 0
-1088 -93 0
-1088 -94 0
-1088 -95 0
-1088 -96 0
-1088 -97 0
-1088 -106 0
-1088 -107 0
-1088 -108 0
-1088 -109 0
-1088 -110 0
-1088 -111 0
-1088 -112 0
-1088 -113 0
-1088 -114 0
-1088 -115 0
-1088 -116 0
-1088 -117 0
-1089 147 0
-1089 163 0
-1089 166 0
-1089 -14 -17 0
-1089 -50 0
-1089 -51 0
-1089 -52 0
-1089 -53 0
-1089 -94 0
-1089 -95 0
-1089 -96 0
-1089 -97 0
-1089 -98 0
-1089 -99 0
-1089 -100 0
-1089 -101 0
-1089 -110 0
-1089 -111 0
-1089 -112 0
-1089 -113 0
-1089 -114 0
-1089 -115 0
-1089 -116 0
-1089 -117 0
-1089 -118 0
-1089 -119 0
-1089 -120 0
-1089 -121 0
-1090 147 0
-1090 164 0
-1090 166 0
-1090 -15 -17 0
-1090 -54 0
-1090 -55 0
-1090 -56 0
-1090 -57 0
-1090 -98 0
-1090 -99 0
-1090 -100 0
-1090 -101 0
-1090 -102 0
-1090 -103 0
-1090 -104 0
-1090 -105 0
-1090 -114 0
-1090 -115 0
-1090 -116 0
-1090 -117 0
-1090 -118 0
-1090 -119 0
-1090 -120 0
-1090 -121 0
-1091 147 0
-1091 165 0
-1091 166 0
-1091 -16 -17 0
-1091 -58 0
-1091 -59 0
-1091 -60 0
-1091 -61 0
-1091 -102 0
-1091 -103 0
-1091 -104 0
-1091 -105 0
-1091 -118 0
-1091 -119 0
-1091 -120 0
-1091 -121 0
-1092 148 0
-1092 170 0
-1092 -3 0
-1092 -4 0
-1092 -5 0
-1092 -6 0
-1092 -10 0
-1092 -7 176 0
-1092 -7 -21 -27 0
-1092 -7 -39 0
-1092 -7 -40 0
-1092 -7 -41 0
-1092 -7 -43 0
-1092 -7 -44 0
-1092 -7 -45 0
-1092 -7 -63 0
-1092 -7 -64 0
-1092 -7 -65 0
-1092 -7 -67 0
-1092 -7 -68 0
-1092 -7 -69 0
-1092 -7 -107 0
-1092 -7 -108 0
-1092 -7 -109 0
-1092 -7 -111 0
-1092 -7 -112 0
-1092 -7 -113 0
-1092 -8 177 0
-1092 -8 -21 -28 0
-1092 -8 -40 0
-1092 -8 -41 0
-1092 -8 -44 0
-1092 -8 -45 0
-1092 -8 -64 0
-1092 -8 -65 0
-1092 -8 -68 0
-1092 -8 -69 0
-1092 -8 -108 0
-1092 -8 -109 0
-1092 -8 -112 0
-1092 -8 -113 0
-1092 -9 178 0
-1092 -9 -21 -29 0
-1092 -9 -41 0
-1092 -9 -45 0
-1092 -9 -65 0
-1092 -9 -69 0
-1092 -9 -109 0
-1092 -9 -113 0
-1093 148 0
-1093 171 0
-1093 -1 0
-1093 -4 0
-1093 -5 0
-1093 -6 0
-1093 -10 0
-1093 -7 176 0
-1093 -7 -22 -27 0
-1093 -7 -43 0
-1093 -7 -44 0
-1093 -7 -45 0
-1093 -7 -47 0
-1093 -7 -48 0
-1093 -7 -49 0
-1093 -7 -67 0
-1093 -7 -68 0
-1093 -7 -69 0
-1093 -7 -71 0
-1093 -7 -72 0
-1093 -7 -73 0
-1093 -7 -107 0
-1093 -7 -108 0
-1093 -7 -109 0
-1093 -7 -111 0
-1093 -7 -112 0
-1093 -7 -113 0
-1093 -7 -115 0
-1093 -7 -116 0
-1093 -7 -117 0
-1093 -8 177 0
-1093 -8 -22 -28 0
-1093 -8 -44 0
-1093 -8 -45 0
-1093 -8 -48 0
-1093 -8 -49 0
-1093 -8 -68 0
-1093 -8 -69 0
-1093 -8 -72 0
-1093 -8 -73 0
-1093 -8 -108 0
-1093 -8 -109 0
-1093 -8 -112 0
-1093 -8 -113 0
-1093 -8 -116 0
-1093 -8 -117 0
-1093 -9 178 0
-1093 -9 -22 -29 0
-1093 -9 -45 0
-1093 -9 -49 0
-1093 -9 -69 0
-1093 -9 -73 0
-1093 -9 -109 0
-1093 -9 -113 0
-1093 -9 -117 0
-1094 148 0
-1094 172 0
-1094 -1 0
-1094 -2 0
-1094 -5 0
-1094 -6 0
-1094 -10 0
-1094 -7 176 0
-1094 -7 -23 -27 0
-1094 -7 -47 0
-1094 -7 -48 0
-1094 -7 -49 0
-1094 -7 -51 0
-1094 -7 -52 0
-1094 -7 -53 0
-1094 -7 -71 0
-1094 -7 -72 0
-1094 -7 -73 0
-1094 -7 -75 0
-1094 -7 -76 0
-1094 -7 -77 0
-1094 -7 -107 0
-1094 -7 -108 0
-1094 -7 -109 0
-1094 -7 -111 0
-1094 -7 -112 0
-1094 -7 -113 0
-1094 -7 -115 0
-1094 -7 -116 0
-1094 -7 -117 0
-1094 -7 -119 0
-1094 -7 -120 0
-1094 -7 -121 0
-1094 -8 177 0
-1094 -8 -23 -28 0
-1094 -8 -48 0
-1094 -8 -49 0
-1094 -8 -52 0
-1094 -8 -53 0
-1094 -8 -72 0
-1094 -8 -73 0
-1094 -8 -76 0
-1094 -8 -77 0
-1094 -8 -108 0
-1094 -8 -109 0
-1094 -8 -112 0
-1094 -8 -113 0
-1094 -8 -116 0
-1094 -8 -117 0
-1094 -8 -120 0
-1094 -8 -121 0
-1094 -9 178 0
-1094 -9 -23 -29 0
-1094 -9 -49 0
-1094 -9 -53 0
-1094 -9 -73 0
-1094 -9 -77 0
-1094 -9 -109 0
-1094 -9 -113 0
-1094 -9 -117 0
-1094 -9 -121 0
-1095 148 0
-1095 173 0
-1095 -1 0
-1095 -2 0
-1095 -3 0
-1095 -6 0
-1095 -10 0
-1095 -7 176 0
-1095 -7 -24 -27 0
-1095 -7 -51 0
-1095 -7 -52 0
-1095 -7 -53 0
-1095 -7 -55 0
-1095 -7 -56 0
-1095 -7 -57 0
-1095 -7 -75 0
-1095 -7 -76 0
-1095 -7 -77 0
-1095 -7 -79 0
-1095 -7 -80 0
-1095 -7 -81 0
-1095 -7 -111 0
-1095 -7 -112 0
-1095 -7 -113 0
-1095 -7 -115 0
-1095 -7 -116 0
-1095 -7 -117 0
-1095 -7 -119 0
-1095 -7 -120 0
-1095 -7 -121 0
-1095 -8 177 0
-1095 -8 -24 -28 0
-1095 -8 -52 0
-1095 -8 -53 0
-1095 -8 -56 0
-1095 -8 -57 0
-1095 -8 -76 0
-1095 -8 -77 0
-1095 -8 -80 0
-1095 -8 -81 0
-1095 -8 -112 0
-1095 -8 -113 0
-1095 -8 -116 0
-1095 -8 -117 0
-1095 -8 -120 0
-1095 -8 -121 0
-1095 -9 178 0
-1095 -9 -24 -29 0
-1095 -9 -53 0
-1095 -9 -57 0
-1095 -9 -77 0
-1095 -9 -81 0
-1095 -9 -113 0
-1095 -9 -117 0
-1095 -9 -121 0
-1096 148 0
-1096 174 0
-1096 -1 0
-1096 -2 0
-1096 -3 0
-1096 -4 0
-1096 -10 0
-1096 -7 176 0
-1096 -7 -25 -27 0
-1096 -7 -55 0
-1096 -7 -56 0
-1096 -7 -57 0
-1096 -7 -59 0
-1096 -7 -60 0
-1096 -7 -61 0
-1096 -7 -79 0
-1096 -7 -80 0
-1096 -7 -81 0
-1096 -7 -83 0
-1096 -7 -84 0
-1096 -7 -85 0
-1096 -7 -115 0
-1096 -7 -116 0
-1096 -7 -117 0
-1096 -7 -119 0
-1096 -7 -120 0
-1096 -7 -121 0
-1096 -8 177 0
-1096 -8 -25 -28 0
-1096 -8 -56 0
-1096 -8 -57 0
-1096 -8 -60 0
-1096 -8 -61 0
-1096 -8 -80 0
-1096 -8 -81 0
-1096 -8 -84 0
-1096 -8 -85 0
-1096 -8 -116 0
-1096 -8 -117 0
-1096 -8 -120 0
-1096 -8 -121 0
-1096 -9 178 0
-1096 -9 -25 -29 0
-1096 -9 -57 0
-1096 -9 -61 0
-1096 -9 -81 0
-1096 -9 -85 0
-1096 -9 -117 0
-1096 -9 -121 0
-1097 148 0
-1097 170 0
-1097 -13 0
-1097 -14 0
-1097 -15 0
-1097 -16 0
-1097 -20 0
-1097 -17 176 0
-1097 -17 -21 -27 0
-1097 -17 -39 0
-1097 -17 -40 0
-1097 -17 -41 0
-1097 -17 -43 0
-1097 -17 -44 0
-1097 -17 -45 0
-1097 -17 -63 0
-1097 -17 -64 0
-1097 -17 -65 0
-1097 -17 -67 0
-1097 -17 -68 0
-1097 -17 -69 0
-1097 -17 -107 0
-1097 -17 -108 0
-1097 -17 -109 0
-1097 -17 -111 0
-1097 -17 -112 0
-1097 -17 -113 0
-1097 -18 177 0
-1097 -18 -21 -28 0
-1097 -18 -40 0
-1097 -18 -41 0
-1097 -18 -44 0
-1097 -18 -45 0
-1097 -18 -64 0
-1097 -18 -65 0
-1097 -18 -68 0
-1097 -18 -69 0
-1097 -18 -108 0
-1097 -18 -109 0
-1097 -18 -112 0
-1097 -18 -113 0
-1097 -19 178 0
-1097 -19 -21 -29 0
-1097 -19 -41 0
-1097 -19 -45 0
-1097 -19 -65 0
-1097 -19 -69 0
-1097 -19 -109 0
-1097 -19 -113 0
-1098 148 0
-1098 171 0
-1098 -11 0
-1098 -14 0
-1098 -15 0
-1098 -16 0
-1098 -20 0
-1098 -17 176 0
-1098 -17 -22 -27 0
-1098 -17 -43 0
-1098 -17 -44 0
-1098 -17 -45 0
-1098 -17 -47 0
-1098 -17 -48 0
-1098 -17 -49 0
-1098 -17 -67 0
-1098 -17 -68 0
-1098 -17 -69 0
-1098 -17 -71 0
-1098 -17 -72 0
-1098 -17 -73 0
-1098 -17 -107 0
-1098 -17 -108 0
-1098 -17 -109 0
-1098 -17 -111 0
-1098 -17 -112 0
-1098 -17 -113 0
-1098 -17 -115 0
-1098 -17 -116 0
-1098 -17 -117 0
-1098 -18 177 0
-1098 -18 -22 -28 0
-1098 -18 -44 0
-1098 -18 -45 0
-1098 -18 -48 0
-1098 -18 -49 0
-1098 -18 -68 0
-1098 -18 -69 0
-1098 -18 -72 0
-1098 -18 -73 0
-1098 -18 -108 0
-1098 -18 -109 0
-1098 -18 -112 0
-1098 -18 -113 0
-1098 -18 -116 0
-1098 -18 -117 0
-1098 -19 178 0
-1098 -19 -22 -29 0
-1098 -19 -45 0
-1098 -19 -49 0
-1098 -19 -69 0
-1098 -19 -73 0
-1098 -19 -109 0
-1098 -19 -113 0
-1098 -19 -117 0
-1099 148 0
-1099 172 0
-1099 -11 0
-1099 -12 0
-1099 -15 0
-1099 -16 0
-1099 -20 0
-1099 -17 176 0
-1099 -17 -23 -27 0
-1099 -17 -47 0
-1099 -17 -48 0
-1099 -17 -49 0
-1099 -17 -51 0
-1099 -17 -52 0
-1099 -17 -53 0
-1099 -17 -71 0
-1099 -17 -72 0
-1099 -17 -73 0
-1099 -17 -75 0
-1099 -17 -76 0
-1099 -17 -77 0
-1099 -17 -107 0
-1099 -17 -108 0
-1099 -17 -109 0
-1099 -17 -111 0
-1099 -17 -112 0
-1099 -17 -113 0
-1099 -17 -115 0
-1099 -17 -116 0
-1099 -17 -117 0
-1099 -17 -119 0
-1099 -17 -120 0
-1099 -17 -121 0
-1099 -18 177 0
-1099 -18 -23 -28 0
-1099 -18 -48 0
-1099 -18 -49 0
-1099 -18 -52 0
-1099 -18 -53 0
-1099 -18 -72 0
-1099 -18 -73 0
-1099 -18 -76 0
-1099 -18 -77 0
-1099 -18 -108 0
-1099 -18 -109 0
-1099 -18 -112 0
-1099 -18 -113 0
-1099 -18 -116 0
-1099 -18 -117 0
-1099 -18 -120 0
-1099 -18 -121 0
-1099 -19 178 0
-1099 -19 -23 -29 0
-1099 -19 -49 0
-1099 -19 -53 0
-1099 -19 -73 0
-1099 -19 -77 0
-1099 -19 -109 0
-1099 -19 -113 0
-1099 -19 -117 0
-1099 -19 -121 0
-1100 148 0
-1100 173 0
-1100 -11 0
-1100 -12 0
-1100 -13 0
-1100 -16 0
-1100 -20 0
-1100 -17 176 0
-1100 -17 -24 -27 0
-1100 -17 -51 0
-1100 -17 -52 0
-1100 -17 -53 0
-1100 -17 -55 0
-1100 -17 -56 0
-1100 -17 -57 0
-1100 -17 -75 0
-1100 -17 -76 0
-1100 -17 -77 0
-1100 -17 -79 0
-1100 -17 -80 0
-1100 -17 -81 0
-1100 -17 -111 0
-1100 -17 -112 0
-1100 -17 -113 0
-1100 -17 -115 0
-1100 -17 -116 0
-1100 -17 -117 0
-1100 -17 -119 0
-1100 -17 -120 0
-1100 -17 -121 0
-1100 -18 177 0
-1100 -18 -24 -28 0
-1100 -18 -52 0
-1100 -18 -53 0
-1100 -18 -56 0
-1100 -18 -57 0
-1100 -18 -76 0
-1100 -18 -77 0
-1100 -18 -80 0
-1100 -18 -81 0
-1100 -18 -112 0
-1100 -18 -113 0
-1100 -18 -116 0
-1100 -18 -117 0
-1100 -18 -120 0
-1100 -18 -121 0
-1100 -19 178 0
-1100 -19 -24 -29 0
-1100 -19 -53 0
-1100 -19 -57 0
-1100 -19 -77 0
-1100 -19 -81 0
-1100 -19 -113 0
-1100 -19 -117 0
-1100 -19 -121 0
-1101 148 0
-1101 174 0
-1101 -11 0
-1101 -12 0
-1101 -13 0
-1101 -14 0
-1101 -20 0
-1101 -17 176 0
-1101 -17 -25 -27 0
-1101 -17 -55 0
-1101 -17 -56 0
-1101 -17 -57 0
-1101 -17 -59 0
-1101 -17 -60 0
-1101 -17 -61 0
-1101 -17 -79 0
-1101 -17 -80 0
-1101 -17 -81 0
-1101 -17 -83 0
-1101 -17 -84 0
-1101 -17 -85 0
-1101 -17 -115 0
-1101 -17 -116 0
-1101 -17 -117 0
-1101 -17 -119 0
-1101 -17 -120 0
-1101 -17 -121 0
-1101 -18 177 0
-1101 -18 -25 -28 0
-1101 -18 -56 0
-1101 -18 -57 0
-1101 -18 -60 0
-1101 -18 -61 0
-1101 -18 -80 0
-1101 -18 -81 0
-1101 -18 -84 0
-1101 -18 -85 0
-1101 -18 -116 0
-1101 -18 -117 0
-1101 -18 -120 0
-1101 -18 -121 0
-1101 -19 178 0
-1101 -19 -25 -29 0
-1101 -19 -57 0
-1101 -19 -61 0
-1101 -19 -81 0
-1101 -19 -85 0
-1101 -19 -117 0
-1101 -19 -121 0
-1102 148 0
-1102 170 0
-1102 -32 0
-1102 -33 0
-1102 -37 0
-1102 -34 176 0
-1102 -34 -21 -27 0
-1102 -34 -39 0
-1102 -34 -40 0
-1102 -34 -41 0
-1102 -34 -43 0
-1102 -34 -44 0
-1102 -34 -45 0
-1102 -34 -63 0
-1102 -34 -64 0
-1102 -34 -65 0
-1102 -34 -67 0
-1102 -34 -68 0
-1102 -34 -69 0
-1102 -34 -107 0
-1102 -34 -108 0
-1102 -34 -109 0
-1102 -34 -111 0
-1102 -34 -112 0
-1102 -34 -113 0
-1102 -35 177 0
-1102 -35 -21 -28 0
-1102 -35 -40 0
-1102 -35 -41 0
-1102 -35 -44 0
-1102 -35 -45 0
-1102 -35 -64 0
-1102 -35 -65 0
-1102 -35 -68 0
-1102 -35 -69 0
-1102 -35 -108 0
-1102 -35 -109 0
-1102 -35 -112 0
-1102 -35 -113 0
-1102 -36 178 0
-1102 -36 -21 -29 0
-1102 -36 -41 0
-1102 -36 -45 0
-1102 -36 -65 0
-1102 -36 -69 0
-1102 -36 -109 0
-1102 -36 -113 0
-1103 148 0
-1103 171 0
-1103 -33 0
-1103 -37 0
-1103 -34 176 0
-1103 -34 -22 -27 0
-1103 -34 -43 0
-1103 -34 -44 0
-1103 -34 -45 0
-1103 -34 -47 0
-1103 -34 -48 0
-1103 -34 -49 0
-1103 -34 -67 0
-1103 -34 -68 0
-1103 -34 -69 0
-1103 -34 -71 0
-1103 -34 -72 0
-1103 -34 -73 0
-1103 -34 -107 0
-1103 -34 -108 0
-1103 -34 -109 0
-1103 -34 -111 0
-1103 -34 -112 0
-1103 -34 -113 0
-1103 -34 -115 0
-1103 -34 -116 0
-1103 -34 -117 0
-1103 -35 177 0
-1103 -35 -22 -28 0
-1103 -35 -44 0
-1103 -35 -45 0
-1103 -35 -48 0
-1103 -35 -49 0
-1103 -35 -68 0
-1103 -35 -69 0
-1103 -35 -72 0
-1103 -35 -73 0
-1103 -35 -108 0
-1103 -35 -109 0
-1103 -35 -112 0
-1103 -35 -113 0
-1103 -35 -116 0
-1103 -35 -117 0
-1103 -36 178 0
-1103 -36 -22 -29 0
-1103 -36 -45 0
-1103 -36 -49 0
-1103 -36 -69 0
-1103 -36 -73 0
-1103 -36 -109 0
-1103 -36 -113 0
-1103 -36 -117 0
-1104 148 0
-1104 172 0
-1104 -37 0
-1104 -34 176 0
-1104 -34 -23 -27 0
-1104 -34 -47 0
-1104 -34 -48 0
-1104 -34 -49 0
-1104 -34 -51 0
-1104 -34 -52 0
-1104 -34 -53 0
-1104 -34 -71 0
-1104 -34 -72 0
-1104 -34 -73 0
-1104 -34 -75 0
-1104 -34 -76 0
-1104 -34 -77 0
-1104 -34 -107 0
-1104 -34 -108 0
-1104 -34 -109 0
-1104 -34 -111 0
-1104 -34 -112 0
-1104 -34 -113 0
-1104 -34 -115 0
-1104 -34 -116 0
-1104 -34 -117 0
-1104 -34 -119 0
-1104 -34 -120 0
-1104 -34 -121 0
-1104 -35 177 0
-1104 -35 -23 -28 0
-1104 -35 -48 0
-1104 -35 -49 0
-1104 -35 -52 0
-1104 -35 -53 0
-1104 -35 -72 0
-1104 -35 -73 0
-1104 -35 -76 0
-1104 -35 -77 0
-1104 -35 -108 0
-1104 -35 -109 0
-1104 -35 -112 0
-1104 -35 -113 0
-1104 -35 -116 0
-1104 -35 -117 0
-1104 -35 -120 0
-1104 -35 -121 0
-1104 -36 178 0
-1104 -36 -23 -29 0
-1104 -36 -49 0
-1104 -36 -53 0
-1104 -36 -73 0
-1104 -36 -77 0
-1104 -36 -109 0
-1104 -36 -113 0
-1104 -36 -117 0
-1104 -36 -121 0
-1105 148 0
-1105 173 0
-1105 -30 0
-1105 -37 0
-1105 -34 176 0
-1105 -34 -24 -27 0
-1105 -34 -51 0
-1105 -34 -52 0
-1105 -34 -53 0
-1105 -34 -55 0
-1105 -34 -56 0
-1105 -34 -57 0
-1105 -34 -75 0
-1105 -34 -76 0
-1105 -34 -77 0
-1105 -34 -79 0
-1105 -34 -80 0
-1105 -34 -81 0
-1105 -34 -111 0
-1105 -34 -112 0
-1105 -34 -113 0
-1105 -34 -115 0
-1105 -34 -116 0
-1105 -34 -117 0
-1105 -34 -119 0
-1105 -34 -120 0
-1105 -34 -121 0
-1105 -35 177 0
-1105 -35 -24 -28 0
-1105 -35 -52 0
-1105 -35 -53 0
-1105 -35 -56 0
-1105 -35 -57 0
-1105 -35 -76 0
-1105 -35 -77 0
-1105 -35 -80 0
-1105 -35 -81 0
-1105 -35 -112 0
-1105 -35 -113 0
-1105 -35 -116 0
-1105 -35 -117 0
-1105 -35 -120 0
-1105 -35 -121 0
-1105 -36 178 0
-1105 -36 -24 -29 0
-1105 -36 -53 0
-1105 -36 -57 0
-1105 -36 -77 0
-1105 -36 -81 0
-1105 -36 -113 0
-1105 -36 -117 0
-1105 -36 -121 0
-1106 148 0
-1106 174 0
-1106 -30 0
-1106 -31 0
-1106 -37 0
-1106 -34 176 0
-1106 -34 -25 -27 0
-1106 -34 -55 0
-1106 -34 -56 0
-1106 -34 -57 0
-1106 -34 -59 0
-1106 -34 -60 0
-1106 -34 -61 0
-1106 -34 -79 0
-1106 -34 -80 0
-1106 -34 -81 0
-1106 -34 -83 0
-1106 -34 -84 0
-1106 -34 -85 0
-1106 -34 -115 0
-1106 -34 -116 0
-1106 -34 -117 0
-1106 -34 -119 0
-1106 -34 -120 0
-1106 -34 -121 0
-1106 -35 177 0
-1106 -35 -25 -28 0
-1106 -35 -56 0
-1106 -35 -57 0
-1106 -35 -60 0
-1106 -35 -61 0
-1106 -35 -80 0
-1106 -35 -81 0
-1106 -35 -84 0
-1106 -35 -85 0
-1106 -35 -116 0
-1106 -35 -117 0
-1106 -35 -120 0
-1106 -35 -121 0
-1106 -36 178 0
-1106 -36 -25 -29 0
-1106 -36 -57 0
-1106 -36 -61 0
-1106 -36 -81 0
-1106 -36 -85 0
-1106 -36 -117 0
-1106 -36 -121 0
-1107 148 0
-1107 170 0
-1107 175 0
-1107 -21 -26 0
-1107 -38 0
-1107 -39 0
-1107 -40 0
-1107 -41 0
-1107 -42 0
-1107 -43 0
-1107 -44 0
-1107 -45 0
-1107 -62 0
-1107 -63 0
-1107 -64 0
-1107 -65 0
-1107 -66 0
-1107 -67 0
-1107 -68 0
-1107 -69 0
-1107 -106 0
-1107 -107 0
-1107 -108 0
-1107 -109 0
-1107 -110 0
-1107 -111 0
-1107 -112 0
-1107 -113 0
-1108 148 0
-1108 171 0
-1108 175 0
-1108 -22 -26 0
-1108 -42 0
-1108 -43 0
-1108 -44 0
-1108 -45 0
-1108 -46 0
-1108 -47 0
-1108 -48 0
-1108 -49 0
-1108 -66 0
-1108 -67 0
-1108 -68 0
-1108 -69 0
-1108 -70 0
-1108 -71 0
-1108 -72 0
-1108 -73 0
-1108 -106 0
-1108 -107 0
-1108 -108 0
-1108 -109 0
-1108 -110 0
-1108 -111 0
-1108 -112 0
-1108 -113 0
-1108 -114 0
-1108 -115 0
-1108 -116 0
-1108 -117 0
-1109 148 0
-1109 172 0
-1109 175 0
-1109 -23 -26 0
-1109 -46 0
-1109 -47 0
-1109 -48 0
-1109 -49 0
-1109 -50 0
-1109 -51 0
-1109 -52 0
-1109 -53 0
-1109 -70 0
-1109 -71 0
-1109 -72 0
-1109 -73 0
-1109 -74 0
-1109 -75 0
-1109 -76 0
-1109 -77 0
-1109 -106 0
-1109 -107 0
-1109 -108 0
-1109 -109 0
-1109 -110 0
-1109 -111 0
-1109 -112 0
-1109 -113 0
-1109 -114 0
-1109 -115 0
-1109 -116 0
-1109 -117 0
-1109 -118 0
-1109 -119 0
-1109 -120 0
-1109 -121 0
-1110 148 0
-1110 173 0
-1110 175 0
-1110 -24 -26 0
-1110 -50 0
-1110 -51 0
-1110 -52 0
-1110 -53 0
-1110 -54 0
-1110 -55 0
-1110 -56 0
-1110 -57 0
-1110 -74 0
-1110 -75 0
-1110 -76 0
-1110 -77 0
-1110 -78 0
-1110 -79 0
-1110 -80 0
-1110 -81 0
-1110 -110 0
-1110 -111 0
-1110 -112 0
-1110 -113 0
-1110 -114 0
-1110 -115 0
-1110 -116 0
-1110 -117 0
-1110 -118 0
-1110 -119 0
-1110 -120 0
-1110 -121 0
-1111 148 0
-1111 174 0
-1111 175 0
-1111 -25 -26 0
-1111 -54 0
-1111 -55 0
-1111 -56 0
-1111 -57 0
-1111 -58 0
-1111 -59 0
-1111 -60 0
-1111 -61 0
-1111 -78 0
-1111 -79 0
-1111 -80 0
-1111 -81 0
-1111 -82 0
-1111 -83 0
-1111 -84 0
-1111 -85 0
-1111 -114 0
-1111 -115 0
-1111 -116 0
-1111 -117 0
-1111 -118 0
-1111 -119 0
-1111 -120 0
-1111 -121 0
-1112 149 0
-1112 179 0
-1112 -4 0
-1112 -5 0
-1112 -6 0
-1112 -10 0
-1112 -7 184 0
-1112 -7 -30 -35 0
-1112 -7 -39 0
-1112 -7 -40 0
-1112 -7 -41 0
-1112 -7 -43 0
-1112 -7 -44 0
-1112 -7 -45 0
-1112 -7 -47 0
-1112 -7 -48 0
-1112 -7 -49 0
-1112 -7 -63 0
-1112 -7 -64 0
-1112 -7 -65 0
-1112 -7 -67 0
-1112 -7 -68 0
-1112 -7 -69 0
-1112 -7 -71 0
-1112 -7 -72 0
-1112 -7 -73 0
-1112 -7 -87 0
-1112 -7 -88 0
-1112 -7 -89 0
-1112 -7 -91 0
-1112 -7 -92 0
-1112 -7 -93 0
-1112 -7 -95 0
-1112 -7 -96 0
-1112 -7 -97 0
-1112 -8 185 0
-1112 -8 -30 -36 0
-1112 -8 -40 0
-1112 -8 -41 0
-1112 -8 -44 0
-1112 -8 -45 0
-1112 -8 -48 0
-1112 -8 -49 0
-1112 -8 -64 0
-1112 -8 -65 0
-1112 -8 -68 0
-1112 -8 -69 0
-1112 -8 -72 0
-1112 -8 -73 0
-1112 -8 -88 0
-1112 -8 -89 0
-1112 -8 -92 0
-1112 -8 -93 0
-1112 -8 -96 0
-1112 -8 -97 0
-1112 -9 186 0
-1112 -9 -30 -37 0
-1112 -9 -41 0
-1112 -9 -45 0
-1112 -9 -49 0
-1112 -9 -65 0
-1112 -9 -69 0
-1112 -9 -73 0
-1112 -9 -89 0
-1112 -9 -93 0
-1112 -9 -97 0
-1113 149 0
-1113 180 0
-1113 -1 0
-1113 -5 0
-1113 -6 0
-1113 -10 0
-1113 -7 184 0
-1113 -7 -31 -35 0
-1113 -7 -43 0
-1113 -7 -44 0
-1113 -7 -45 0
-1113 -7 -47 0
-1113 -7 -48 0
-1113 -7 -49 0
-1113 -7 -51 0
-1113 -7 -52 0
-1113 -7 -53 0
-1113 -7 -67 0
-1113 -7 -68 0
-1113 -7 -69 0
-1113 -7 -71 0
-1113 -7 -72 0
-1113 -7 -73 0
-1113 -7 -75 0
-1113 -7 -76 0
-1113 -7 -77 0
-1113 -7 -87 0
-1113 -7 -88 0
-1113 -7 -89 0
-1113 -7 -91 0
-1113 -7 -92 0
-1113 -7 -93 0
-1113 -7 -95 0
-1113 -7 -96 0
-1113 -7 -97 0
-1113 -7 -99 0
-1113 -7 -100 0
-1113 -7 -101 0
-1113 -8 185 0
-1113 -8 -31 -36 0
-1113 -8 -44 0
-1113 -8 -45 0
-1113 -8 -48 0
-1113 -8 -49 0
-1113 -8 -52 0
-1113 -8 -53 0
-1113 -8 -68 0
-1113 -8 -69 0
-1113 -8 -72 0
-1113 -8 -73 0
-1113 -8 -76 0
-1113 -8 -77 0
-1113 -8 -88 0
-1113 -8 -89 0
-1113 -8 -92 0
-1113 -8 -93 0
-1113 -8 -96 0
-1113 -8 -97 0
-1113 -8 -100 0
-1113 -8 -101 0
-1113 -9 186 0
-1113 -9 -31 -37 0
-1113 -9 -45 0
-1113 -9 -49 0
-1113 -9 -53 0
-1113 -9 -69 0
-1113 -9 -73 0
-1113 -9 -77 0
-1113 -9 -89 0
-1113 -9 -93 0
-1113 -9 -97 0
-1113 -9 -101 0
-1114 149 0
-1114 181 0
-1114 -1 0
-1114 -2 0
-1114 -6 0
-1114 -10 0
-1114 -7 184 0
-1114 -7 -32 -35 0
-1114 -7 -47 0
-1114 -7 -48 0
-1114 -7 -49 0
-1114 -7 -51 0
-1114 -7 -52 0
-1114 -7 -53 0
-1114 -7 -55 0
-1114 -7 -56 0
-1114 -7 -57 0
-1114 -7 -71 0
-1114 -7 -72 0
-1114 -7 -73 0
-1114 -7 -75 0
-1114 -7 -76 0
-1114 -7 -77 0
-1114 -7 -79 0
-1114 -7 -80 0
-1114 -7 -81 0
-1114 -7 -91 0
-1114 -7 -92 0
-1114 -7 -93 0
-1114 -7 -95 0
-1114 -7 -96 0
-1114 -7 -97 0
-1114 -7 -99 0
-1114 -7 -100 0
-1114 -7 -101 0
-1114 -7 -103 0
-1114 -7 -104 0
-1114 -7 -105 0
-1114 -8 185 0
-1114 -8 -32 -36 0
-1114 -8 -48 0
-1114 -8 -49 0
-1114 -8 -52 0
-1114 -8 -53 0
-1114 -8 -56 0
-1114 -8 -57 0
-1114 -8 -72 0
-1114 -8 -73 0
-1114 -8 -76 0
-1114 -8 -77 0
-1114 -8 -80 0
-1114 -8 -81 0
-1114 -8 -92 0
-1114 -8 -93 0
-1114 -8 -96 0
-1114 -8 -97 0
-1114 -8 -100 0
-1114 -8 -101 0
-1114 -8 -104 0
-1114 -8 -105 0
-1114 -9 186 0
-1114 -9 -32 -37 0
-1114 -9 -49 0
-1114 -9 -53 0
-1114 -9 -57 0
-1114 -9 -73 0
-1114 -9 -77 0
-1114 -9 -81 0
-1114 -9 -93 0
-1114 -9 -97 0
-1114 -9 -101 0
-1114 -9 -105 0
-1115 149 0
-1115 182 0
-1115 -1 0
-1115 -2 0
-1115 -3 0
-1115 -10 0
-1115 -7 184 0
-1115 -7 -33 -35 0
-1115 -7 -51 0
-1115 -7 -52 0
-1115 -7 -53 0
-1115 -7 -55 0
-1115 -7 -56 0
-1115 -7 -57 0
-1115 -7 -59 0
-1115 -7 -60 0
-1115 -7 -61 0
-1115 -7 -75 0
-1115 -7 -76 0
-1115 -7 -77 0
-1115 -7 -79 0
-1115 -7 -80 0
-1115 -7 -81 0
-1115 -7 -83 0
-1115 -7 -84 0
-1115 -7 -85 0
-1115 -7 -95 0
-1115 -7 -96 0
-1115 -7 -97 0
-1115 -7 -99 0
-1115 -7 -100 0
-1115 -7 -101 0
-1115 -7 -103 0
-1115 -7 -104 0
-1115 -7 -105 0
-1115 -8 185 0
-1115 -8 -33 -36 0
-1115 -8 -52 0
-1115 -8 -53 0
-1115 -8 -56 0
-1115 -8 -57 0
-1115 -8 -60 0
-1115 -8 -61 0
-1115 -8 -76 0
-1115 -8 -77 0
-1115 -8 -80 0
-1115 -8 -81 0
-1115 -8 -84 0
-1115 -8 -85 0
-1115 -8 -96 0
-1115 -8 -97 0
-1115 -8 -100 0
-1115 -8 -101 0
-1115 -8 -104 0
-1115 -8 -105 0
-1115 -9 186 0
-1115 -9 -33 -37 0
-1115 -9 -53 0
-1115 -9 -57 0
-1115 -9 -61 0
-1115 -9 -77 0
-1115 -9 -81 0
-1115 -9 -85 0
-1115 -9 -97 0
-1115 -9 -101 0
-1115 -9 -105 0
-1116 149 0
-1116 179 0
-1116 -14 0
-1116 -15 0
-1116 -16 0
-1116 -20 0
-1116 -17 184 0
-1116 -17 -30 -35 0
-1116 -17 -39 0
-1116 -17 -40 0
-1116 -17 -41 0
-1116 -17 -43 0
-1116 -17 -44 0
-1116 -17 -45 0
-1116 -17 -47 0
-1116 -17 -48 0
-1116 -17 -49 0
-1116 -17 -63 0
-1116 -17 -64 0
-1116 -17 -65 0
-1116 -17 -67 0
-1116 -17 -68 0
-1116 -17 -69 0
-1116 -17 -71 0
-1116 -17 -72 0
-1116 -17 -73 0
-1116 -17 -87 0
-1116 -17 -88 0
-1116 -17 -89 0
-1116 -17 -91 0
-1116 -17 -92 0
-1116 -17 -93 0
-1116 -17 -95 0
-1116 -17 -96 0
-1116 -17 -97 0
-1116 -18 185 0
-1116 -18 -30 -36 0
-1116 -18 -40 0
-1116 -18 -41 0
-1116 -18 -44 0
-1116 -18 -45 0
-1116 -18 -48 0
-1116 -18 -49 0
-1116 -18 -64 0
-1116 -18 -65 0
-1116 -18 -68 0
-1116 -18 -69 0
-1116 -18 -72 0
-1116 -18 -73 0
-1116 -18 -88 0
-1116 -18 -89 0
-1116 -18 -92 0
-1116 -18 -93 0
-1116 -18 -96 0
-1116 -18 -97 0
-1116 -19 186 0
-1116 -19 -30 -37 0
-1116 -19 -41 0
-1116 -19 -45 0
-1116 -19 -49 0
-1116 -19 -65 0
-1116 -19 -69 0
-1116 -19 -73 0
-1116 -19 -89 0
-1116 -19 -93 0
-1116 -19 -97 0
-1117 149 0
-1117 180 0
-1117 -11 0
-1117 -15 0
-1117 -16 0
-1117 -20 0
-1117 -17 184 0
-1117 -17 -31 -35 0
-1117 -17 -43 0
-1117 -17 -44 0
-1117 -17 -45 0
-1117 -17 -47 0
-1117 -17 -48 0
-1117 -17 -49 0
-1117 -17 -51 0
-1117 -17 -52 0
-1117 -17 -53 0
-1117 -17 -67 0
-1117 -17 -68 0
-1117 -17 -69 0
-1117 -17 -71 0
-1117 -17 -72 0
-1117 -17 -73 0
-1117 -17 -75 0
-1117 -17 -76 0
-1117 -17 -77 0
-1117 -17 -87 0
-1117 -17 -88 0
-1117 -17 -89 0
-1117 -17 -91 0
-1117 -17 -92 0
-1117 -17 -93 0
-1117 -17 -95 0
-1117 -17 -96 0
-1117 -17 -97 0
-1117 -17 -99 0
-1117 -17 -100 0
-1117 -17 -101 0
-1117 -18 185 0
-1117 -18 -31 -36 0
-1117 -18 -44 0
-1117 -18 -45 0
-1117 -18 -48 0
-1117 -18 -49 0
-1117 -18 -52 0
-1117 -18 -53 0
-1117 -18 -68 0
-1117 -18 -69 0
-1117 -18 -72 0
-1117 -18 -73 0
-1117 -18 -76 0
-1117 -18 -77 0
-1117 -18 -88 0
-1117 -18 -89 0
-1117 -18 -92 0
-1117 -18 -93 0
-1117 -18 -96 0
-1117 -18 -97 0
-1117 -18 -100 0
-1117 -18 -101 0
-1117 -19 186 0
-1117 -19 -31 -37 0
-1117 -19 -45 0
-1117 -19 -49 0
-1117 -19 -53 0
-1117 -19 -69 0
-1117 -19 -73 0
-1117 -19 -77 0
-1117 -19 -89 0
-1117 -19 -93 0
-1117 -19 -97 0
-1117 -19 -101 0
-1118 149 0
-1118 181 0
-1118 -11 0
-1118 -12 0
-1118 -16 0
-1118 -20 0
-1118 -17 184 0
-1118 -17 -32 -35 0
-1118 -17 -47 0
-1118 -17 -48 0
-1118 -17 -49 0
-1118 -17 -51 0
-1118 -17 -52 0
-1118 -17 -53 0
-1118 -17 -55 0
-1118 -17 -56 0
-1118 -17 -57 0
-1118 -17 -71 0
-1118 -17 -72 0
-1118 -17 -73 0
-1118 -17 -75 0
-1118 -17 -76 0
-1118 -17 -77 0
-1118 -17 -79 0
-1118 -17 -80 0
-1118 -17 -81 0
-1118 -17 -91 0
-1118 -17 -92 0
-1118 -17 -93 0
-1118 -17 -95 0
-1118 -17 -96 0
-1118 -17 -97 0
-1118 -17 -99 0
-1118 -17 -100 0
-1118 -17 -101 0
-1118 -17 -103 0
-1118 -17 -104 0
-1118 -17 -105 0
-1118 -18 185 0
-1118 -18 -32 -36 0
-1118 -18 -48 0
-1118 -18 -49 0
-1118 -18 -52 0
-1118 -18 -53 0
-1118 -18 -56 0
-1118 -18 -57 0
-1118 -18 -72 0
-1118 -18 -73 0
-1118 -18 -76 0
-1118 -18 -77 0
-1118 -18 -80 0
-1118 -18 -81 0
-1118 -18 -92 0
-1118 -18 -93 0
-1118 -18 -96 0
-1118 -18 -97 0
-1118 -18 -100 0
-1118 -18 -101 0
-1118 -18 -104 0
-1118 -18 -105 0
-1118 -19 186 0
-1118 -19 -32 -37 0
-1118 -19 -49 0
-1118 -19 -53 0
-1118 -19 -57 0
-1118 -19 -73 0
-1118 -19 -77 0
-1118 -19 -81 0
-1118 -19 -93 0
-1118 -19 -97 0
-1118 -19 -101 0
-1118 -19 -105 0
-1119 149 0
-1119 182 0
-1119 -11 0
-1119 -12 0
-1119 -13 0
-1119 -20 0
-1119 -17 184 0
-1119 -17 -33 -35 0
-1119 -17 -51 0
-1119 -17 -52 0
-1119 -17 -53 0
-1119 -17 -55 0
-1119 -17 -56 0
-1119 -17 -57 0
-1119 -17 -59 0
-1119 -17 -60 0
-1119 -17 -61 0
-1119 -17 -75 0
-1119 -17 -76 0
-1119 -17 -77 0
-1119 -17 -79 0
-1119 -17 -80 0
-1119 -17 -81 0
-1119 -17 -83 0
-1119 -17 -84 0
-1119 -17 -85 0
-1119 -17 -95 0
-1119 -17 -96 0
-1119 -17 -97 0
-1119 -17 -99 0
-1119 -17 -100 0
-1119 -17 -101 0
-1119 -17 -103 0
-1119 -17 -104 0
-1119 -17 -105 0
-1119 -18 185 0
-1119 -18 -33 -36 0
-1119 -18 -52 0
-1119 -18 -53 0
-1119 -18 -56 0
-1119 -18 -57 0
-1119 -18 -60 0
-1119 -18 -61 0
-1119 -18 -76 0
-1119 -18 -77 0
-1119 -18 -80 0
-1119 -18 -81 0
-1119 -18 -84 0
-1119 -18 -85 0
-1119 -18 -96 0
-1119 -18 -97 0
-1119 -18 -100 0
-1119 -18 -101 0
-1119 -18 -104 0
-1119 -18 -105 0
-1119 -19 186 0
-1119 -19 -33 -37 0
-1119 -19 -53 0
-1119 -19 -57 0
-1119 -19 -61 0
-1119 -19 -77 0
-1119 -19 -81 0
-1119 -19 -85 0
-1119 -19 -97 0
-1119 -19 -101 0
-1119 -19 -105 0
-1120 149 0
-1120 179 0
-1120 -24 0
-1120 -25 0
-1120 -29 0
-1120 -26 184 0
-1120 -26 -30 -35 0
-1120 -26 -39 0
-1120 -26 -40 0
-1120 -26 -41 0
-1120 -26 -43 0
-1120 -26 -44 0
-1120 -26 -45 0
-1120 -26 -47 0
-1120 -26 -48 0
-1120 -26 -49 0
-1120 -26 -63 0
-1120 -26 -64 0
-1120 -26 -65 0
-1120 -26 -67 0
-1120 -26 -68 0
-1120 -26 -69 0
-1120 -26 -71 0
-1120 -26 -72 0
-1120 -26 -73 0
-1120 -26 -87 0
-1120 -26 -88 0
-1120 -26 -89 0
-1120 -26 -91 0
-1120 -26 -92 0
-1120 -26 -93 0
-1120 -26 -95 0
-1120 -26 -96 0
-1120 -26 -97 0
-1120 -27 185 0
-1120 -27 -30 -36 0
-1120 -27 -40 0
-1120 -27 -41 0
-1120 -27 -44 0
-1120 -27 -45 0
-1120 -27 -48 0
-1120 -27 -49 0
-1120 -27 -64 0
-1120 -27 -65 0
-1120 -27 -68 0
-1120 -27 -69 0
-1120 -27 -72 0
-1120 -27 -73 0
-1120 -27 -88 0
-1120 -27 -89 0
-1120 -27 -92 0
-1120 -27 -93 0
-1120 -27 -96 0
-1120 -27 -97 0
-1120 -28 186 0
-1120 -28 -30 -37 0
-1120 -28 -41 0
-1120 -28 -45 0
-1120 -28 -49 0
-1120 -28 -65 0
-1120 -28 -69 0
-1120 -28 -73 0
-1120 -28 -89 0
-1120 -28 -93 0
-1120 -28 -97 0
-1121 149 0
-1121 180 0
-1121 -25 0
-1121 -29 0
-1121 -26 184 0
-1121 -26 -31 -35 0
-1121 -26 -43 0
-1121 -26 -44 0
-1121 -26 -45 0
-1121 -26 -47 0
-1121 -26 -48 0
-1121 -26 -49 0
-1121 -26 -51 0
-1121 -26 -52 0
-1121 -26 -53 0
-1121 -26 -67 0
-1121 -26 -68 0
-1121 -26 -69 0
-1121 -26 -71 0
-1121 -26 -72 0
-1121 -26 -73 0
-1121 -26 -75 0
-1121 -26 -76 0
-1121 -26 -77 0
-1121 -26 -87 0
-1121 -26 -88 0
-1121 -26 -89 0
-1121 -26 -91 0
-1121 -26 -92 0
-1121 -26 -93 0
-1121 -26 -95 0
-1121 -26 -96 0
-1121 -26 -97 0
-1121 -26 -99 0
-1121 -26 -100 0
-1121 -26 -101 0
-1121 -27 185 0
-1121 -27 -31 -36 0
-1121 -27 -44 0
-1121 -27 -45 0
-1121 -27 -48 0
-1121 -27 -49 0
-1121 -27 -52 0
-1121 -27 -53 0
-1121 -27 -68 0
-1121 -27 -69 0
-1121 -27 -72 0
-1121 -27 -73 0
-1121 -27 -76 0
-1121 -27 -77 0
-1121 -27 -88 0
-1121 -27 -89 0
-1121 -27 -92 0
-1121 -27 -93 0
-1121 -27 -96 0
-1121 -27 -97 0
-1121 -27 -100 0
-1121 -27 -101 0
-1121 -28 186 0
-1121 -28 -31 -37 0
-1121 -28 -45 0
-1121 -28 -49 0
-1121 -28 -53 0
-1121 -28 -69 0
-1121 -28 -73 0
-1121 -28 -77 0
-1121 -28 -89 0
-1121 -28 -93 0
-1121 -28 -97 0
-1121 -28 -101 0
-1122 149 0
-1122 181 0
-1122 -21 0
-1122 -29 0
-1122 -26 184 0
-1122 -26 -32 -35 0
-1122 -26 -47 0
-1122 -26 -48 0
-1122 -26 -49 0
-1122 -26 -51 0
-1122 -26 -52 0
-1122 -26 -53 0
-1122 -26 -55 0
-1122 -26 -56 0
-1122 -26 -57 0
-1122 -26 -71 0
-1122 -26 -72 0
-1122 -26 -73 0
-1122 -26 -75 0
-1122 -26 -76 0
-1122 -26 -77 0
-1122 -26 -79 0
-1122 -26 -80 0
-1122 -26 -81 0
-1122 -26 -91 0
-1122 -26 -92 0
-1122 -26 -93 0
-1122 -26 -95 0
-1122 -26 -96 0
-1122 -26 -97 0
-1122 -26 -99 0
-1122 -26 -100 0
-1122 -26 -101 0
-1122 -26 -103 0
-1122 -26 -104 0
-1122 -26 -105 0
-1122 -27 185 0
-1122 -27 -32 -36 0
-1122 -27 -48 0
-1122 -27 -49 0
-1122 -27 -52 0
-1122 -27 -53 0
-1122 -27 -56 0
-1122 -27 -57 0
-1122 -27 -72 0
-1122 -27 -73 0
-1122 -27 -76 0
-1122 -27 -77 0
-1122 -27 -80 0
-1122 -27 -81 0
-1122 -27 -92 0
-1122 -27 -93 0
-1122 -27 -96 0
-1122 -27 -97 0
-1122 -27 -100 0
-1122 -27 -101 0
-1122 -27 -104 0
-1122 -27 -105 0
-1122 -28 186 0
-1122 -28 -32 -37 0
-1122 -28 -49 0
-1122 -28 -53 0
-1122 -28 -57 0
-1122 -28 -73 0
-1122 -28 -77 0
-1122 -28 -81 0
-1122 -28 -93 0
-1122 -28 -97 0
-1122 -28 -101 0
-1122 -28 -105 0
-1123 149 0
-1123 182 0
-1123 -21 0
-1123 -22 0
-1123 -29 0
-1123 -26 184 0
-1123 -26 -33 -35 0
-1123 -26 -51 0
-1123 -26 -52 0
-1123 -26 -53 0
-1123 -26 -55 0
-1123 -26 -56 0
-1123 -26 -57 0
-1123 -26 -59 0
-1123 -26 -60 0
-1123 -26 -61 0
-1123 -26 -75 0
-1123 -26 -76 0
-1123 -26 -77 0
-1123 -26 -79 0
-1123 -26 -80 0
-1123 -26 -81 0
-1123 -26 -83 0
-1123 -26 -84 0
-1123 -26 -85 0
-1123 -26 -95 0
-1123 -26 -96 0
-1123 -26 -97 0
-1123 -26 -99 0
-1123 -26 -100 0
-1123 -26 -101 0
-1123 -26 -103 0
-1123 -26 -104 0
-1123 -26 -105 0
-1123 -27 185 0
-1123 -27 -33 -36 0
-1123 -27 -52 0
-1123 -27 -53 0
-1123 -27 -56 0
-1123 -27 -57 0
-1123 -27 -60 0
-1123 -27 -61 0
-1123 -27 -76 0
-1123 -27 -77 0
-1123 -27 -80 0
-1123 -27 -81 0
-1123 -27 -84 0
-1123 -27 -85 0
-1123 -27 -96 0
-1123 -27 -97 0
-1123 -27 -100 0
-1123 -27 -101 0
-1123 -27 -104 0
-1123 -27 -105 0
-1123 -28 186 0
-1123 -28 -33 -37 0
-1123 -28 -53 0
-1123 -28 -57 0
-1123 -28 -61 0
-1123 -28 -77 0
-1123 -28 -81 0
-1123 -28 -85 0
-1123 -28 -97 0
-1123 -28 -101 0
-1123 -28 -105 0
-1124 149 0
-1124 179 0
-1124 183 0
-1124 -30 -34 0
-1124 -38 0
-1124 -39 0
-1124 -40 0
-1124 -41 0
-1124 -42 0
-1124 -43 0
-1124 -44 0
-1124 -45 0
-1124 -46 0
-1124 -47 0
-1124 -48 0
-1124 -49 0
-1124 -62 0
-1124 -63 0
-1124 -64 0
-1124 -65 0
-1124 -66 0
-1124 -67 0
-1124 -68 0
-1124 -69 0
-1124 -70 0
-1124 -71 0
-1124 -72 0
-1124 -73 0
-1124 -86 0
-1124 -87 0
-1124 -88 0
-1124 -89 0
-1124 -90 0
-1124 -91 0
-1124 -92 0
-1124 -93 0
-1124 -94 0
-1124 -95 0
-1124 -96 0
-1124 -97 0
-1125 149 0
-1125 180 0
-1125 183 0
-1125 -31 -34 0
-1125 -42 0
-1125 -43 0
-1125 -44 0
-1125 -45 0
-1125 -46 0
-1125 -47 0
-1125 -48 0
-1125 -49 0
-1125 -50 0
-1125 -51 0
-1125 -52 0
-1125 -53 0
-1125 -66 0
-1125 -67 0
-1125 -68 0
-1125 -69 0
-1125 -70 0
-1125 -71 0
-1125 -72 0
-1125 -73 0
-1125 -74 0
-1125 -75 0
-1125 -76 0
-1125 -77 0
-1125 -86 0
-1125 -87 0
-1125 -88 0
-1125 -89 0
-1125 -90 0
-1125 -91 0
-1125 -92 0
-1125 -93 0
-1125 -94 0
-1125 -95 0
-1125 -96 0
-1125 -97 0
-1125 -98 0
-1125 -99 0
-1125 -100 0
-1125 -101 0
-1126 149 0
-1126 181 0
-1126 183 0
-1126 -32 -34 0
-1126 -46 0
-1126 -47 0
-1126 -48 0
-1126 -49 0
-1126 -50 0
-1126 -51 0
-1126 -52 0
-1126 -53 0
-1126 -54 0
-1126 -55 0
-1126 -56 0
-1126 -57 0
-1126 -70 0
-1126 -71 0
-1126 -72 0
-1126 -73 0
-1126 -74 0
-1126 -75 0
-1126 -76 0
-1126 -77 0
-1126 -78 0
-1126 -79 0
-1126 -80 0
-1126 -81 0
-1126 -90 0
-1126 -91 0
-1126 -92 0
-1126 -93 0
-1126 -94 0
-1126 -95 0
-1126 -96 0
-1126 -97 0
-1126 -98 0
-1126 -99 0
-1126 -100 0
-1126 -101 0
-1126 -102 0
-1126 -103 0
-1126 -104 0
-1126 -105 0
-1127 149 0
-1127 182 0
-1127 183 0
-1127 -33 -34 0
-1127 -50 0
-1127 -51 0
-1127 -52 0
-1127 -53 0
-1127 -54 0
-1127 -55 0
-1127 -56 0
-1127 -57 0
-1127 -58 0
-1127 -59 0
-1127 -60 0
-1127 -61 0
-1127 -74 0
-1127 -75 0
-1127 -76 0
-1127 -77 0
-1127 -78 0
-1127 -79 0
-1127 -80 0
-1127 -81 0
-1127 -82 0
-1127 -83 0
-1127 -84 0
-1127 -85 0
-1127 -94 0
-1127 -95 0
-1127 -96 0
-1127 -97 0
-1127 -98 0
-1127 -99 0
-1127 -100 0
-1127 -101 0
-1127 -102 0
-1127 -103 0
-1127 -104 0
-1127 -105 0
1132 1133 1134 1135 1136 1137 1138 1139 1140 1141 1142 1143 1144 1145 1146 1147 1148 1149 1150 1151 1152 1153 1154 1155 1156 1157 1158 1159 1160 1161 1162 1163 1164 1165 1166 1167 1168 1169 1170 1171 1172 1173 1174 1175 1176 1177 1178 1179 1180 1181 1182 1183 1184 1185 1186 1187 1188 1189 1190 1191 1192 1193 1194 1195 1196 1197 1198 1199 1200 1201 1202 1203 1204 1205 1206 1207 1208 1209 1210 1211 1212 1213 1214 1215 0
-1132 -1133 0
-1132 -1134 0
-1132 -1135 0
-1132 -1136 0
-1132 -1137 0
-1132 -1138 0
-1132 -1139 0
-1132 -1140 0
-1132 -1141 0
-1132 -1142 0
-1132 -1143 0
-1132 -1144 0
-1132 -1145 0
-1132 -1146 0
-1132 -1147 0
-1132 -1148 0
-1132 -1149 0
-1132 -1150 0
-1132 -1151 0
-1132 -1152 0
-1132 -1153 0
-1132 -1154 0
-1132 -1155 0
-1132 -1156 0
-1132 -1157 0
-1132 -1158 0
-1132 -1159 0
-1132 -1160 0
-1132 -1161 0
-1132 -1162 0
-1132 -1163 0
-1132 -1164 0
-1132 -1165 0
-1132 -1166 0
-1132 -1167 0
-1132 -1168 0
-1132 -1169 0
-1132 -1170 0
-1132 -1171 0
-1132 -1172 0
-1132 -1173 0
-1132 -1174 0
-1132 -1175 0
-1132 -1176 0
-1132 -1177 0
-1132 -1178 0
-1132 -1179 0
-1132 -1180 0
-1132 -1181 0
-1132 -1182 0
-1132 -1183 0
-1132 -1184 0
-1132 -1185 0
-1132 -1186 0
-1132 -1187 0
-1132 -1188 0
-1132 -1189 0
-1132 -1190 0
-1132 -1191 0
-1132 -1192 0
-1132 -1193 0
-1132 -1194 0
-1132 -1195 0
-1132 -1196 0
-1132 -1197 0
-1132 -1198 0
-1132 -1199 0
-1132 -1200 0
-1132 -1201 0
-1132 -1202 0
-1132 -1203 0
-1132 -1204 0
-1132 -1205 0
-1132 -1206 0
-1132 -1207 0
-1132 -1208 0
-1132 -1209 0
-1132 -1210 0
-1132 -1211 0
-1132 -1212 0
-1132 -1213 0
-1132 -1214 0
-1132 -1215 0
-1133 -1134 0
-1133 -1135 0
-1133 -1136 0
-1133 -1137 0
-1133 -1138 0
-1133 -1139 0
-1133 -1140 0
-1133 -1141 0
-1133 -1142 0
-1133 -1143 0
-1133 -1144 0
-1133 -1145 0
-1133 -1146 0
-1133 -1147 0
-1133 -1148 0
-1133 -1149 0
-1133 -1150 0
-1133 -1151 0
-1133 -1152 0
-1133 -1153 0
-1133 -1154 0
-1133 -1155 0
-1133 -1156 0
-1133 -1157 0
-1133 -1158 0
-1133 -1159 0
-1133 -1160 0
-1133 -1161 0
-1133 -1162 0
-1133 -1163 0
-1133 -1164 0
-1133 -1165 0
-1133 -1166 0
-1133 -1167 0
-1133 -1168 0
-1133 -1169 0
-1133 -1170 0
-1133 -1171 0
-1133 -1172 0
-1133 -1173 0
-1133 -1174 0
-1133 -1175 0
-1133 -1176 0
-1133 -1177 0
-1133 -1178 0
-1133 -1179 0
-1133 -1180 0
-1133 -1181 0
-1133 -1182 0
-1133 -1183 0
-1133 -1184 0
-1133 -1185 0
-1133 -1186 0
-1133 -1187 0
-1133 -1188 0
-1133 -1189 0
-1133 -1190 0
-1133 -1191 0
-1133 -1192 0
-1133 -1193 0
-1133 -1194 0
-1133 -1195 0
-1133 -1196 0
-1133 -1197 0
-1133 -1198 0
-1133 -1199 0
-1133 -1200 0
-1133 -1201 0
-1133 -1202 0
-1133 -1203 0
-1133 -1204 0
-1133 -1205 0
-1133 -1206 0
-1133 -1207 0
-1133 -1208 0
-1133 -1209 0
-1133 -1210 0
-1133 -1211 0
-1133 -1212 0
-1133 -1213 0
-1133 -1214 0
-1133 -1215 0
-1134 -1135 0
-1134 -1136 0
-1134 -1137 0
-1134 -1138 0
-1134 -1139 0
-1134 -1140 0
-1134 -1141 0
-1134 -1142 0
-1134 -1143 0
-1134 -1144 0
-1134 -1145 0
-1134 -1146 0
-1134 -1147 0
-1134 -1148 0
-1134 -1149 0
-1134 -1150 0
-1134 -1151 0
-1134 -1152 0
-1134 -1153 0
-1134 -1154 0
-1134 -1155 0
-1134 -1156 0
-1134 -1157 0
-1134 -1158 0
-1134 -1159 0
-1134 -1160 0
-1134 -1161 0
-1134 -1162 0
-1134 -1163 0
-1134 -1164 0
-1134 -1165 0
-1134 -1166 0
-1134 -1167 0
-1134 -1168 0
-1134 -1169 0
-1134 -1170 0
-1134 -1171 0
-1134 -1172 0
-1134 -1173 0
-1134 -1174 0
-1134 -1175 0
-1134 -1176 0
-1134 -1177 0
-1134 -1178 0
-1134 -1179 0
-1134 -1180 0
-1134 -1181 0
-1134 -1182 0
-1134 -1183 0
-1134 -1184 0
-1134 -1185 0
-1134 -1186 0
-1134 -1187 0
-1134 -1188 0
-1134 -1189 0
-1134 -1190 0
-1134 -1191 0
-1134 -1192 0
-1134 -1193 0
-1134 -1194 0
-1134 -1195 0
-1134 -1196 0
-1134 -1197 0
-1134 -1198 0
-1134 -1199 0
-1134 -1200 0
-1134 -1201 0
-1134 -1202 0
-1134 -1203 0
-1134 -1204 0
-1134 -1205 0
-1134 -1206 0
-1134 -1207 0
-1134 -1208 0
-1134 -1209 0
-1134 -1210 0
-1134 -1211 0
-1134 -1212 0
-1134 -1213 0
-1134 -1214 0
-1134 -1215 0
-1135 -1136 0
-1135 -1137 0
-1135 -1138 0
-1135 -1139 0
-1135 -1140 0
-1135 -1141 0
-1135 -1142 0
-1135 -1143 0
-1135 -1144 0
-1135 -1145 0
-1135 -1146 0
-1135 -1147 0
-1135 -1148 0
-1135 -1149 0
-1135 -1150 0
-1135 -1151 0
-1135 -1152 0
-1135 -1153 0
-1135 -1154 0
-1135 -1155 0
-1135 -1156 0
-1135 -1157 0
-1135 -1158 0
-1135 -1159 0
-1135 -1160 0
-1135 -1161 0
-1135 -1162 0
-1135 -1163 0
-1135 -1164 0
-1135 -1165 0
-1135 -1166 0
-1135 -1167 0
-1135 -1168 0
-1135 -1169 0
-1135 -1170 0
-1135 -1171 0
-1135 -1172 0
-1135 -1173 0
-1135 -1174 0
-1135 -1175 0
-1135 -1176 0
-1135 -1177 0
-1135 -1178 0
-1135 -1179 0
-1135 -1180 0
-1135 -1181 0
-1135 -1182 0
-1135 -1183 0
-1135 -1184 0
-1135 -1185 0
-1135 -1186 0
-1135 -1187 0
-1135 -1188 0
-1135 -1189 0
-1135 -1190 0
-1135 -1191 0
-1135 -1192 0
-1135 -1193 0
-1135 -1194 0
-1135 -1195 0
-1135 -1196 0
-1135 -1197 0
-1135 -1198 0
-1135 -1199 0
-1135 -1200 0
-1135 -1201 0
-1135 -1202 0
-1135 -1203 0
-1135 -1204 0
-1135 -1205 0
-1135 -1206 0
-1135 -1207 0
-1135 -1208 0
-1135 -1209 0
-1135 -1210 0
-1135 -1211 0
-1135 -1212 0
-1135 -1213 0
-1135 -1214 0
-1135 -1215 0
-1136 -1137 0
-1136 -1138 0
-1136 -1139 0
-1136 -1140 0
-1136 -1141 0
-1136 -1142 0
-1136 -1143 0
-1136 -1144 0
-1136 -1145 0
-1136 -1146 0
-1136 -1147 0
-1136 -1148 0
-1136 -1149 0
-1136 -1150 0
-1136 -1151 0
-1136 -1152 0
-1136 -1153 0
-1136 -1154 0
-1136 -1155 0
-1136 -1156 0
-1136 -1157 0
-1136 -1158 0
-1136 -1159 0
-1136 -1160 0
-1136 -1161 0
-1136 -1162 0
-1136 -1163 0
-1136 -1164 0
-1136 -1165 0
-1136 -1166 0
-1136 -1167 0
-1136 -1168 0
-1136 -1169 0
-1136 -1170 0
-1136 -1171 0
-1136 -1172 0
-1136 -1173 0
-1136 -1174 0
-1136 -1175 0
-1136 -1176 0
-1136 -1177 0
-1136 -1178 0
-1136 -1179 0
-1136 -1180 0
-1136 -1181 0
-1136 -1182 0
-1136 -1183 0
-1136 -1184 0
-1136 -1185 0
-1136 -1186 0
-1136 -1187 0
-1136 -1188 0
-1136 -1189 0
-1136 -1190 0
-1136 -1191 0
-1136 -1192 0
-1136 -1193 0
-1136 -1194 0
-1136 -1195 0
-1136 -1196 0
-1136 -1197 0
-1136 -1198 0
-1136 -1199 0
-1136 -1200 0
-1136 -1201 0
-1136 -1202 0
-1136 -1203 0
-1136 -1204 0
-1136 -1205 0
-1136 -1206 0
-1136 -1207 0
-1136 -1208 0
-1136 -1209 0
-1136 -1210 0
-1136 -1211 0
-1136 -1212 0
-1136 -1213 0
-1136 -1214 0
-1136 -1215 0
-1137 -1138 0
-1137 -1139 0
-1137 -1140 0
-1137 -1141 0
-1137 -1142 0
-1137 -1143 0
-1137 -1144 0
-1137 -1145 0
-1137 -1146 0
-1137 -1147 0
-1137 -1148 0
-1137 -1149 0
-1137 -1150 0
-1137 -1151 0
-1137 -1152 0
-1137 -1153 0
-1137 -1154 0
-1137 -1155 0
-1137 -1156 0
-1137 -1157 0
-1137 -1158 0
-1137 -1159 0
-1137 -1160 0
-1137 -1161 0
-1137 -1162 0
-1137 -1163 0
-1137 -1164 0
-1137 -1165 0
-1137 -1166 0
-1137 -1167 0
-1137 -1168 0
-1137 -1169 0
-1137 -1170 0
-1137 -1171 0
-1137 -1172 0
-1137 -1173 0
-1137 -1174 0
-1137 -1175 0
-1137 -1176 0
-1137 -1177 0
-1137 -1178 0
-1137 -1179 0
-1137 -1180 0
-1137 -1181 0
-1137 -1182 0
-1137 -1183 0
-1137 -1184 0
-1137 -1185 0
-1137 -1186 0
-1137 -1187 0
-1137 -1188 0
-1137 -1189 0
-1137 -1190 0
-1137 -1191 0
-1137 -1192 0
-1137 -1193 0
-1137 -1194 0
-1137 -1195 0
-1137 -1196 0
-1137 -1197 0
-1137 -1198 0
-1137 -1199 0
-1137 -1200 0
-1137 -1201 0
-1137 -1202 0
-1137 -1203 0
-1137 -1204 0
-1137 -1205 0
-1137 -1206 0
-1137 -1207 0
-1137 -1208 0
-1137 -1209 0
-1137 -1210 0
-1137 -1211 0
-1137 -1212 0
-1137 -1213 0
-1137 -1214 0
-1137 -1215 0
-1138 -1139 0
-1138 -1140 0
-1138 -1141 0
-1138 -1142 0
-1138 -1143 0
-1138 -1144 0
-1138 -1145 0
-1138 -1146 0
-1138 -1147 0
-1138 -1148 0
-1138 -1149 0
-1138 -1150 0
-1138 -1151 0
-1138 -1152 0
-1138 -1153 0
-1138 -1154 0
-1138 -1155 0
-1138 -1156 0
-1138 -1157 0
-1138 -1158 0
-1138 -1159 0
-1138 -1160 0
-1138 -1161 0
-1138 -1162 0
-1138 -1163 0
-1138 -1164 0
-1138 -1165 0
-1138 -1166 0
-1138 -1167 0
-1138 -1168 0
-1138 -1169 0
-1138 -1170 0
-1138 -1171 0
-1138 -1172 0
-1138 -1173 0
-1138 -1174 0
-1138 -1175 0
-1138 -1176 0
-1138 -1177 0
-1138 -1178 0
-1138 -1179 0
-1138 -1180 0
-1138 -1181 0
-1138 -1182 0
-1138 -1183 0
-1138 -1184 0
-1138 -1185 0
-1138 -1186 0
-1138 -1187 0
-1138 -1188 0
-1138 -1189 0
-1138 -1190 0
-1138 -1191 0
-1138 -1192 0
-1138 -1193 0
-1138 -1194 0
-1138 -1195 0
-1138 -1196 0
-1138 -1197 0
-1138 -1198 0
-1138 -1199 0
-1138 -1200 0
-1138 -1201 0
-1138 -1202 0
-1138 -1203 0
-1138 -1204 0
-1138 -1205 0
-1138 -1206 0
-1138 -1207 0
-1138 -1208 0
-1138 -1209 0
-1138 -1210 0
-1138 -1211 0
-1138 -1212 0
-1138 -1213 0
-1138 -1214 0
-1138 -1215 0
-1139 -1140 0
-1139 -1141 0
-1139 -1142 0
-1139 -1143 0
-1139 -1144 0
-1139 -1145 0
-1139 -1146 0
-1139 -1147 0
-1139 -1148 0
-1139 -1149 0
-1139 -1150 0
-1139 -1151 0
-1139 -1152 0
-1139 -1153 0
-1139 -1154 0
-1139 -1155 0
-1139 -1156 0
-1139 -1157 0
-1139 -1158 0
-1139 -1159 0
-1139 -1160 0
-1139 -1161 0
-1139 -1162 0
-1139 -1163 0
-1139 -1164 0
-1139 -1165 0
-1139 -1166 0
-1139 -1167 0
-1139 -1168 0
-1139 -1169 0
-1139 -1170 0
-1139 -1171 0
-1139 -1172 0
-1139 -1173 0
-1139 -1174 0
-1139 -1175 0
-1139 -1176 0
-1139 -1177 0
-1139 -1178 0
-1139 -1179 0
-1139 -1180 0
-1139 -1181 0
-1139 -1182 0
-1139 -1183 0
-1139 -1184 0
-1139 -1185 0
-1139 -1186 0
-1139 -1187 0
-1139 -1188 0
-1139 -1189 0
-1139 -1190 0
-1139 -1191 0
-1139 -1192 0
-1139 -1193 0
-1139 -1194 0
-1139 -1195 0
-1139 -1196 0
-1139 -1197 0
-1139 -1198 0
-1139 -1199 0
-1139 -1200 0
-1139 -1201 0
-1139 -1202 0
-1139 -1203 0
-1139 -1204 0
-1139 -1205 0
-1139 -1206 0
-1139 -1207 0
-1139 -1208 0
-1139 -1209 0
-1139 -1210 0
-1139 -1211 0
-1139 -1212 0
-1139 -1213 0
-1139 -1214 0
-1139 -1215 0
-1140 -1141 0
-1140 -1142 0
-1140 -1143 0
-1140 -1144 0
-1140 -1145 0
-1140 -1146 0
-1140 -1147 0
-1140 -1148 0
-1140 -1149 0
-1140 -1150 0
-1140 -1151 0
-1140 -1152 0
-1140 -1153 0
-1140 -1154 0
-1140 -1155 0
-1140 -1156 0
-1140 -1157 0
-1140 -1158 0
-1140 -1159 0
-1140 -1160 0
-1140 -1161 0
-1140 -1162 0
-1140 -1163 0
-1140 -1164 0
-1140 -1165 0
-1140 -1166 0
-1140 -1167 0
-1140 -1168 0
-1140 -1169 0
-1140 -1170 0
-1140 -1171 0
-1140 -1172 0
-1140 -1173 0
-1140 -1174 0
-1140 -1175 0
-1140 -1176 0
-1140 -1177 0
-1140 -1178 0
-1140 -1179 0
-1140 -1180 0
-1140 -1181 0
-1140 -1182 0
-1140 -1183 0
-1140 -1184 0
-1140 -1185 0
-1140 -1186 0
-1140 -1187 0
-1140 -1188 0
-1140 -1189 0
-1140 -1190 0
-1140 -1191 0
-1140 -1192 0
-1140 -1193 0
-1140 -1194 0
-1140 -1195 0
-1140 -1196 0
-1140 -1197 0
-1140 -1198 0
-1140 -1199 0
-1140 -1200 0
-1140 -1201 0
-1140 -1202 0
-1140 -1203 0
-1140 -1204 0
-1140 -1205 0
-1140 -1206 0
-1140 -1207 0
-1140 -1208 0
-1140 -1209 0
-1140 -1210 0
-1140 -1211 0
-1140 -1212 0
-1140 -1213 0
-1140 -1214 0
-1140 -1215 0
-1141 -1142 0
-1141 -1143 0
-1141 -1144 0
-1141 -1145 0
-1141 -1146 0
-1141 -1147 0
-1141 -1148 0
-1141 -1149 0
-1141 -1150 0
-1141 -1151 0
-1141 -1152 0
-1141 -1153 0
-1141 -1154 0
-1141 -1155 0
-1141 -1156 0
-1141 -1157 0
-1141 -1158 0
-1141 -1159 0
-1141 -1160 0
-1141 -1161 0
-1141 -1162 0
-1141 -1163 0
-1141 -1164 0
-1141 -1165 0
-1141 -1166 0
-1141 -1167 0
-1141 -1168 0
-1141 -1169 0
-1141 -1170 0
-1141 -1171 0
-1141 -1172 0
-1141 -1173 0
-1141 -1174 0
-1141 -1175 0
-1141 -1176 0
-1141 -1177 0
-1141 -1178 0
-1141 -1179 0
-1141 -1180 0
-1141 -1181 0
-1141 -1182 0
-1141 -1183 0
-1141 -1184 0
-1141 -1185 0
-1141 -1186 0
-1141 -1187 0
-1141 -1188 0
-1141 -1189 0
-1141 -1190 0
-1141 -1191 0
-1141 -1192 0
-1141 -1193 0
-1141 -1194 0
-1141 -1195 0
-1141 -1196 0
-1141 -1197 0
-1141 -1198 0
-1141 -1199 0
-1141 -1200 0
-1141 -1201 0
-1141 -1202 0
-1141 -1203 0
-1141 -1204 0
-1141 -1205 0
-1141 -1206 0
-1141 -1207 0
-1141 -1208 0
-1141 -1209 0
-1141 -1210 0
-1141 -1211 0
-1141 -1212 0
-1141 -1213 0
-1141 -1214 0
-1141 -1215 0
-1142 -1143 0
-1142 -1144 0
-1142 -1145 0
-1142 -1146 0
-1142 -1147 0
-1142 -1148 0
-1142 -1149 0
-1142 -1150 0
-1142 -1151 0
-1142 -1152 0
-1142 -1153 0
-1142 -1154 0
-1142 -1155 0
-1142 -1156 0
-1142 -1157 0
-1142 -1158 0
-1142 -1159 0
-1142 -1160 0
-1142 -1161 0
-1142 -1162 0
-1142 -1163 0
-1142 -1164 0
-1142 -1165 0
-1142 -1166 0
-1142 -1167 0
-1142 -1168 0
-1142 -1169 0
-1142 -1170 0
-1142 -1171 0
-1142 -1172 0
-1142 -1173 0
-1142 -1174 0
-1142 -1175 0
-1142 -1176 0
-1142 -1177 0
-1142 -1178 0
-1142 -1179 0
-1142 -1180 0
-1142 -1181 0
-1142 -1182 0
-1142 -1183 0
-1142 -1184 0
-1142 -1185 0
-1142 -1186 0
-1142 -1187 0
-1142 -1188 0
-1142 -1189 0
-1142 -1190 0
-1142 -1191 0
-1142 -1192 0
-1142 -1193 0
-1142 -1194 0
-1142 -1195 0
-1142 -1196 0
-1142 -1197 0
-1142 -1198 0
-1142 -1199 0
-1142 -1200 0
-1142 -1201 0
-1142 -1202 0
-1142 -1203 0
-1142 -1204 0
-1142 -1205 0
-1142 -1206 0
-1142 -1207 0
-1142 -1208 0
-1142 -1209 0
-1142 -1210 0
-1142 -1211 0
-1142 -1212 0
-1142 -1213 0
-1142 -1214 0
-1142 -1215 0
-1143 -1144 0
-1143 -1145 0
-1143 -1146 0
-1143 -1147 0
-1143 -1148 0
-1143 -1149 0
-1143 -1150 0
-1143 -1151 0
-1143 -1152 0
-1143 -1153 0
-1143 -1154 0
-1143 -1155 0
-1143 -1156 0
-1143 -1157 0
-1143 -1158 0
-1143 -1159 0
-1143 -1160 0
-1143 -1161 0
-1143 -1162 0
-1143 -1163 0
-1143 -1164 0
-1143 -1165 0
-1143 -1166 0
-1143 -1167 0
-1143 -1168 0
-1143 -1169 0
-1143 -1170 0
-1143 -1171 0
-1143 -1172 0
-1143 -1173 0
-1143 -1174 0
-1143 -1175 0
-1143 -1176 0
-1143 -1177 0
-1143 -1178 0
-1143 -1179 0
-1143 -1180 0
-1143 -1181 0
-1143 -1182 0
-1143 -1183 0
-1143 -1184 0
-1143 -1185 0
-1143 -1186 0
-1143 -1187 0
-1143 -1188 0
-1143 -1189 0
-1143 -1190 0
-1143 -1191 0
-1143 -1192 0
-1143 -1193 0
-1143 -1194 0
-1143 -1195 0
-1143 -1196 0
-1143 -1197 0
-1143 -1198 0
-1143 -1199 0
-1143 -1200 0
-1143 -1201 0
-1143 -1202 0
-1143 -1203 0
-1143 -1204 0
-1143 -1205 0
-1143 -1206 0
-1143 -1207 0
-1143 -1208 0
-1143 -1209 0
-1143 -1210 0
-1143 -1211 0
-1143 -1212 0
-1143 -1213 0
-1143 -1214 0
-1143 -1215 0
-1144 -1145 0
-1144 -1146 0
-1144 -1147 0
-1144 -1148 0
-1144 -1149 0
-1144 -1150 0
-1144 -1151 0
-1144 -1152 0
-1144 -1153 0
-1144 -1154 0
-1144 -1155 0
-1144 -1156 0
-1144 -1157 0
-1144 -1158 0
-1144 -1159 0
-1144 -1160 0
-1144 -1161 0
-1144 -1162 0
-1144 -1163 0
-1144 -1164 0
-1144 -1165 0
-1144 -1166 0
-1144 -1167 0
-1144 -1168 0
-1144 -1169 0
-1144 -1170 0
-1144 -1171 0
-1144 -1172 0
-1144 -1173 0
-1144 -1174 0
-1144 -1175 0
-1144 -1176 0
-1144 -1177 0
-1144 -1178 0
-1144 -1179 0
-1144 -1180 0
-1144 -1181 0
-1144 -1182 0
-1144 -1183 0
-1144 -1184 0
-1144 -1185 0
-1144 -1186 0
-1144 -1187 0
-1144 -1188 0
-1144 -1189 0
-1144 -1190 0
-1144 -1191 0
-1144 -1192 0
-1144 -1193 0
-1144 -1194 0
-1144 -1195 0
-1144 -1196 0
-1144 -1197 0
-1144 -1198 0
-1144 -1199 0
-1144 -1200 0
-1144 -1201 0
-1144 -1202 0
-1144 -1203 0
-1144 -1204 0
-1144 -1205 0
-1144 -1206 0
-1144 -1207 0
-1144 -1208 0
-1144 -1209 0
-1144 -1210 0
-1144 -1211 0
-1144 -1212 0
-1144 -1213 0
-1144 -1214 0
-1144 -1215 0
-1145 -1146 0
-1145 -1147 0
-1145 -1148 0
-1145 -1149 0
-1145 -1150 0
-1145 -1151 0
-1145 -1152 0
-1145 -1153 0
-1145 -1154 0
-1145 -1155 0
-1145 -1156 0
-1145 -1157 0
-1145 -1158 0
-1145 -1159 0
-1145 -1160 0
-1145 -1161 0
-1145 -1162 0
-1145 -1163 0
-1145 -1164 0
-1145 -1165 0
-1145 -1166 0
-1145 -1167 0
-1145 -1168 0
-1145 -1169 0
-1145 -1170 0
-1145 -1171 0
-1145 -1172 0
-1145 -1173 0
-1145 -1174 0
-1145 -1175 0
-1145 -1176 0
-1145 -1177 0
-1145 -1178 0
-1145 -1179 0
-1145 -1180 0
-1145 -1181 0
-1145 -1182 0
-1145 -1183 0
-1145 -1184 0
-1145 -1185 0
-1145 -1186 0
-1145 -1187 0
-1145 -1188 0
-1145 -1189 0
-1145 -1190 0
-1145 -1191 0
-1145 -1192 0
-1145 -1193 0
-1145 -1194 0
-1145 -1195 0
-1145 -1196 0
-1145 -1197 0
-1145 -1198 0
-1145 -1199 0
-1145 -1200 0
-1145 -1201 0
-1145 -1202 0
-1145 -1203 0
-1145 -1204 0
-1145 -1205 0
-1145 -1206 0
-1145 -1207 0
-1145 -1208 0
-1145 -1209 0
-1145 -1210 0
-1145 -1211 0
-1145 -1212 0
-1145 -1213 0
-1145 -1214 0
-1145 -1215 0
-1146 -1147 0
-1146 -1148 0
-1146 -1149 0
-1146 -1150 0
-1146 -1151 0
-1146 -1152 0
-1146 -1153 0
-1146 -1154 0
-1146 -1155 0
-1146 -1156 0
-1146 -1157 0
-1146 -1158 0
-1146 -1159 0
-1146 -1160 0
-1146 -1161 0
-1146 -1162 0
-1146 -1163 0
-1146 -1164 0
-1146 -1165 0
-1146 -1166 0
-1146 -1167 0
-1146 -1168 0
-1146 -1169 0
-1146 -1170 0
-1146 -1171 0
-1146 -1172 0
-1146 -1173 0
-1146 -1174 0
-1146 -1175 0
-1146 -1176 0
-1146 -1177 0
-1146 -1178 0
-1146 -1179 0
-1146 -1180 0
-1146 -1181 0
-1146 -1182 0
-1146 -1183 0
-1146 -1184 0
-1146 -1185 0
-1146 -1186 0
-1146 -1187 0
-1146 -1188 0
-1146 -1189 0
-1146 -1190 0
-1146 -1191 0
-1146 -1192 0
-1146 -1193 0
-1146 -1194 0
-1146 -1195 0
-1146 -1196 0
-1146 -1197 0
-1146 -1198 0
-1146 -1199 0
-1146 -1200 0
-1146 -1201 0
-1146 -1202 0
-1146 -1203 0
-1146 -1204 0
-1146 -1205 0
-1146 -1206 0
-1146 -1207 0
-1146 -1208 0
-1146 -1209 0
-1146 -1210 0
-1146 -1211 0
-1146 -1212 0
-1146 -1213 0
-1146 -1214 0
-1146 -1215 0
-1147 -1148 0
-1147 -1149 0
-1147 -1150 0
-1147 -1151 0
-1147 -1152 0
-1147 -1153 0
-1147 -1154 0
-1147 -1155 0
-1147 -1156 0
-1147 -1157 0
-1147 -1158 0
-1147 -1159 0
-1147 -1160 0
-1147 -1161 0
-1147 -1162 0
-1147 -1163 0
-1147 -1164 0
-1147 -1165 0
-1147 -1166 0
-1147 -1167 0
-1147 -1168 0
-1147 -1169 0
-1147 -1170 0
-1147 -1171 0
-1147 -1172 0
-1147 -1173 0
-1147 -1174 0
-1147 -1175 0
-1147 -1176 0
-1147 -1177 0
-1147 -1178 0
-1147 -1179 0
-1147 -1180 0
-1147 -1181 0
-1147 -1182 0
-1147 -1183 0
-1147 -1184 0
-1147 -1185 0
-1147 -1186 0
-1147 -1187 0
-1147 -1188 0
-1147 -1189 0
-1147 -1190 0
-1147 -1191 0
-1147 -1192 0
-1147 -1193 0
-1147 -1194 0
-1147 -1195 0
-1147 -1196 0
-1147 -1197 0
-1147 -1198 0
-1147 -1199 0
-1147 -1200 0
-1147 -1201 0
-1147 -1202 0
-1147 -1203 0
-1147 -1204 0
-1147 -1205 0
-1147 -1206 0
-1147 -1207 0
-1147 -1208 0
-1147 -1209 0
-1147 -1210 0
-1147 -1211 0
-1147 -1212 0
-1147 -1213 0
-1147 -1214 0
-1147 -1215 0
-1148 -1149 0
-1148 -1150 0
-1148 -1151 0
-1148 -1152 0
-1148 -1153 0
-1148 -1154 0
-1148 -1155 0
-1148 -1156 0
-1148 -1157 0
-1148 -1158 0
-1148 -1159 0
-1148 -1160 0
-1148 -1161 0
-1148 -1162 0
-1148 -1163 0
-1148 -1164 0
-1148 -1165 0
-1148 -1166 0
-1148 -1167 0
-1148 -1168 0
-1148 -1169 0
-1148 -1170 0
-1148 -1171 0
-1148 -1172 0
-1148 -1173 0
-1148 -1174 0
-1148 -1175 0
-1148 -1176 0
-1148 -1177 0
-1148 -1178 0
-1148 -1179 0
-1148 -1180 0
-1148 -1181 0
-1148 -1182 0
-1148 -1183 0
-1148 -1184 0
-1148 -1185 0
-1148 -1186 0
-1148 -1187 0
-1148 -1188 0
-1148 -1189 0
-1148 -1190 0
-1148 -1191 0
-1148 -1192 0
-1148 -1193 0
-1148 -1194 0
-1148 -1195 0
-1148 -1196 0
-1148 -1197 0
-1148 -1198 0
-1148 -1199 0
-1148 -1200 0
-1148 -1201 0
-1148 -1202 0
-1148 -1203 0
-1148 -1204 0
-1148 -1205 0
-1148 -1206 0
-1148 -1207 0
-1148 -1208 0
-1148 -1209 0
-1148 -1210 0
-1148 -1211 0
-1148 -1212 0
-1148 -1213 0
-1148 -1214 0
-1148 -1215 0
-1149 -1150 0
-1149 -1151 0
-1149 -1152 0
-1149 -1153 0
-1149 -1154 0
-1149 -1155 0
-1149 -1156 0
-1149 -1157 0
-1149 -1158 0
-1149 -1159 0
-1149 -1160 0
-1149 -1161 0
-1149 -1162 0
-1149 -1163 0
-1149 -1164 0
-1149 -1165 0
-1149 -1166 0
-1149 -1167 0
-1149 -1168 0
-1149 -1169 0
-1149 -1170 0
-1149 -1171 0
-1149 -1172 0
-1149 -1173 0
-1149 -1174 0
-1149 -1175 0
-1149 -1176 0
-1149 -1177 0
-1149 -1178 0
-1149 -1179 0
-1149 -1180 0
-1149 -1181 0
-1149 -1182 0
-1149 -1183 0
-1149 -1184 0
-1149 -1185 0
-1149 -1186 0
-1149 -1187 0
-1149 -1188 0
-1149 -1189 0
-1149 -1190 0
-1149 -1191 0
-1149 -1192 0
-1149 -1193 0
-1149 -1194 0
-1149 -1195 0
-1149 -1196 0
-1149 -1197 0
-1149 -1198 0
-1149 -1199 0
-1149 -1200 0
-1149 -1201 0
-1149 -1202 0
-1149 -1203 0
-1149 -1204 0
-1149 -1205 0
-1149 -1206 0
-1149 -1207 0
-1149 -1208 0
-1149 -1209 0
-1149 -1210 0
-1149 -1211 0
-1149 -1212 0
-1149 -1213 0
-1149 -1214 0
-1149 -1215 0
-1150 -1151 0
-1150 -1152 0
-1150 -1153 0
-1150 -1154 0
-1150 -1155 0
-1150 -1156 0
-1150 -1157 0
-1150 -1158 0
-1150 -1159 0
-1150 -1160 0
-1150 -1161 0
-1150 -1162 0
-1150 -1163 0
-1150 -1164 0
-1150 -1165 0
-1150 -1166 0
-1150 -1167 0
-1150 -1168 0
-1150 -1169 0
-1150 -1170 0
-1150 -1171 0
-1150 -1172 0
-1150 -1173 0
-1150 -1174 0
-1150 -1175 0
-1150 -1176 0
-1150 -1177 0
-1150 -1178 0
-1150 -1179 0
-1150 -1180 0
-1150 -1181 0
-1150 -1182 0
-1150 -1183 0
-1150 -1184 0
-1150 -1185 0
-1150 -1186 0
-1150 -1187 0
-1150 -1188 0
-1150 -1189 0
-1150 -1190 0
-1150 -1191 0
-1150 -1192 0
-1150 -1193 0
-1150 -1194 0
-1150 -1195 0
-1150 -1196 0
-1150 -1197 0
-1150 -1198 0
-1150 -1199 0
-1150 -1200 0
-1150 -1201 0
-1150 -1202 0
-1150 -1203 0
-1150 -1204 0
-1150 -1205 0
-1150 -1206 0
-1150 -1207 0
-1150 -1208 0
-1150 -1209 0
-1150 -1210 0
-1150 -1211 0
-1150 -1212 0
-1150 -1213 0
-1150 -1214 0
-1150 -1215 0
-1151 -1152 0
-1151 -1153 0
-1151 -1154 0
-1151 -1155 0
-1151 -1156 0
-1151 -1157 0
-1151 -1158 0
-1151 -1159 0
-1151 -1160 0
-1151 -1161 0
-1151 -1162 0
-1151 -1163 0
-1151 -1164 0
-1151 -1165 0
-1151 -1166 0
-1151 -1167 0
-1151 -1168 0
-1151 -1169 0
-1151 -1170 0
-1151 -1171 0
-1151 -1172 0
-1151 -1173 0
-1151 -1174 0
-1151 -1175 0
-1151 -1176 0
-1151 -1177 0
-1151 -1178 0
-1151 -1179 0
-1151 -1180 0
-1151 -1181 0
-1151 -1182 0
-1151 -1183 0
-1151 -1184 0
-1151 -1185 0
-1151 -1186 0
-1151 -1187 0
-1151 -1188 0
-1151 -1189 0
-1151 -1190 0
-1151 -1191 0
-1151 -1192 0
-1151 -1193 0
-1151 -1194 0
-1151 -1195 0
-1151 -1196 0
-1151 -1197 0
-1151 -1198 0
-1151 -1199 0
-1151 -1200 0
-1151 -1201 0
-1151 -1202 0
-1151 -1203 0
-1151 -1204 0
-1151 -1205 0
-1151 -1206 0
-1151 -1207 0
-1151 -1208 0
-1151 -1209 0
-1151 -1210 0
-1151 -1211 0
-1151 -1212 0
-1151 -1213 0
-1151 -1214 0
-1151 -1215 0
-1152 -1153 0
-1152 -1154 0
-1152 -1155 0
-1152 -1156 0
-1152 -1157 0
-1152 -1158 0
-1152 -1159 0
-1152 -1160 0
-1152 -1161 0
-1152 -1162 0
-1152 -1163 0
-1152 -1164 0
-1152 -1165 0
-1152 -1166 0
-1152 -1167 0
-1152 -1168 0
-1152 -1169 0
-1152 -1170 0
-1152 -1171 0
-1152 -1172 0
-1152 -1173 0
-1152 -1174 0
-1152 -1175 0
-1152 -1176 0
-1152 -1177 0
-1152 -1178 0
-1152 -1179 0
-1152 -1180 0
-1152 -1181 0
-1152 -1182 0
-1152 -1183 0
-1152 -1184 0
-1152 -1185 0
-1152 -1186 0
-1152 -1187 0
-1152 -1188 0
-1152 -1189 0
-1152 -1190 0
-1152 -1191 0
-1152 -1192 0
-1152 -1193 0
-1152 -1194 0
-1152 -1195 0
-1152 -1196 0
-1152 -1197 0
-1152 -1198 0
-1152 -1199 0
-1152 -1200 0
-1152 -1201 0
-1152 -1202 0
-1152 -1203 0
-1152 -1204 0
-1152 -1205 0
-1152 -1206 0
-1152 -1207 0
-1152 -1208 0
-1152 -1209 0
-1152 -1210 0
-1152 -1211 0
-1152 -1212 0
-1152 -1213 0
-1152 -1214 0
-1152 -1215 0
-1153 -1154 0
-1153 -1155 0
-1153 -1156 0
-1153 -1157 0
-1153 -1158 0
-1153 -1159 0
-1153 -1160 0
-1153 -1161 0
-1153 -1162 0
-1153 -1163 0
-1153 -1164 0
-1153 -1165 0
-1153 -1166 0
-1153 -1167 0
-1153 -1168 0
-1153 -1169 0
-1153 -1170 0
-1153 -1171 0
-1153 -1172 0
-1153 -1173 0
-1153 -1174 0
-1153 -1175 0
-1153 -1176 0
-1153 -1177 0
-1153 -1178 0
-1153 -1179 0
-1153 -1180 0
-1153 -1181 0
-1153 -1182 0
-1153 -1183 0
-1153 -1184 0
-1153 -1185 0
-1153 -1186 0
-1153 -1187 0
-1153 -1188 0
-1153 -1189 0
-1153 -1190 0
-1153 -1191 0
-1153 -1192 0
-1153 -1193 0
-1153 -1194 0
-1153 -1195 0
-1153 -1196 0
-1153 -1197 0
-1153 -1198 0
-1153 -1199 0
-1153 -1200 0
-1153 -1201 0
-1153 -1202 0
-1153 -1203 0
-1153 -1204 0
-1153 -1205 0
-1153 -1206 0
-1153 -1207 0
-1153 -1208 0
-1153 -1209 0
-1153 -1210 0
-1153 -1211 0
-1153 -1212 0
-1153 -1213 0
-1153 -1214 0
-1153 -1215 0
-1154 -1155 0
-1154 -1156 0
-1154 -1157 0
-1154 -1158 0
-1154 -1159 0
-1154 -1160 0
-1154 -1161 0
-1154 -1162 0
-1154 -1163 0
-1154 -1164 0
-1154 -1165 0
-1154 -1166 0
-1154 -1167 0
-1154 -1168 0
-1154 -1169 0
-1154 -1170 0
-1154 -1171 0
-1154 -1172 0
-1154 -1173 0
-1154 -1174 0
-1154 -1175 0
-1154 -1176 0
-1154 -1177 0
-1154 -1178 0
-1154 -1179 0
-1154 -1180 0
-1154 -1181 0
-1154 -1182 0
-1154 -1183 0
-1154 -1184 0
-1154 -1185 0
-1154 -1186 0
-1154 -1187 0
-1154 -1188 0
-1154 -1189 0
-1154 -1190 0
-1154 -1191 0
-1154 -1192 0
-1154 -1193 0
-1154 -1194 0
-1154 -1195 0
-1154 -1196 0
-1154 -1197 0
-1154 -1198 0
-1154 -1199 0
-1154 -1200 0
-1154 -1201 0
-1154 -1202 0
-1154 -1203 0
-1154 -1204 0
-1154 -1205 0
-1154 -1206 0
-1154 -1207 0
-1154 -1208 0
-1154 -1209 0
-1154 -1210 0
-1154 -1211 0
-1154 -1212 0
-1154 -1213 0
-1154 -1214 0
-1154 -1215 0
-1155 -1156 0
-1155 -1157 0
-1155 -1158 0
-1155 -1159 0
-1155 -1160 0
-1155 -1161 0
-1155 -1162 0
-1155 -1163 0
-1155 -1164 0
-1155 -1165 0
-1155 -1166 0
-1155 -1167 0
-1155 -1168 0
-1155 -1169 0
-1155 -1170 0
-1155 -1171 0
-1155 -1172 0
-1155 -1173 0
-1155 -1174 0
-1155 -1175 0
-1155 -1176 0
-1155 -1177 0
-1155 -1178 0
-1155 -1179 0
-1155 -1180 0
-1155 -1181 0
-1155 -1182 0
-1155 -1183 0
-1155 -1184 0
-1155 -1185 0
-1155 -1186 0
-1155 -1187 0
-1155 -1188 0
-1155 -1189 0
-1155 -1190 0
-1155 -1191 0
-1155 -1192 0
-1155 -1193 0
-1155 -1194 0
-1155 -1195 0
-1155 -1196 0
-1155 -1197 0
-1155 -1198 0
-1155 -1199 0
-1155 -1200 0
-1155 -1201 0
-1155 -1202 0
-1155 -1203 0
-1155 -1204 0
-1155 -1205 0
-1155 -1206 0
-1155 -1207 0
-1155 -1208 0
-1155 -1209 0
-1155 -1210 0
-1155 -1211 0
-1155 -1212 0
-1155 -1213 0
-1155 -1214 0
-1155 -1215 0
-1156 -1157 0
-1156 -1158 0
-1156 -1159 0
-1156 -1160 0
-1156 -1161 0
-1156 -1162 0
-1156 -1163 0
-1156 -1164 0
-1156 -1165 0
-1156 -1166 0
-1156 -1167 0
-1156 -1168 0
-1156 -1169 0
-1156 -1170 0
-1156 -1171 0
-1156 -1172 0
-1156 -1173 0
-1156 -1174 0
-1156 -1175 0
-1156 -1176 0
-1156 -1177 0
-1156 -1178 0
-1156 -1179 0
-1156 -1180 0
-1156 -1181 0
-1156 -1182 0
-1156 -1183 0
-1156 -1184 0
-1156 -1185 0
-1156 -1186 0
-1156 -1187 0
-1156 -1188 0
-1156 -1189 0
-1156 -1190 0
-1156 -1191 0
-1156 -1192 0
-1156 -1193 0
-1156 -1194 0
-1156 -1195 0
-1156 -1196 0
-1156 -1197 0
-1156 -1198 0
-1156 -1199 0
-1156 -1200 0
-1156 -1201 0
-1156 -1202 0
-1156 -1203 0
-1156 -1204 0
-1156 -1205 0
-1156 -1206 0
-1156 -1207 0
-1156 -1208 0
-1156 -1209 0
-1156 -1210 0
-1156 -1211 0
-1156 -1212 0
-1156 -1213 0
-1156 -1214 0
-1156 -1215 0
-1157 -1158 0
-1157 -1159 0
-1157 -1160 0
-1157 -1161 0
-1157 -1162 0
-1157 -1163 0
-1157 -1164 0
-1157 -1165 0
-1157 -1166 0
-1157 -1167 0
-1157 -1168 0
-1157 -1169 0
-1157 -1170 0
-1157 -1171 0
-1157 -1172 0
-1157 -1173 0
-1157 -1174 0
-1157 -1175 0
-1157 -1176 0
-1157 -1177 0
-1157 -1178 0
-1157 -1179 0
-1157 -1180 0
-1157 -1181 0
-1157 -1182 0
-1157 -1183 0
-1157 -1184 0
-1157 -1185 0
-1157 -1186 0
-1157 -1187 0
-1157 -1188 0
-1157 -1189 0
-1157 -1190 0
-1157 -1191 0
-1157 -1192 0
-1157 -1193 0
-1157 -1194 0
-1157 -1195 0
-1157 -1196 0
-1157 -1197 0
-1157 -1198 0
-1157 -1199 0
-1157 -1200 0
-1157 -1201 0
-1157 -1202 0
-1157 -1203 0
-1157 -1204 0
-1157 -1205 0
-1157 -1206 0
-1157 -1207 0
-1157 -1208 0
-1157 -1209 0
-1157 -1210 0
-1157 -1211 0
-1157 -1212 0
-1157 -1213 0
-1157 -1214 0
-1157 -1215 0
-1158 -1159 0
-1158 -1160 0
-1158 -1161 0
-1158 -1162 0
-1158 -1163 0
-1158 -1164 0
-1158 -1165 0
-1158 -1166 0
-1158 -1167 0
-1158 -1168 0
-1158 -1169 0
-1158 -1170 0
-1158 -1171 0
-1158 -1172 0
-1158 -1173 0
-1158 -1174 0
-1158 -1175 0
-1158 -1176 0
-1158 -1177 0
-1158 -1178 0
-1158 -1179 0
-1158 -1180 0
-1158 -1181 0
-1158 -1182 0
-1158 -1183 0
-1158 -1184 0
-1158 -1185 0
-1158 -1186 0
-1158 -1187 0
-1158 -1188 0
-1158 -1189 0
-1158 -1190 0
-1158 -1191 0
-1158 -1192 0
-1158 -1193 0
-1158 -1194 0
-1158 -1195 0
-1158 -1196 0
-1158 -1197 0
-1158 -1198 0
-1158 -1199 0
-1158 -1200 0
-1158 -1201 0
-1158 -1202 0
-1158 -1203 0
-1158 -1204 0
-1158 -1205 0
-1158 -1206 0
-1158 -1207 0
-1158 -1208 0
-1158 -1209 0
-1158 -1210 0
-1158 -1211 0
-1158 -1212 0
-1158 -1213 0
-1158 -1214 0
-1158 -1215 0
-1159 -1160 0
-1159 -1161 0
-1159 -1162 0
-1159 -1163 0
-1159 -1164 0
-1159 -1165 0
-1159 -1166 0
-1159 -1167 0
-1159 -1168 0
-1159 -1169 0
-1159 -1170 0
-1159 -1171 0
-1159 -1172 0
-1159 -1173 0
-1159 -1174 0
-1159 -1175 0
-1159 -1176 0
-1159 -1177 0
-1159 -1178 0
-1159 -1179 0
-1159 -1180 0
-1159 -1181 0
-1159 -1182 0
-1159 -1183 0
-1159 -1184 0
-1159 -1185 0
-1159 -1186 0
-1159 -1187 0
-1159 -1188 0
-1159 -1189 0
-1159 -1190 0
-1159 -1191 0
-1159 -1192 0
-1159 -1193 0
-1159 -1194 0
-1159 -1195 0
-1159 -1196 0
-1159 -1197 0
-1159 -1198 0
-1159 -1199 0
-1159 -1200 0
-1159 -1201 0
-1159 -1202 0
-1159 -1203 0
-1159 -1204 0
-1159 -1205 0
-1159 -1206 0
-1159 -1207 0
-1159 -1208 0
-1159 -1209 0
-1159 -1210 0
-1159 -1211 0
-1159 -1212 0
-1159 -1213 0
-1159 -1214 0
-1159 -1215 0
-1160 -1161 0
-1160 -1162 0
-1160 -1163 0
-1160 -1164 0
-1160 -1165 0
-1160 -1166 0
-1160 -1167 0
-1160 -1168 0
-1160 -1169 0
-1160 -1170 0
-1160 -1171 0
-1160 -1172 0
-1160 -1173 0
-1160 -1174 0
-1160 -1175 0
-1160 -1176 0
-1160 -1177 0
-1160 -1178 0
-1160 -1179 0
-1160 -1180 0
-1160 -1181 0
-1160 -1182 0
-1160 -1183 0
-1160 -1184 0
-1160 -1185 0
-1160 -1186 0
-1160 -1187 0
-1160 -1188 0
-1160 -1189 0
-1160 -1190 0
-1160 -1191 0
-1160 -1192 0
-1160 -1193 0
-1160 -1194 0
-1160 -1195 0
-1160 -1196 0
-1160 -1197 0
-1160 -1198 0
-1160 -1199 0
-1160 -1200 0
-1160 -1201 0
-1160 -1202 0
-1160 -1203 0
-1160 -1204 0
-1160 -1205 0
-1160 -1206 0
-1160 -1207 0
-1160 -1208 0
-1160 -1209 0
-1160 -1210 0
-1160 -1211 0
-1160 -1212 0
-1160 -1213 0
-1160 -1214 0
-1160 -1215 0
-1161 -1162 0
-1161 -1163 0
-1161 -1164 0
-1161 -1165 0
-1161 -1166 0
-1161 -1167 0
-1161 -1168 0
-1161 -1169 0
-1161 -1170 0
-1161 -1171 0
-1161 -1172 0
-1161 -1173 0
-1161 -1174 0
-1161 -1175 0
-1161 -1176 0
-1161 -1177 0
-1161 -1178 0
-1161 -1179 0
-1161 -1180 0
-1161 -1181 0
-1161 -1182 0
-1161 -1183 0
-1161 -1184 0
-1161 -1185 0
-1161 -1186 0
-1161 -1187 0
-1161 -1188 0
-1161 -1189 0
-1161 -1190 0
-1161 -1191 0
-1161 -1192 0
-1161 -1193 0
-1161 -1194 0
-1161 -1195 0
-1161 -1196 0
-1161 -1197 0
-1161 -1198 0
-1161 -1199 0
-1161 -1200 0
-1161 -1201 0
-1161 -1202 0
-1161 -1203 0
-1161 -1204 0
-1161 -1205 0
-1161 -1206 0
-1161 -1207 0
-1161 -1208 0
-1161 -1209 0
-1161 -1210 0
-1161 -1211 0
-1161 -1212 0
-1161 -1213 0
-1161 -1214 0
-1161 -1215 0
-1162 -1163 0
-1162 -1164 0
-1162 -1165 0
-1162 -1166 0
-1162 -1167 0
-1162 -1168 0
-1162 -1169 0
-1162 -1170 0
-1162 -1171 0
-1162 -1172 0
-1162 -1173 0
-1162 -1174 0
-1162 -1175 0
-1162 -1176 0
-1162 -1177 0
-1162 -1178 0
-1162 -1179 0
-1162 -1180 0
-1162 -1181 0
-1162 -1182 0
-1162 -1183 0
-1162 -1184 0
-1162 -1185 0
-1162 -1186 0
-1162 -1187 0
-1162 -1188 0
-1162 -1189 0
-1162 -1190 0
-1162 -1191 0
-1162 -1192 0
-1162 -1193 0
-1162 -1194 0
-1162 -1195 0
-1162 -1196 0
-1162 -1197 0
-1162 -1198 0
-1162 -1199 0
-1162 -1200 0
-1162 -1201 0
-1162 -1202 0
-1162 -1203 0
-1162 -1204 0
-1162 -1205 0
-1162 -1206 0
-1162 -1207 0
-1162 -1208 0
-1162 -1209 0
-1162 -1210 0
-1162 -1211 0
-1162 -1212 0
-1162 -1213 0
-1162 -1214 0
-1162 -1215 0
-1163 -1164 0
-1163 -1165 0
-1163 -1166 0
-1163 -1167 0
-1163 -1168 0
-1163 -1169 0
-1163 -1170 0
-1163 -1171 0
-1163 -1172 0
-1163 -1173 0
-1163 -1174 0
-1163 -1175 0
-1163 -1176 0
-1163 -1177 0
-1163 -1178 0
-1163 -1179 0
-1163 -1180 0
-1163 -1181 0
-1163 -1182 0
-1163 -1183 0
-1163 -1184 0
-1163 -1185 0
-1163 -1186 0
-1163 -1187 0
-1163 -1188 0
-1163 -1189 0
-1163 -1190 0
-1163 -1191 0
-1163 -1192 0
-1163 -1193 0
-1163 -1194 0
-1163 -1195 0
-1163 -1196 0
-1163 -1197 0
-1163 -1198 0
-1163 -1199 0
-1163 -1200 0
-1163 -1201 0
-1163 -1202 0
-1163 -1203 0
-1163 -1204 0
-1163 -1205 0
-1163 -1206 0
-1163 -1207 0
-1163 -1208 0
-1163 -1209 0
-1163 -1210 0
-1163 -1211 0
-1163 -1212 0
-1163 -1213 0
-1163 -1214 0
-1163 -1215 0
-1164 -1165 0
-1164 -1166 0
-1164 -1167 0
-1164 -1168 0
-1164 -1169 0
-1164 -1170 0
-1164 -1171 0
-1164 -1172 0
-1164 -1173 0
-1164 -1174 0
-1164 -1175 0
-1164 -1176 0
-1164 -1177 0
-1164 -1178 0
-1164 -1179 0
-1164 -1180 0
-1164 -1181 0
-1164 -1182 0
-1164 -1183 0
-1164 -1184 0
-1164 -1185 0
-1164 -1186 0
-1164 -1187 0
-1164 -1188 0
-1164 -1189 0
-1164 -1190 0
-1164 -1191 0
-1164 -1192 0
-1164 -1193 0
-1164 -1194 0
-1164 -1195 0
-1164 -1196 0
-1164 -1197 0
-1164 -1198 0
-1164 -1199 0
-1164 -1200 0
-1164 -1201 0
-1164 -1202 0
-1164 -1203 0
-1164 -1204 0
-1164 -1205 0
-1164 -1206 0
-1164 -1207 0
-1164 -1208 0
-1164 -1209 0
-1164 -1210 0
-1164 -1211 0
-1164 -1212 0
-1164 -1213 0
-1164 -1214 0
-1164 -1215 0
-1165 -1166 0
-1165 -1167 0
-1165 -1168 0
-1165 -1169 0
-1165 -1170 0
-1165 -1171 0
-1165 -1172 0
-1165 -1173 0
-1165 -1174 0
-1165 -1175 0
-1165 -1176 0
-1165 -1177 0
-1165 -1178 0
-1165 -1179 0
-1165 -1180 0
-1165 -1181 0
-1165 -1182 0
-1165 -1183 0
-1165 -1184 0
-1165 -1185 0
-1165 -1186 0
-1165 -1187 0
-1165 -1188 0
-1165 -1189 0
-1165 -1190 0
-1165 -1191 0
-1165 -1192 0
-1165 -1193 0
-1165 -1194 0
-1165 -1195 0
-1165 -1196 0
-1165 -1197 0
-1165 -1198 0
-1165 -1199 0
-1165 -1200 0
-1165 -1201 0
-1165 -1202 0
-1165 -1203 0
-1165 -1204 0
-1165 -1205 0
-1165 -1206 0
-1165 -1207 0
-1165 -1208 0
-1165 -1209 0
-1165 -1210 0
-1165 -1211 0
-1165 -1212 0
-1165 -1213 0
-1165 -1214 0
-1165 -1215 0
-1166 -1167 0
-1166 -1168 0
-1166 -1169 0
-1166 -1170 0
-1166 -1171 0
-1166 -1172 0
-1166 -1173 0
-1166 -1174 0
-1166 -1175 0
-1166 -1176 0
-1166 -1177 0
-1166 -1178 0
-1166 -1179 0
-1166 -1180 0
-1166 -1181 0
-1166 -1182 0
-1166 -1183 0
-1166 -1184 0
-1166 -1185 0
-1166 -1186 0
-1166 -1187 0
-1166 -1188 0
-1166 -1189 0
-1166 -1190 0
-1166 -1191 0
-1166 -1192 0
-1166 -1193 0
-1166 -1194 0
-1166 -1195 0
-1166 -1196 0
-1166 -1197 0
-1166 -1198 0
-1166 -1199 0
-1166 -1200 0
-1166 -1201 0
-1166 -1202 0
-1166 -1203 0
-1166 -1204 0
-1166 -1205 0
-1166 -1206 0
-1166 -1207 0
-1166 -1208 0
-1166 -1209 0
-1166 -1210 0
-1166 -1211 0
-1166 -1212 0
-1166 -1213 0
-1166 -1214 0
-1166 -1215 0
-1167 -1168 0
-1167 -1169 0
-1167 -1170 0
-1167 -1171 0
-1167 -1172 0
-1167 -1173 0
-1167 -1174 0
-1167 -1175 0
-1167 -1176 0
-1167 -1177 0
-1167 -1178 0
-1167 -1179 0
-1167 -1180 0
-1167 -1181 0
-1167 -1182 0
-1167 -1183 0
-1167 -1184 0
-1167 -1185 0
-1167 -1186 0
-1167 -1187 0
-1167 -1188 0
-1167 -1189 0
-1167 -1190 0
-1167 -1191 0
-1167 -1192 0
-1167 -1193 0
-1167 -1194 0
-1167 -1195 0
-1167 -1196 0
-1167 -1197 0
-1167 -1198 0
-1167 -1199 0
-1167 -1200 0
-1167 -1201 0
-1167 -1202 0
-1167 -1203 0
-1167 -1204 0
-1167 -1205 0
-1167 -1206 0
-1167 -1207 0
-1167 -1208 0
-1167 -1209 0
-1167 -1210 0
-1167 -1211 0
-1167 -1212 0
-1167 -1213 0
-1167 -1214 0
-1167 -1215 0
-1168 -1169 0
-1168 -1170 0
-1168 -1171 0
-1168 -1172 0
-1168 -1173 0
-1168 -1174 0
-1168 -1175 0
-1168 -1176 0
-1168 -1177 0
-1168 -1178 0
-1168 -1179 0
-1168 -1180 0
-1168 -1181 0
-1168 -1182 0
-1168 -1183 0
-1168 -1184 0
-1168 -1185 0
-1168 -1186 0
-1168 -1187 0
-1168 -1188 0
-1168 -1189 0
-1168 -1190 0
-1168 -1191 0
-1168 -1192 0
-1168 -1193 0
-1168 -1194 0
-1168 -1195 0
-1168 -1196 0
-1168 -1197 0
-1168 -1198 0
-1168 -1199 0
-1168 -1200 0
-1168 -1201 0
-1168 -1202 0
-1168 -1203 0
-1168 -1204 0
-1168 -1205 0
-1168 -1206 0
-1168 -1207 0
-1168 -1208 0
-1168 -1209 0
-1168 -1210 0
-1168 -1211 0
-1168 -1212 0
-1168 -1213 0
-1168 -1214 0
-1168 -1215 0
-1169 -1170 0
-1169 -1171 0
-1169 -1172 0
-1169 -1173 0
-1169 -1174 0
-1169 -1175 0
-1169 -1176 0
-1169 -1177 0
-1169 -1178 0
-1169 -1179 0
-1169 -1180 0
-1169 -1181 0
-1169 -1182 0
-1169 -1183 0
-1169 -1184 0
-1169 -1185 0
-1169 -1186 0
-1169 -1187 0
-1169 -1188 0
-1169 -1189 0
-1169 -1190 0
-1169 -1191 0
-1169 -1192 0
-1169 -1193 0
-1169 -1194 0
-1169 -1195 0
-1169 -1196 0
-1169 -1197 0
-1169 -1198 0
-1169 -1199 0
-1169 -1200 0
-1169 -1201 0
-1169 -1202 0
-1169 -1203 0
-1169 -1204 0
-1169 -1205 0
-1169 -1206 0
-1169 -1207 0
-1169 -1208 0
-1169 -1209 0
-1169 -1210 0
-1169 -1211 0
-1169 -1212 0
-1169 -1213 0
-1169 -1214 0
-1169 -1215 0
-1170 -1171 0
-1170 -1172 0
-1170 -1173 0
-1170 -1174 0
-1170 -1175 0
-1170 -1176 0
-1170 -1177 0
-1170 -1178 0
-1170 -1179 0
-1170 -1180 0
-1170 -1181 0
-1170 -1182 0
-1170 -1183 0
-1170 -1184 0
-1170 -1185 0
-1170 -1186 0
-1170 -1187 0
-1170 -1188 0
-1170 -1189 0
-1170 -1190 0
-1170 -1191 0
-1170 -1192 0
-1170 -1193 0
-1170 -1194 0
-1170 -1195 0
-1170 -1196 0
-1170 -1197 0
-1170 -1198 0
-1170 -1199 0
-1170 -1200 0
-1170 -1201 0
-1170 -1202 0
-1170 -1203 0
-1170 -1204 0
-1170 -1205 0
-1170 -1206 0
-1170 -1207 0
-1170 -1208 0
-1170 -1209 0
-1170 -1210 0
-1170 -1211 0
-1170 -1212 0
-1170 -1213 0
-1170 -1214 0
-1170 -1215 0
-1171 -1172 0
-1171 -1173 0
-1171 -1174 0
-1171 -1175 0
-1171 -1176 0
-1171 -1177 0
-1171 -1178 0
-1171 -1179 0
-1171 -1180 0
-1171 -1181 0
-1171 -1182 0
-1171 -1183 0
-1171 -1184 0
-1171 -1185 0
-1171 -1186 0
-1171 -1187 0
-1171 -1188 0
-1171 -1189 0
-1171 -1190 0
-1171 -1191 0
-1171 -1192 0
-1171 -1193 0
-1171 -1194 0
-1171 -1195 0
-1171 -1196 0
-1171 -1197 0
-1171 -1198 0
-1171 -1199 0
-1171 -1200 0
-1171 -1201 0
-1171 -1202 0
-1171 -1203 0
-1171 -1204 0
-1171 -1205 0
-1171 -1206 0
-1171 -1207 0
-1171 -1208 0
-1171 -1209 0
-1171 -1210 0
-1171 -1211 0
-1171 -1212 0
-1171 -1213 0
-1171 -1214 0
-1171 -1215 0
-1172 -1173 0
-1172 -1174 0
-1172 -1175 0
-1172 -1176 0
-1172 -1177 0
-1172 -1178 0
-1172 -1179 0
-1172 -1180 0
-1172 -1181 0
-1172 -1182 0
-1172 -1183 0
-1172 -1184 0
-1172 -1185 0
-1172 -1186 0
-1172 -1187 0
-1172 -1188 0
-1172 -1189 0
-1172 -1190 0
-1172 -1191 0
-1172 -1192 0
-1172 -1193 0
-1172 -1194 0
-1172 -1195 0
-1172 -1196 0
-1172 -1197 0
-1172 -1198 0
-1172 -1199 0
-1172 -1200 0
-1172 -1201 0
-1172 -1202 0
-1172 -1203 0
-1172 -1204 0
-1172 -1205 0
-1172 -1206 0
-1172 -1207 0
-1172 -1208 0
-1172 -1209 0
-1172 -1210 0
-1172 -1211 0
-1172 -1212 0
-1172 -1213 0
-1172 -1214 0
-1172 -1215 0
-1173 -1174 0
-1173 -1175 0
-1173 -1176 0
-1173 -1177 0
-1173 -1178 0
-1173 -1179 0
-1173 -1180 0
-1173 -1181 0
-1173 -1182 0
-1173 -1183 0
-1173 -1184 0
-1173 -1185 0
-1173 -1186 0
-1173 -1187 0
-1173 -1188 0
-1173 -1189 0
-1173 -1190 0
-1173 -1191 0
-1173 -1192 0
-1173 -1193 0
-1173 -1194 0
-1173 -1195 0
-1173 -1196 0
-1173 -1197 0
-1173 -1198 0
-1173 -1199 0
-1173 -1200 0
-1173 -1201 0
-1173 -1202 0
-1173 -1203 0
-1173 -1204 0
-1173 -1205 0
-1173 -1206 0
-1173 -1207 0
-1173 -1208 0
-1173 -1209 0
-1173 -1210 0
-1173 -1211 0
-1173 -1212 0
-1173 -1213 0
-1173 -1214 0
-1173 -1215 0
-1174 -1175 0
-1174 -1176 0
-1174 -1177 0
-1174 -1178 0
-1174 -1179 0
-1174 -1180 0
-1174 -1181 0
-1174 -1182 0
-1174 -1183 0
-1174 -1184 0
-1174 -1185 0
-1174 -1186 0
-1174 -1187 0
-1174 -1188 0
-1174 -1189 0
-1174 -1190 0
-1174 -1191 0
-1174 -1192 0
-1174 -1193 0
-1174 -1194 0
-1174 -1195 0
-1174 -1196 0
-1174 -1197 0
-1174 -1198 0
-1174 -1199 0
-1174 -1200 0
-1174 -1201 0
-1174 -1202 0
-1174 -1203 0
-1174 -1204 0
-1174 -1205 0
-1174 -1206 0
-1174 -1207 0
-1174 -1208 0
-1174 -1209 0
-1174 -1210 0
-1174 -1211 0
-1174 -1212 0
-1174 -1213 0
-1174 -1214 0
-1174 -1215 0
-1175 -1176 0
-1175 -1177 0
-1175 -1178 0
-1175 -1179 0
-1175 -1180 0
-1175 -1181 0
-1175 -1182 0
-1175 -1183 0
-1175 -1184 0
-1175 -1185 0
-1175 -1186 0
-1175 -1187 0
-1175 -1188 0
-1175 -1189 0
-1175 -1190 0
-1175 -1191 0
-1175 -1192 0
-1175 -1193 0
-1175 -1194 0
-1175 -1195 0
-1175 -1196 0
-1175 -1197 0
-1175 -1198 0
-1175 -1199 0
-1175 -1200 0
-1175 -1201 0
-1175 -1202 0
-1175 -1203 0
-1175 -1204 0
-1175 -1205 0
-1175 -1206 0
-1175 -1207 0
-1175 -1208 0
-1175 -1209 0
-1175 -1210 0
-1175 -1211 0
-1175 -1212 0
-1175 -1213 0
-1175 -1214 0
-1175 -1215 0
-1176 -1177 0
-1176 -1178 0
-1176 -1179 0
-1176 -1180 0
-1176 -1181 0
-1176 -1182 0
-1176 -1183 0
-1176 -1184 0
-1176 -1185 0
-1176 -1186 0
-1176 -1187 0
-1176 -1188 0
-1176 -1189 0
-1176 -1190 0
-1176 -1191 0
-1176 -1192 0
-1176 -1193 0
-1176 -1194 0
-1176 -1195 0
-1176 -1196 0
-1176 -1197 0
-1176 -1198 0
-1176 -1199 0
-1176 -1200 0
-1176 -1201 0
-1176 -1202 0
-1176 -1203 0
-1176 -1204 0
-1176 -1205 0
-1176 -1206 0
-1176 -1207 0
-1176 -1208 0
-1176 -1209 0
-1176 -1210 0
-1176 -1211 0
-1176 -1212 0
-1176 -1213 0
-1176 -1214 0
-1176 -1215 0
-1177 -1178 0
-1177 -1179 0
-1177 -1180 0
-1177 -1181 0
-1177 -1182 0
-1177 -1183 0
-1177 -1184 0
-1177 -1185 0
-1177 -1186 0
-1177 -1187 0
-1177 -1188 0
-1177 -1189 0
-1177 -1190 0
-1177 -1191 0
-1177 -1192 0
-1177 -1193 0
-1177 -1194 0
-1177 -1195 0
-1177 -1196 0
-1177 -1197 0
-1177 -1198 0
-1177 -1199 0
-1177 -1200 0
-1177 -1201 0
-1177 -1202 0
-1177 -1203 0
-1177 -1204 0
-1177 -1205 0
-1177 -1206 0
-1177 -1207 0
-1177 -1208 0
-1177 -1209 0
-1177 -1210 0
-1177 -1211 0
-1177 -1212 0
-1177 -1213 0
-1177 -1214 0
-1177 -1215 0
-1178 -1179 0
-1178 -1180 0
-1178 -1181 0
-1178 -1182 0
-1178 -1183 0
-1178 -1184 0
-1178 -1185 0
-1178 -1186 0
-1178 -1187 0
-1178 -1188 0
-1178 -1189 0
-1178 -1190 0
-1178 -1191 0
-1178 -1192 0
-1178 -1193 0
-1178 -1194 0
-1178 -1195 0
-1178 -1196 0
-1178 -1197 0
-1178 -1198 0
-1178 -1199 0
-1178 -1200 0
-1178 -1201 0
-1178 -1202 0
-1178 -1203 0
-1178 -1204 0
-1178 -1205 0
-1178 -1206 0
-1178 -1207 0
-1178 -1208 0
-1178 -1209 0
-1178 -1210 0
-1178 -1211 0
-1178 -1212 0
-1178 -1213 0
-1178 -1214 0
-1178 -1215 0
-1179 -1180 0
-1179 -1181 0
-1179 -1182 0
-1179 -1183 0
-1179 -1184 0
-1179 -1185 0
-1179 -1186 0
-1179 -1187 0
-1179 -1188 0
-1179 -1189 0
-1179 -1190 0
-1179 -1191 0
-1179 -1192 0
-1179 -1193 0
-1179 -1194 0
-1179 -1195 0
-1179 -1196 0
-1179 -1197 0
-1179 -1198 0
-1179 -1199 0
-1179 -1200 0
-1179 -1201 0
-1179 -1202 0
-1179 -1203 0
-1179 -1204 0
-1179 -1205 0
-1179 -1206 0
-1179 -1207 0
-1179 -1208 0
-1179 -1209 0
-1179 -1210 0
-1179 -1211 0
-1179 -1212 0
-1179 -1213 0
-1179 -1214 0
-1179 -1215 0
-1180 -1181 0
-1180 -1182 0
-1180 -1183 0
-1180 -1184 0
-1180 -1185 0
-1180 -1186 0
-1180 -1187 0
-1180 -1188 0
-1180 -1189 0
-1180 -1190 0
-1180 -1191 0
-1180 -1192 0
-1180 -1193 0
-1180 -1194 0
-1180 -1195 0
-1180 -1196 0
-1180 -1197 0
-1180 -1198 0
-1180 -1199 0
-1180 -1200 0
-1180 -1201 0
-1180 -1202 0
-1180 -1203 0
-1180 -1204 0
-1180 -1205 0
-1180 -1206 0
-1180 -1207 0
-1180 -1208 0
-1180 -1209 0
-1180 -1210 0
-1180 -1211 0
-1180 -1212 0
-1180 -1213 0
-1180 -1214 0
-1180 -1215 0
-1181 -1182 0
-1181 -1183 0
-1181 -1184 0
-1181 -1185 0
-1181 -1186 0
-1181 -1187 0
-1181 -1188 0
-1181 -1189 0
-1181 -1190 0
-1181 -1191 0
-1181 -1192 0
-1181 -1193 0
-1181 -1194 0
-1181 -1195 0
-1181 -1196 0
-1181 -1197 0
-1181 -1198 0
-1181 -1199 0
-1181 -1200 0
-1181 -1201 0
-1181 -1202 0
-1181 -1203 0
-1181 -1204 0
-1181 -1205 0
-1181 -1206 0
-1181 -1207 0
-1181 -1208 0
-1181 -1209 0
-1181 -1210 0
-1181 -1211 0
-1181 -1212 0
-1181 -1213 0
-1181 -1214 0
-1181 -1215 0
-1182 -1183 0
-1182 -1184 0
-1182 -1185 0
-1182 -1186 0
-1182 -1187 0
-1182 -1188 0
-1182 -1189 0
-1182 -1190 0
-1182 -1191 0
-1182 -1192 0
-1182 -1193 0
-1182 -1194 0
-1182 -1195 0
-1182 -1196 0
-1182 -1197 0
-1182 -1198 0
-1182 -1199 0
-1182 -1200 0
-1182 -1201 0
-1182 -1202 0
-1182 -1203 0
-1182 -1204 0
-1182 -1205 0
-1182 -1206 0
-1182 -1207 0
-1182 -1208 0
-1182 -1209 0
-1182 -1210 0
-1182 -1211 0
-1182 -1212 0
-1182 -1213 0
-1182 -1214 0
-1182 -1215 0
-1183 -1184 0
-1183 -1185 0
-1183 -1186 0
-1183 -1187 0
-1183 -1188 0
-1183 -1189 0
-1183 -1190 0
-1183 -1191 0
-1183 -1192 0
-1183 -1193 0
-1183 -1194 0
-1183 -1195 0
-1183 -1196 0
-1183 -1197 0
-1183 -1198 0
-1183 -1199 0
-1183 -1200 0
-1183 -1201 0
-1183 -1202 0
-1183 -1203 0
-1183 -1204 0
-1183 -1205 0
-1183 -1206 0
-1183 -1207 0
-1183 -1208 0
-1183 -1209 0
-1183 -1210 0
-1183 -1211 0
-1183 -1212 0
-1183 -1213 0
-1183 -1214 0
-1183 -1215 0
-1184 -1185 0
-1184 -1186 0
-1184 -1187 0
-1184 -1188 0
-1184 -1189 0
-1184 -1190 0
-1184 -1191 0
-1184 -1192 0
-1184 -1193 0
-1184 -1194 0
-1184 -1195 0
-1184 -1196 0
-1184 -1197 0
-1184 -1198 0
-1184 -1199 0
-1184 -1200 0
-1184 -1201 0
-1184 -1202 0
-1184 -1203 0
-1184 -1204 0
-1184 -1205 0
-1184 -1206 0
-1184 -1207 0
-1184 -1208 0
-1184 -1209 0
-1184 -1210 0
-1184 -1211 0
-1184 -1212 0
-1184 -1213 0
-1184 -1214 0
-1184 -1215 0
-1185 -1186 0
-1185 -1187 0
-1185 -1188 0
-1185 -1189 0
-1185 -1190 0
-1185 -1191 0
-1185 -1192 0
-1185 -1193 0
-1185 -1194 0
-1185 -1195 0
-1185 -1196 0
-1185 -1197 0
-1185 -1198 0
-1185 -1199 0
-1185 -1200 0
-1185 -1201 0
-1185 -1202 0
-1185 -1203 0
-1185 -1204 0
-1185 -1205 0
-1185 -1206 0
-1185 -1207 0
-1185 -1208 0
-1185 -1209 0
-1185 -1210 0
-1185 -1211 0
-1185 -1212 0
-1185 -1213 0
-1185 -1214 0
-1185 -1215 0
-1186 -1187 0
-1186 -1188 0
-1186 -1189 0
-1186 -1190 0
-1186 -1191 0
-1186 -1192 0
-1186 -1193 0
-1186 -1194 0
-1186 -1195 0
-1186 -1196 0
-1186 -1197 0
-1186 -1198 0
-1186 -1199 0
-1186 -1200 0
-1186 -1201 0
-1186 -1202 0
-1186 -1203 0
-1186 -1204 0
-1186 -1205 0
-1186 -1206 0
-1186 -1207 0
-1186 -1208 0
-1186 -1209 0
-1186 -1210 0
-1186 -1211 0
-1186 -1212 0
-1186 -1213 0
-1186 -1214 0
-1186 -1215 0
-1187 -1188 0
-1187 -1189 0
-1187 -1190 0
-1187 -1191 0
-1187 -1192 0
-1187 -1193 0
-1187 -1194 0
-1187 -1195 0
-1187 -1196 0
-1187 -1197 0
-1187 -1198 0
-1187 -1199 0
-1187 -1200 0
-1187 -1201 0
-1187 -1202 0
-1187 -1203 0
-1187 -1204 0
-1187 -1205 0
-1187 -1206 0
-1187 -1207 0
-1187 -1208 0
-1187 -1209 0
-1187 -1210 0
-1187 -1211 0
-1187 -1212 0
-1187 -1213 0
-1187 -1214 0
-1187 -1215 0
-1188 -1189 0
-1188 -1190 0
-1188 -1191 0
-1188 -1192 0
-1188 -1193 0
-1188 -1194 0
-1188 -1195 0
-1188 -1196 0
-1188 -1197 0
-1188 -1198 0
-1188 -1199 0
-1188 -1200 0
-1188 -1201 0
-1188 -1202 0
-1188 -1203 0
-1188 -1204 0
-1188 -1205 0
-1188 -1206 0
-1188 -1207 0
-1188 -1208 0
-1188 -1209 0
-1188 -1210 0
-1188 -1211 0
-1188 -1212 0
-1188 -1213 0
-1188 -1214 0
-1188 -1215 0
-1189 -1190 0
-1189 -1191 0
-1189 -1192 0
-1189 -1193 0
-1189 -1194 0
-1189 -1195 0
-1189 -1196 0
-1189 -1197 0
-1189 -1198 0
-1189 -1199 0
-1189 -1200 0
-1189 -1201 0
-1189 -1202 0
-1189 -1203 0
-1189 -1204 0
-1189 -1205 0
-1189 -1206 0
-1189 -1207 0
-1189 -1208 0
-1189 -1209 0
-1189 -1210 0
-1189 -1211 0
-1189 -1212 0
-1189 -1213 0
-1189 -1214 0
-1189 -1215 0
-1190 -1191 0
-1190 -1192 0
-1190 -1193 0
-1190 -1194 0
-1190 -1195 0
-1190 -1196 0
-1190 -1197 0
-1190 -1198 0
-1190 -1199 0
-1190 -1200 0
-1190 -1201 0
-1190 -1202 0
-1190 -1203 0
-1190 -1204 0
-1190 -1205 0
-1190 -1206 0
-1190 -1207 0
-1190 -1208 0
-1190 -1209 0
-1190 -1210 0
-1190 -1211 0
-1190 -1212 0
-1190 -1213 0
-1190 -1214 0
-1190 -1215 0
-1191 -1192 0
-1191 -1193 0
-1191 -1194 0
-1191 -1195 0
-1191 -1196 0
-1191 -1197 0
-1191 -1198 0
-1191 -1199 0
-1191 -1200 0
-1191 -1201 0
-1191 -1202 0
-1191 -1203 0
-1191 -1204 0
-1191 -1205 0
-1191 -1206 0
-1191 -1207 0
-1191 -1208 0
-1191 -1209 0
-1191 -1210 0
-1191 -1211 0
-1191 -1212 0
-1191 -1213 0
-1191 -1214 0
-1191 -1215 0
-1192 -1193 0
-1192 -1194 0
-1192 -1195 0
-1192 -1196 0
-1192 -1197 0
-1192 -1198 0
-1192 -1199 0
-1192 -1200 0
-1192 -1201 0
-1192 -1202 0
-1192 -1203 0
-1192 -1204 0
-1192 -1205 0
-1192 -1206 0
-1192 -1207 0
-1192 -1208 0
-1192 -1209 0
-1192 -1210 0
-1192 -1211 0
-1192 -1212 0
-1192 -1213 0
-1192 -1214 0
-1192 -1215 0
-1193 -1194 0
-1193 -1195 0
-1193 -1196 0
-1193 -1197 0
-1193 -1198 0
-1193 -1199 0
-1193 -1200 0
-1193 -1201 0
-1193 -1202 0
-1193 -1203 0
-1193 -1204 0
-1193 -1205 0
-1193 -1206 0
-1193 -1207 0
-1193 -1208 0
-1193 -1209 0
-1193 -1210 0
-1193 -1211 0
-1193 -1212 0
-1193 -1213 0
-1193 -1214 0
-1193 -1215 0
-1194 -1195 0
-1194 -1196 0
-1194 -1197 0
-1194 -1198 0
-1194 -1199 0
-1194 -1200 0
-1194 -1201 0
-1194 -1202 0
-1194 -1203 0
-1194 -1204 0
-1194 -1205 0
-1194 -1206 0
-1194 -1207 0
-1194 -1208 0
-1194 -1209 0
-1194 -1210 0
-1194 -1211 0
-1194 -1212 0
-1194 -1213 0
-1194 -1214 0
-1194 -1215 0
-1195 -1196 0
-1195 -1197 0
-1195 -1198 0
-1195 -1199 0
-1195 -1200 0
-1195 -1201 0
-1195 -1202 0
-1195 -1203 0
-1195 -1204 0
-1195 -1205 0
-1195 -1206 0
-1195 -1207 0
-1195 -1208 0
-1195 -1209 0
-1195 -1210 0
-1195 -1211 0
-1195 -1212 0
-1195 -1213 0
-1195 -1214 0
-1195 -1215 0
-1196 -1197 0
-1196 -1198 0
-1196 -1199 0
-1196 -1200 0
-1196 -1201 0
-1196 -1202 0
-1196 -1203 0
-1196 -1204 0
-1196 -1205 0
-1196 -1206 0
-1196 -1207 0
-1196 -1208 0
-1196 -1209 0
-1196 -1210 0
-1196 -1211 0
-1196 -1212 0
-1196 -1213 0
-1196 -1214 0
-1196 -1215 0
-1197 -1198 0
-1197 -1199 0
-1197 -1200 0
-1197 -1201 0
-1197 -1202 0
-1197 -1203 0
-1197 -1204 0
-1197 -1205 0
-1197 -1206 0
-1197 -1207 0
-1197 -1208 0
-1197 -1209 0
-1197 -1210 0
-1197 -1211 0
-1197 -1212 0
-1197 -1213 0
-1197 -1214 0
-1197 -1215 0
-1198 -1199 0
-1198 -1200 0
-1198 -1201 0
-1198 -1202 0
-1198 -1203 0
-1198 -1204 0
-1198 -1205 0
-1198 -1206 0
-1198 -1207 0
-1198 -1208 0
-1198 -1209 0
-1198 -1210 0
-1198 -1211 0
-1198 -1212 0
-1198 -1213 0
-1198 -1214 0
-1198 -1215 0
-1199 -1200 0
-1199 -1201 0
-1199 -1202 0
-1199 -1203 0
-1199 -1204 0
-1199 -1205 0
-1199 -1206 0
-1199 -1207 0
-1199 -1208 0
-1199 -1209 0
-1199 -1210 0
-1199 -1211 0
-1199 -1212 0
-1199 -1213 0
-1199 -1214 0
-1199 -1215 0
-1200 -1201 0
-1200 -1202 0
-1200 -1203 0
-1200 -1204 0
-1200 -1205 0
-1200 -1206 0
-1200 -1207 0
-1200 -1208 0
-1200 -1209 0
-1200 -1210 0
-1200 -1211 0
-1200 -1212 0
-1200 -1213 0
-1200 -1214 0
-1200 -1215 0
-1201 -1202 0
-1201 -1203 0
-1201 -1204 0
-1201 -1205 0
-1201 -1206 0
-1201 -1207 0
-1201 -1208 0
-1201 -1209 0
-1201 -1210 0
-1201 -1211 0
-1201 -1212 0
-1201 -1213 0
-1201 -1214 0
-1201 -1215 0
-1202 -1203 0
-1202 -1204 0
-1202 -1205 0
-1202 -1206 0
-1202 -1207 0
-1202 -1208 0
-1202 -1209 0
-1202 -1210 0
-1202 -1211 0
-1202 -1212 0
-1202 -1213 0
-1202 -1214 0
-1202 -1215 0
-1203 -1204 0
-1203 -1205 0
-1203 -1206 0
-1203 -1207 0
-1203 -1208 0
-1203 -1209 0
-1203 -1210 0
-1203 -1211 0
-1203 -1212 0
-1203 -1213 0
-1203 -1214 0
-1203 -1215 0
-1204 -1205 0
-1204 -1206 0
-1204 -1207 0
-1204 -1208 0
-1204 -1209 0
-1204 -1210 0
-1204 -1211 0
-1204 -1212 0
-1204 -1213 0
-1204 -1214 0
-1204 -1215 0
-1205 -1206 0
-1205 -1207 0
-1205 -1208 0
-1205 -1209 0
-1205 -1210 0
-1205 -1211 0
-1205 -1212 0
-1205 -1213 0
-1205 -1214 0
-1205 -1215 0
-1206 -1207 0
-1206 -1208 0
-1206 -1209 0
-1206 -1210 0
-1206 -1211 0
-1206 -1212 0
-1206 -1213 0
-1206 -1214 0
-1206 -1215 0
-1207 -1208 0
-1207 -1209 0
-1207 -1210 0
-1207 -1211 0
-1207 -1212 0
-1207 -1213 0
-1207 -1214 0
-1207 -1215 0
-1208 -1209 0
-1208 -1210 0
-1208 -1211 0
-1208 -1212 0
-1208 -1213 0
-1208 -1214 0
-1208 -1215 0
-1209 -1210 0
-1209 -1211 0
-1209 -1212 0
-1209 -1213 0
-1209 -1214 0
-1209 -1215 0
-1210 -1211 0
-1210 -1212 0
-1210 -1213 0
-1210 -1214 0
-1210 -1215 0
-1211 -1212 0
-1211 -1213 0
-1211 -1214 0
-1211 -1215 0
-1212 -1213 0
-1212 -1214 0
-1212 -1215 0
-1213 -1214 0
-1213 -1215 0
-1214 -1215 0
-1216 1132 1133 1134 1135 1136 1137 1138 1139 1140 1141 1142 1143 1144 1145 1146 1147 1148 1149 1150 1151 1152 1153 1154 1155 0
-1132 1216 0
-1133 1216 0
-1134 1216 0
-1135 1216 0
-1136 1216 0
-1137 1216 0
-1138 1216 0
-1139 1216 0
-1140 1216 0
-1141 1216 0
-1142 1216 0
-1143 1216 0
-1144 1216 0
-1145 1216 0
-1146 1216 0
-1147 1216 0
-1148 1216 0
-1149 1216 0
-1150 1216 0
-1151 1216 0
-1152 1216 0
-1153 1216 0
-1154 1216 0
-1155 1216 0
1216 -150 299 0
1216 150 -299 0
1216 -151 300 0
1216 151 -300 0
1216 -152 301 0
1216 152 -301 0
1216 -153 302 0
1216 153 -302 0
1216 -154 303 0
1216 154 -303 0
1216 -155 304 0
1216 155 -304 0
1216 -156 305 0
1216 156 -305 0
1216 -157 306 0
1216 157 -306 0
1216 -158 307 0
1216 158 -307 0
1216 -159 308 0
1216 159 -308 0
-1217 1156 1157 1158 1159 1160 1161 1162 1163 1164 1165 1166 1167 1168 1169 1170 1171 1172 1173 1174 1175 1176 1177 1178 1179 0
-1156 1217 0
-1157 1217 0
-1158 1217 0
-1159 1217 0
-1160 1217 0
-1161 1217 0
-1162 1217 0
-1163 1217 0
-1164 1217 0
-1165 1217 0
-1166 1217 0
-1167 1217 0
-1168 1217 0
-1169 1217 0
-1170 1217 0
-1171 1217 0
-1172 1217 0
-1173 1217 0
-1174 1217 0
-1175 1217 0
-1176 1217 0
-1177 1217 0
-1178 1217 0
-1179 1217 0
1217 -160 309 0
1217 160 -309 0
1217 -161 310 0
1217 161 -310 0
1217 -162 311 0
1217 162 -311 0
1217 -163 312 0
1217 163 -312 0
1217 -164 313 0
1217 164 -313 0
1217 -165 314 0
1217 165 -314 0
1217 -166 315 0
1217 166 -315 0
1217 -167 316 0
1217 167 -316 0
1217 -168 317 0
1217 168 -317 0
1217 -169 318 0
1217 169 -318 0
-1218 1180 1181 1182 1183 1184 1185 1186 1187 1188 1189 1190 1191 1192 1193 1194 1195 1196 1197 1198 1199 0
-1180 1218 0
-1181 1218 0
-1182 1218 0
-1183 1218 0
-1184 1218 0
-1185 1218 0
-1186 1218 0
-1187 1218 0
-1188 1218 0
-1189 1218 0
-1190 1218 0
-1191 1218 0
-1192 1218 0
-1193 1218 0
-1194 1218 0
-1195 1218 0
-1196 1218 0
-1197 1218 0
-1198 1218 0
-1199 1218 0
1218 -170 319 0
1218 170 -319 0
1218 -171 320 0
1218 171 -320 0
1218 -172 321 0
1218 172 -321 0
1218 -173 322 0
1218 173 -322 0
1218 -174 323 0
1218 174 -323 0
1218 -175 324 0
1218 175 -324 0
1218 -176 325 0
1218 176 -325 0
1218 -177 326 0
1218 177 -326 0
1218 -178 327 0
1218 178 -327 0
-1219 1200 1201 1202 1203 1204 1205 1206 1207 1208 1209 1210 1211 1212 1213 1214 1215 0
-1200 1219 0
-1201 1219 0
-1202 1219 0
-1203 1219 0
-1204 1219 0
-1205 1219 0
-1206 1219 0
-1207 1219 0
-1208 1219 0
-1209 1219 0
-1210 1219 0
-1211 1219 0
-1212 1219 0
-1213 1219 0
-1214 1219 0
-1215 1219 0
1219 -179 328 0
1219 179 -328 0
1219 -180 329 0
1219 180 -329 0
1219 -181 330 0
1219 181 -330 0
1219 -182 331 0
1219 182 -331 0
1219 -183 332 0
1219 183 -332 0
1219 -184 333 0
1219 184 -333 0
1219 -185 334 0
1219 185 -334 0
1219 -186 335 0
1219 186 -335 0
-1132 295 0
-1132 299 0
-1132 -161 0
-1132 -162 0
-1132 -163 0
-1132 -164 0
-1132 -165 0
-1132 -169 0
-1132 -166 306 0
-1132 -166 -150 -157 0
-1132 -166 -212 0
-1132 -166 -213 0
-1132 -166 -214 0
-1132 -166 -236 0
-1132 -166 -237 0
-1132 -166 -238 0
-1132 -166 -256 0
-1132 -166 -257 0
-1132 -166 -258 0
-1132 -167 307 0
-1132 -167 -150 -158 0
-1132 -167 -213 0
-1132 -167 -214 0
-1132 -167 -237 0
-1132 -167 -238 0
-1132 -167 -257 0
-1132 -167 -258 0
-1132 -168 308 0
-1132 -168 -150 -159 0
-1132 -168 -214 0
-1132 -168 -238 0
-1132 -168 -258 0
-1133 295 0
-1133 300 0
-1133 -160 0
-1133 -162 0
-1133 -163 0
-1133 -164 0
-1133 -165 0
-1133 -169 0
-1133 -166 306 0
-1133 -166 -151 -157 0
-1133 -166 -216 0
-1133 -166 -217 0
-1133 -166 -218 0
-1133 -166 -236 0
-1133 -166 -237 0
-1133 -166 -238 0
-1133 -166 -240 0
-1133 -166 -241 0
-1133 -166 -242 0
-1133 -166 -256 0
-1133 -166 -257 0
-1133 -166 -258 0
-1133 -166 -260 0
-1133 -166 -261 0
-1133 -166 -262 0
-1133 -167 307 0
-1133 -167 -151 -158 0
-1133 -167 -217 0
-1133 -167 -218 0
-1133 -167 -237 0
-1133 -167 -238 0
-1133 -167 -241 0
-1133 -167 -242 0
-1133 -167 -257 0
-1133 -167 -258 0
-1133 -167 -261 0
-1133 -167 -262 0
-1133 -168 308 0
-1133 -168 -151 -159 0
-1133 -168 -218 0
-1133 -168 -238 0
-1133 -168 -242 0
-1133 -168 -258 0
-1133 -168 -262 0
-1134 295 0
-1134 301 0
-1134 -160 0
-1134 -161 0
-1134 -163 0
-1134 -164 0
-1134 -165 0
-1134 -169 0
-1134 -166 306 0
-1134 -166 -152 -157 0
-1134 -166 -220 0
-1134 -166 -221 0
-1134 -166 -222 0
-1134 -166 -240 0
-1134 -166 -241 0
-1134 -166 -242 0
-1134 -166 -244 0
-1134 -166 -245 0
-1134 -166 -246 0
-1134 -166 -256 0
-1134 -166 -257 0
-1134 -166 -258 0
-1134 -166 -260 0
-1134 -166 -261 0
-1134 -166 -262 0
-1134 -166 -264 0
-1134 -166 -265 0
-1134 -166 -266 0
-1134 -167 307 0
-1134 -167 -152 -158 0
-1134 -167 -221 0
-1134 -167 -222 0
-1134 -167 -241 0
-1134 -167 -242 0
-1134 -167 -245 0
-1134 -167 -246 0
-1134 -167 -257 0
-1134 -167 -258 0
-1134 -167 -261 0
-1134 -167 -262 0
-1134 -167 -265 0
-1134 -167 -266 0
-1134 -168 308 0
-1134 -168 -152 -159 0
-1134 -168 -222 0
-1134 -168 -242 0
-1134 -168 -246 0
-1134 -168 -258 0
-1134 -168 -262 0
-1134 -168 -266 0
-1135 295 0
-1135 302 0
-1135 -160 0
-1135 -161 0
-1135 -162 0
-1135 -164 0
-1135 -165 0
-1135 -169 0
-1135 -166 306 0
-1135 -166 -153 -157 0
-1135 -166 -224 0
-1135 -166 -225 0
-1135 -166 -226 0
-1135 -166 -244 0
-1135 -166 -245 0
-1135 -166 -246 0
-1135 -166 -248 0
-1135 -166 -249 0
-1135 -166 -250 0
-1135 -166 -260 0
-1135 -166 -261 0
-1135 -166 -262 0
-1135 -166 -264 0
-1135 -166 -265 0
-1135 -166 -266 0
-1135 -166 -268 0
-1135 -166 -269 0
-1135 -166 -270 0
-1135 -167 307 0
-1135 -167 -153 -158 0
-1135 -167 -225 0
-1135 -167 -226 0
-1135 -167 -245 0
-1135 -167 -246 0
-1135 -167 -249 0
-1135 -167 -250 0
-1135 -167 -261 0
-1135 -167 -262 0
-1135 -167 -265 0
-1135 -167 -266 0
-1135 -167 -269 0
-1135 -167 -270 0
-1135 -168 308 0
-1135 -168 -153 -159 0
-1135 -168 -226 0
-1135 -168 -246 0
-1135 -168 -250 0
-1135 -168 -262 0
-1135 -168 -266 0
-1135 -168 -270 0
-1136 295 0
-1136 303 0
-1136 -160 0
-1136 -161 0
-1136 -162 0
-1136 -163 0
-1136 -165 0
-1136 -169 0
-1136 -166 306 0
-1136 -166 -154 -157 0
-1136 -166 -228 0
-1136 -166 -229 0
-1136 -166 -230 0
-1136 -166 -248 0
-1136 -166 -249 0
-1136 -166 -250 0
-1136 -166 -252 0
-1136 -166 -253 0
-1136 -166 -254 0
-1136 -166 -264 0
-1136 -166 -265 0
-1136 -166 -266 0
-1136 -166 -268 0
-1136 -166 -269 0
-1136 -166 -270 0
-1136 -167 307 0
-1136 -167 -154 -158 0
-1136 -167 -229 0
-1136 -167 -230 0
-1136 -167 -249 0
-1136 -167 -250 0
-1136 -167 -253 0
-1136 -167 -254 0
-1136 -167 -265 0
-1136 -167 -266 0
-1136 -167 -269 0
-1136 -167 -270 0
-1136 -168 308 0
-1136 -168 -154 -159 0
-1136 -168 -230 0
-1136 -168 -250 0
-1136 -168 -254 0
-1136 -168 -266 0
-1136 -168 -270 0
-1137 295 0
-1137 304 0
-1137 -160 0
-1137 -161 0
-1137 -162 0
-1137 -163 0
-1137 -164 0
-1137 -169 0
-1137 -166 306 0
-1137 -166 -155 -157 0
-1137 -166 -232 0
-1137 -166 -233 0
-1137 -166 -234 0
-1137 -166 -252 0
-1137 -166 -253 0
-1137 -166 -254 0
-1137 -166 -268 0
-1137 -166 -269 0
-1137 -166 -270 0
-1137 -167 307 0
-1137 -167 -155 -158 0
-1137 -167 -233 0
-1137 -167 -234 0
-1137 -167 -253 0
-1137 -167 -254 0
-1137 -167 -269 0
-1137 -167 -270 0
-1137 -168 308 0
-1137 -168 -155 -159 0
-1137 -168 -234 0
-1137 -168 -254 0
-1137 -168 -270 0
-1138 295 0
-1138 299 0
-1138 -171 0
-1138 -172 0
-1138 -173 0
-1138 -174 0
-1138 -178 0
-1138 -175 306 0
-1138 -175 -150 -157 0
-1138 -175 -212 0
-1138 -175 -213 0
-1138 -175 -214 0
-1138 -175 -236 0
-1138 -175 -237 0
-1138 -175 -238 0
-1138 -175 -256 0
-1138 -175 -257 0
-1138 -175 -258 0
-1138 -176 307 0
-1138 -176 -150 -158 0
-1138 -176 -213 0
-1138 -176 -214 0
-1138 -176 -237 0
-1138 -176 -238 0
-1138 -176 -257 0
-1138 -176 -258 0
-1138 -177 308 0
-1138 -177 -150 -159 0
-1138 -177 -214 0
-1138 -177 -238 0
-1138 -177 -258 0
-1139 295 0
-1139 300 0
-1139 -172 0
-1139 -173 0
-1139 -174 0
-1139 -178 0
-1139 -175 306 0
-1139 -175 -151 -157 0
-1139 -175 -216 0
-1139 -175 -217 0
-1139 -175 -218 0
-1139 -175 -236 0
-1139 -175 -237 0
-1139 -175 -238 0
-1139 -175 -240 0
-1139 -175 -241 0
-1139 -175 -242 0
-1139 -175 -256 0
-1139 -175 -257 0
-1139 -175 -258 0
-1139 -175 -260 0
-1139 -175 -261 0
-1139 -175 -262 0
-1139 -176 307 0
-1139 -176 -151 -158 0
-1139 -176 -217 0
-1139 -176 -218 0
-1139 -176 -237 0
-1139 -176 -238 0
-1139 -176 -241 0
-1139 -176 -242 0
-1139 -176 -257 0
-1139 -176 -258 0
-1139 -176 -261 0
-1139 -176 -262 0
-1139 -177 308 0
-1139 -177 -151 -159 0
-1139 -177 -218 0
-1139 -177 -238 0
-1139 -177 -242 0
-1139 -177 -258 0
-1139 -177 -262 0
-1140 295 0
-1140 301 0
-1140 -170 0
-1140 -173 0
-1140 -174 0
-1140 -178 0
-1140 -175 306 0
-1140 -175 -152 -157 0
-1140 -175 -220 0
-1140 -175 -221 0
-1140 -175 -222 0
-1140 -175 -240 0
-1140 -175 -241 0
-1140 -175 -242 0
-1140 -175 -244 0
-1140 -175 -245 0
-1140 -175 -246 0
-1140 -175 -256 0
-1140 -175 -257 0
-1140 -175 -258 0
-1140 -175 -260 0
-1140 -175 -261 0
-1140 -175 -262 0
-1140 -175 -264 0
-1140 -175 -265 0
-1140 -175 -266 0
-1140 -176 307 0
-1140 -176 -152 -158 0
-1140 -176 -221 0
-1140 -176 -222 0
-1140 -176 -241 0
-1140 -176 -242 0
-1140 -176 -245 0
-1140 -176 -246 0
-1140 -176 -257 0
-1140 -176 -258 0
-1140 -176 -261 0
-1140 -176 -262 0
-1140 -176 -265 0
-1140 -176 -266 0
-1140 -177 308 0
-1140 -177 -152 -159 0
-1140 -177 -222 0
-1140 -177 -242 0
-1140 -177 -246 0
-1140 -177 -258 0
-1140 -177 -262 0
-1140 -177 -266 0
-1141 295 0
-1141 302 0
-1141 -170 0
-1141 -171 0
-1141 -174 0
-1141 -178 0
-1141 -175 306 0
-1141 -175 -153 -157 0
-1141 -175 -224 0
-1141 -175 -225 0
-1141 -175 -226 0
-1141 -175 -244 0
-1141 -175 -245 0
-1141 -175 -246 0
-1141 -175 -248 0
-1141 -175 -249 0
-1141 -175 -250 0
-1141 -175 -260 0
-1141 -175 -261 0
-1141 -175 -262 0
-1141 -175 -264 0
-1141 -175 -265 0
-1141 -175 -266 0
-1141 -175 -268 0
-1141 -175 -269 0
-1141 -175 -270 0
-1141 -176 307 0
-1141 -176 -153 -158 0
-1141 -176 -225 0
-1141 -176 -226 0
-1141 -176 -245 0
-1141 -176 -246 0
-1141 -176 -249 0
-1141 -176 -250 0
-1141 -176 -261 0
-1141 -176 -262 0
-1141 -176 -265 0
-1141 -176 -266 0
-1141 -176 -269 0
-1141 -176 -270 0
-1141 -177 308 0
-1141 -177 -153 -159 0
-1141 -177 -226 0
-1141 -177 -246 0
-1141 -177 -250 0
-1141 -177 -262 0
-1141 -177 -266 0
-1141 -177 -270 0
-1142 295 0
-1142 303 0
-1142 -170 0
-1142 -171 0
-1142 -172 0
-1142 -178 0
-1142 -175 306 0
-1142 -175 -154 -157 0
-1142 -175 -228 0
-1142 -175 -229 0
-1142 -175 -230 0
-1142 -175 -248 0
-1142 -175 -249 0
-1142 -175 -250 0
-1142 -175 -252 0
-1142 -175 -253 0
-1142 -175 -254 0
-1142 -175 -264 0
-1142 -175 -265 0
-1142 -175 -266 0
-1142 -175 -268 0
-1142 -175 -269 0
-1142 -175 -270 0
-1142 -176 307 0
-1142 -176 -154 -158 0
-1142 -176 -229 0
-1142 -176 -230 0
-1142 -176 -249 0
-1142 -176 -250 0
-1142 -176 -253 0
-1142 -176 -254 0
-1142 -176 -265 0
-1142 -176 -266 0
-1142 -176 -269 0
-1142 -176 -270 0
-1142 -177 308 0
-1142 -177 -154 -159 0
-1142 -177 -230 0
-1142 -177 -250 0
-1142 -177 -254 0
-1142 -177 -266 0
-1142 -177 -270 0
-1143 295 0
-1143 304 0
-1143 -170 0
-1143 -171 0
-1143 -172 0
-1143 -173 0
-1143 -178 0
-1143 -175 306 0
-1143 -175 -155 -157 0
-1143 -175 -232 0
-1143 -175 -233 0
-1143 -175 -234 0
-1143 -175 -252 0
-1143 -175 -253 0
-1143 -175 -254 0
-1143 -175 -268 0
-1143 -175 -269 0
-1143 -175 -270 0
-1143 -176 307 0
-1143 -176 -155 -158 0
-1143 -176 -233 0
-1143 -176 -234 0
-1143 -176 -253 0
-1143 -176 -254 0
-1143 -176 -269 0
-1143 -176 -270 0
-1143 -177 308 0
-1143 -177 -155 -159 0
-1143 -177 -234 0
-1143 -177 -254 0
-1143 -177 -270 0
-1144 295 0
-1144 299 0
-1144 -180 0
-1144 -181 0
-1144 -182 0
-1144 -186 0
-1144 -183 306 0
-1144 -183 -150 -157 0
-1144 -183 -212 0
-1144 -183 -213 0
-1144 -183 -214 0
-1144 -183 -236 0
-1144 -183 -237 0
-1144 -183 -238 0
-1144 -183 -256 0
-1144 -183 -257 0
-1144 -183 -258 0
-1144 -184 307 0
-1144 -184 -150 -158 0
-1144 -184 -213 0
-1144 -184 -214 0
-1144 -184 -237 0
-1144 -184 -238 0
-1144 -184 -257 0
-1144 -184 -258 0
-1144 -185 308 0
-1144 -185 -150 -159 0
-1144 -185 -214 0
-1144 -185 -238 0
-1144 -185 -258 0
-1145 295 0
-1145 300 0
-1145 -181 0
-1145 -182 0
-1145 -186 0
-1145 -183 306 0
-1145 -183 -151 -157 0
-1145 -183 -216 0
-1145 -183 -217 0
-1145 -183 -218 0
-1145 -183 -236 0
-1145 -183 -237 0
-1145 -183 -238 0
-1145 -183 -240 0
-1145 -183 -241 0
-1145 -183 -242 0
-1145 -183 -256 0
-1145 -183 -257 0
-1145 -183 -258 0
-1145 -183 -260 0
-1145 -183 -261 0
-1145 -183 -262 0
-1145 -184 307 0
-1145 -184 -151 -158 0
-1145 -184 -217 0
-1145 -184 -218 0
-1145 -184 -237 0
-1145 -184 -238 0
-1145 -184 -241 0
-1145 -184 -242 0
-1145 -184 -257 0
-1145 -184 -258 0
-1145 -184 -261 0
-1145 -184 -262 0
-1145 -185 308 0
-1145 -185 -151 -159 0
-1145 -185 -218 0
-1145 -185 -238 0
-1145 -185 -242 0
-1145 -185 -258 0
-1145 -185 -262 0
-1146 295 0
-1146 301 0
-1146 -182 0
-1146 -186 0
-1146 -183 306 0
-1146 -183 -152 -157 0
-1146 -183 -220 0
-1146 -183 -221 0
-1146 -183 -222 0
-1146 -183 -240 0
-1146 -183 -241 0
-1146 -183 -242 0
-1146 -183 -244 0
-1146 -183 -245 0
-1146 -183 -246 0
-1146 -183 -256 0
-1146 -183 -257 0
-1146 -183 -258 0
-1146 -183 -260 0
-1146 -183 -261 0
-1146 -183 -262 0
-1146 -183 -264 0
-1146 -183 -265 0
-1146 -183 -266 0
-1146 -184 307 0
-1146 -184 -152 -158 0
-1146 -184 -221 0
-1146 -184 -222 0
-1146 -184 -241 0
-1146 -184 -242 0
-1146 -184 -245 0
-1146 -184 -246 0
-1146 -184 -257 0
-1146 -184 -258 0
-1146 -184 -261 0
-1146 -184 -262 0
-1146 -184 -265 0
-1146 -184 -266 0
-1146 -185 308 0
-1146 -185 -152 -159 0
-1146 -185 -222 0
-1146 -185 -242 0
-1146 -185 -246 0
-1146 -185 -258 0
-1146 -185 -262 0
-1146 -185 -266 0
-1147 295 0
-1147 302 0
-1147 -179 0
-1147 -186 0
-1147 -183 306 0
-1147 -183 -153 -157 0
-1147 -183 -224 0
-1147 -183 -225 0
-1147 -183 -226 0
-1147 -183 -244 0
-1147 -183 -245 0
-1147 -183 -246 0
-1147 -183 -248 0
-1147 -183 -249 0
-1147 -183 -250 0
-1147 -183 -260 0
-1147 -183 -261 0
-1147 -183 -262 0
-1147 -183 -264 0
-1147 -183 -265 0
-1147 -183 -266 0
-1147 -183 -268 0
-1147 -183 -269 0
-1147 -183 -270 0
-1147 -184 307 0
-1147 -184 -153 -158 0
-1147 -184 -225 0
-1147 -184 -226 0
-1147 -184 -245 0
-1147 -184 -246 0
-1147 -184 -249 0
-1147 -184 -250 0
-1147 -184 -261 0
-1147 -184 -262 0
-1147 -184 -265 0
-1147 -184 -266 0
-1147 -184 -269 0
-1147 -184 -270 0
-1147 -185 308 0
-1147 -185 -153 -159 0
-1147 -185 -226 0
-1147 -185 -246 0
-1147 -185 -250 0
-1147 -185 -262 0
-1147 -185 -266 0
-1147 -185 -270 0
-1148 295 0
-1148 303 0
-1148 -179 0
-1148 -180 0
-1148 -186 0
-1148 -183 306 0
-1148 -183 -154 -157 0
-1148 -183 -228 0
-1148 -183 -229 0
-1148 -183 -230 0
-1148 -183 -248 0
-1148 -183 -249 0
-1148 -183 -250 0
-1148 -183 -252 0
-1148 -183 -253 0
-1148 -183 -254 0
-1148 -183 -264 0
-1148 -183 -265 0
-1148 -183 -266 0
-1148 -183 -268 0
-1148 -183 -269 0
-1148 -183 -270 0
-1148 -184 307 0
-1148 -184 -154 -158 0
-1148 -184 -229 0
-1148 -184 -230 0
-1148 -184 -249 0
-1148 -184 -250 0
-1148 -184 -253 0
-1148 -184 -254 0
-1148 -184 -265 0
-1148 -184 -266 0
-1148 -184 -269 0
-1148 -184 -270 0
-1148 -185 308 0
-1148 -185 -154 -159 0
-1148 -185 -230 0
-1148 -185 -250 0
-1148 -185 -254 0
-1148 -185 -266 0
-1148 -185 -270 0
-1149 295 0
-1149 304 0
-1149 -179 0
-1149 -180 0
-1149 -181 0
-1149 -186 0
-1149 -183 306 0
-1149 -183 -155 -157 0
-1149 -183 -232 0
-1149 -183 -233 0
-1149 -183 -234 0
-1149 -183 -252 0
-1149 -183 -253 0
-1149 -183 -254 0
-1149 -183 -268 0
-1149 -183 -269 0
-1149 -183 -270 0
-1149 -184 307 0
-1149 -184 -155 -158 0
-1149 -184 -233 0
-1149 -184 -234 0
-1149 -184 -253 0
-1149 -184 -254 0
-1149 -184 -269 0
-1149 -184 -270 0
-1149 -185 308 0
-1149 -185 -155 -159 0
-1149 -185 -234 0
-1149 -185 -254 0
-1149 -185 -270 0
-1150 295 0
-1150 299 0
-1150 305 0
-1150 -150 -156 0
-1150 -211 0
-1150 -212 0
-1150 -213 0
-1150 -214 0
-1150 -235 0
-1150 -236 0
-1150 -237 0
-1150 -238 0
-1150 -255 0
-1150 -256 0
-1150 -257 0
-1150 -258 0
-1151 295 0
-1151 300 0
-1151 305 0
-1151 -151 -156 0
-1151 -215 0
-1151 -216 0
-1151 -217 0
-1151 -218 0
-1151 -235 0
-1151 -236 0
-1151 -237 0
-1151 -238 0
-1151 -239 0
-1151 -240 0
-1151 -241 0
-1151 -242 0
-1151 -255 0
-1151 -256 0
-1151 -257 0
-1151 -258 0
-1151 -259 0
-1151 -260 0
-1151 -261 0
-1151 -262 0
-1152 295 0
-1152 301 0
-1152 305 0
-1152 -152 -156 0
-1152 -219 0
-1152 -220 0
-1152 -221 0
-1152 -222 0
-1152 -239 0
-1152 -240 0
-1152 -241 0
-1152 -242 0
-1152 -243 0
-1152 -244 0
-1152 -245 0
-1152 -246 0
-1152 -255 0
-1152 -256 0
-1152 -257 0
-1152 -258 0
-1152 -259 0
-1152 -260 0
-1152 -261 0
-1152 -262 0
-1152 -263 0
-1152 -264 0
-1152 -265 0
-1152 -266 0
-1153 295 0
-1153 302 0
-1153 305 0
-1153 -153 -156 0
-1153 -223 0
-1153 -224 0
-1153 -225 0
-1153 -226 0
-1153 -243 0
-1153 -244 0
-1153 -245 0
-1153 -246 0
-1153 -247 0
-1153 -248 0
-1153 -249 0
-1153 -250 0
-1153 -259 0
-1153 -260 0
-1153 -261 0
-1153 -262 0
-1153 -263 0
-1153 -264 0
-1153 -265 0
-1153 -266 0
-1153 -267 0
-1153 -268 0
-1153 -269 0
-1153 -270 0
-1154 295 0
-1154 303 0
-1154 305 0
-1154 -154 -156 0
-1154 -227 0
-1154 -228 0
-1154 -229 0
-1154 -230 0
-1154 -247 0
-1154 -248 0
-1154 -249 0
-1154 -250 0
-1154 -251 0
-1154 -252 0
-1154 -253 0
-1154 -254 0
-1154 -263 0
-1154 -264 0
-1154 -265 0
-1154 -266 0
-1154 -267 0
-1154 -268 0
-1154 -269 0
-1154 -270 0
-1155 295 0
-1155 304 0
-1155 305 0
-1155 -155 -156 0
-1155 -231 0
-1155 -232 0
-1155 -233 0
-1155 -234 0
-1155 -251 0
-1155 -252 0
-1155 -253 0
-1155 -254 0
-1155 -267 0
-1155 -268 0
-1155 -269 0
-1155 -270 0
-1156 296 0
-1156 309 0
-1156 -151 0
-1156 -152 0
-1156 -153 0
-1156 -154 0
-1156 -155 0
-1156 -159 0
-1156 -156 316 0
-1156 -156 -160 -167 0
-1156 -156 -188 0
-1156 -156 -189 0
-1156 -156 -190 0
-1156 -156 -236 0
-1156 -156 -237 0
-1156 -156 -238 0
-1156 -156 -256 0
-1156 -156 -257 0
-1156 -156 -258 0
-1156 -157 317 0
-1156 -157 -160 -168 0
-1156 -157 -189 0
-1156 -157 -190 0
-1156 -157 -237 0
-1156 -157 -238 0
-1156 -157 -257 0
-1156 -157 -258 0
-1156 -158 318 0
-1156 -158 -160 -169 0
-1156 -158 -190 0
-1156 -158 -238 0
-1156 -158 -258 0
-1157 296 0
-1157 310 0
-1157 -150 0
-1157 -152 0
-1157 -153 0
-1157 -154 0
-1157 -155 0
-1157 -159 0
-1157 -156 316 0
-1157 -156 -161 -167 0
-1157 -156 -192 0
-1157 -156 -193 0
-1157 -156 -194 0
-1157 -156 -236 0
-1157 -156 -237 0
-1157 -156 -238 0
-1157 -156 -240 0
-1157 -156 -241 0
-1157 -156 -242 0
-1157 -156 -256 0
-1157 -156 -257 0
-1157 -156 -258 0
-1157 -156 -260 0
-1157 -156 -261 0
-1157 -156 -262 0
-1157 -157 317 0
-1157 -157 -161 -168 0
-1157 -157 -193 0
-1157 -157 -194 0
-1157 -157 -237 0
-1157 -157 -238 0
-1157 -157 -241 0
-1157 -157 -242 0
-1157 -157 -257 0
-1157 -157 -258 0
-1157 -157 -261 0
-1157 -157 -262 0
-1157 -158 318 0
-1157 -158 -161 -169 0
-1157 -158 -194 0
-1157 -158 -238 0
-1157 -158 -242 0
-1157 -158 -258 0
-1157 -158 -262 0
-1158 296 0
-1158 311 0
-1158 -150 0
-1158 -151 0
-1158 -153 0
-1158 -154 0
-1158 -155 0
-1158 -159 0
-1158 -156 316 0
-1158 -156 -162 -167 0
-1158 -156 -196 0
-1158 -156 -197 0
-1158 -156 -198 0
-1158 -156 -240 0
-1158 -156 -241 0
-1158 -156 -242 0
-1158 -156 -244 0
-1158 -156 -245 0
-1158 -156 -246 0
-1158 -156 -256 0
-1158 -156 -257 0
-1158 -156 -258 0
-1158 -156 -260 0
-1158 -156 -261 0
-1158 -156 -262 0
-1158 -156 -264 0
-1158 -156 -265 0
-1158 -156 -266 0
-1158 -157 317 0
-1158 -157 -162 -168 0
-1158 -157 -197 0
-1158 -157 -198 0
-1158 -157 -241 0
-1158 -157 -242 0
-1158 -157 -245 0
-1158 -157 -246 0
-1158 -157 -257 0
-1158 -157 -258 0
-1158 -157 -261 0
-1158 -157 -262 0
-1158 -157 -265 0
-1158 -157 -266 0
-1158 -158 318 0
-1158 -158 -162 -169 0
-1158 -158 -198 0
-1158 -158 -242 0
-1158 -158 -246 0
-1158 -158 -258 0
-1158 -158 -262 0
-1158 -158 -266 0
-1159 296 0
-1159 312 0
-1159 -150 0
-1159 -151 0
-1159 -152 0
-1159 -154 0
-1159 -155 0
-1159 -159 0
-1159 -156 316 0
-1159 -156 -163 -167 0
-1159 -156 -200 0
-1159 -156 -201 0
-1159 -156 -202 0
-1159 -156 -244 0
-1159 -156 -245 0
-1159 -156 -246 0
-1159 -156 -248 0
-1159 -156 -249 0
-1159 -156 -250 0
-1159 -156 -260 0
-1159 -156 -261 0
-1159 -156 -262 0
-1159 -156 -264 0
-1159 -156 -265 0
-1159 -156 -266 0
-1159 -156 -268 0
-1159 -156 -269 0
-1159 -156 -270 0
-1159 -157 317 0
-1159 -157 -163 -168 0
-1159 -157 -201 0
-1159 -157 -202 0
-1159 -157 -245 0
-1159 -157 -246 0
-1159 -157 -249 0
-1159 -157 -250 0
-1159 -157 -261 0
-1159 -157 -262 0
-1159 -157 -265 0
-1159 -157 -266 0
-1159 -157 -269 0
-1159 -157 -270 0
-1159 -158 318 0
-1159 -158 -163 -169 0
-1159 -158 -202 0
-1159 -158 -246 0
-1159 -158 -250 0
-1159 -158 -262 0
-1159 -158 -266 0
-1159 -158 -270 0
-1160 296 0
-1160 313 0
-1160 -150 0
-1160 -151 0
-1160 -152 0
-1160 -153 0
-1160 -155 0
-1160 -159 0
-1160 -156 316 0
-1160 -156 -164 -167 0
-1160 -156 -204 0
-1160 -156 -205 0
-1160 -156 -206 0
-1160 -156 -248 0
-1160 -156 -249 0
-1160 -156 -250 0
-1160 -156 -252 0
-1160 -156 -253 0
-1160 -156 -254 0
-1160 -156 -264 0
-1160 -156 -265 0
-1160 -156 -266 0
-1160 -156 -268 0
-1160 -156 -269 0
-1160 -156 -270 0
-1160 -157 317 0
-1160 -157 -164 -168 0
-1160 -157 -205 0
-1160 -157 -206 0
-1160 -157 -249 0
-1160 -157 -250 0
-1160 -157 -253 0
-1160 -157 -254 0
-1160 -157 -265 0
-1160 -157 -266 0
-1160 -157 -269 0
-1160 -157 -270 0
-1160 -158 318 0
-1160 -158 -164 -169 0
-1160 -158 -206 0
-1160 -158 -250 0
-1160 -158 -254 0
-1160 -158 -266 0
-1160 -158 -270 0
-1161 296 0
-1161 314 0
-1161 -150 0
-1161 -151 0
-1161 -152 0
-1161 -153 0
-1161 -154 0
-1161 -159 0
-1161 -156 316 0
-1161 -156 -165 -167 0
-1161 -156 -208 0
-1161 -156 -209 0
-1161 -156 -210 0
-1161 -156 -252 0
-1161 -156 -253 0
-1161 -156 -254 0
-1161 -156 -268 0
-1161 -156 -269 0
-1161 -156 -270 0
-1161 -157 317 0
-1161 -157 -165 -168 0
-1161 -157 -209 0
-1161 -157 -210 0
-1161 -157 -253 0
-1161 -157 -254 0
-1161 -157 -269 0
-1161 -157 -270 0
-1161 -158 318 0
-1161 -158 -165 -169 0
-1161 -158 -210 0
-1161 -158 -254 0
-1161 -158 -270 0
-1162 296 0
-1162 309 0
-1162 -171 0
-1162 -172 0
-1162 -173 0
-1162 -174 0
-1162 -178 0
-1162 -175 316 0
-1162 -175 -160 -167 0
-1162 -175 -188 0
-1162 -175 -189 0
-1162 -175 -190 0
-1162 -175 -236 0
-1162 -175 -237 0
-1162 -175 -238 0
-1162 -175 -256 0
-1162 -175 -257 0
-1162 -175 -258 0
-1162 -176 317 0
-1162 -176 -160 -168 0
-1162 -176 -189 0
-1162 -176 -190 0
-1162 -176 -237 0
-1162 -176 -238 0
-1162 -176 -257 0
-1162 -176 -258 0
-1162 -177 318 0
-1162 -177 -160 -169 0
-1162 -177 -190 0
-1162 -177 -238 0
-1162 -177 -258 0
-1163 296 0
-1163 310 0
-1163 -172 0
-1163 -173 0
-1163 -174 0
-1163 -178 0
-1163 -175 316 0
-1163 -175 -161 -167 0
-1163 -175 -192 0
-1163 -175 -193 0
-1163 -175 -194 0
-1163 -175 -236 0
-1163 -175 -237 0
-1163 -175 -238 0
-1163 -175 -240 0
-1163 -175 -241 0
-1163 -175 -242 0
-1163 -175 -256 0
-1163 -175 -257 0
-1163 -175 -258 0
-1163 -175 -260 0
-1163 -175 -261 0
-1163 -175 -262 0
-1163 -176 317 0
-1163 -176 -161 -168 0
-1163 -176 -193 0
-1163 -176 -194 0
-1163 -176 -237 0
-1163 -176 -238 0
-1163 -176 -241 0
-1163 -176 -242 0
-1163 -176 -257 0
-1163 -176 -258 0
-1163 -176 -261 0
-1163 -176 -262 0
-1163 -177 318 0
-1163 -177 -161 -169 0
-1163 -177 -194 0
-1163 -177 -238 0
-1163 -177 -242 0
-1163 -177 -258 0
-1163 -177 -262 0
-1164 296 0
-1164 311 0
-1164 -170 0
-1164 -173 0
-1164 -174 0
-1164 -178 0
-1164 -175 316 0
-1164 -175 -162 -167 0
-1164 -175 -196 0
-1164 -175 -197 0
-1164 -175 -198 0
-1164 -175 -240 0
-1164 -175 -241 0
-1164 -175 -242 0
-1164 -175 -244 0
-1164 -175 -245 0
-1164 -175 -246 0
-1164 -175 -256 0
-1164 -175 -257 0
-1164 -175 -258 0
-1164 -175 -260 0
-1164 -175 -261 0
-1164 -175 -262 0
-1164 -175 -264 0
-1164 -175 -265 0
-1164 -175 -266 0
-1164 -176 317 0
-1164 -176 -162 -168 0
-1164 -176 -197 0
-1164 -176 -198 0
-1164 -176 -241 0
-1164 -176 -242 0
-1164 -176 -245 0
-1164 -176 -246 0
-1164 -176 -257 0
-1164 -176 -258 0
-1164 -176 -261 0
-1164 -176 -262 0
-1164 -176 -265 0
-1164 -176 -266 0
-1164 -177 318 0
-1164 -177 -162 -169 0
-1164 -177 -198 0
-1164 -177 -242 0
-1164 -177 -246 0
-1164 -177 -258 0
-1164 -177 -262 0
-1164 -177 -266 0
-1165 296 0
-1165 312 0
-1165 -170 0
-1165 -171 0
-1165 -174 0
-1165 -178 0
-1165 -175 316 0
-1165 -175 -163 -167 0
-1165 -175 -200 0
-1165 -175 -201 0
-1165 -175 -202 0
-1165 -175 -244 0
-1165 -175 -245 0
-1165 -175 -246 0
-1165 -175 -248 0
-1165 -175 -249 0
-1165 -175 -250 0
-1165 -175 -260 0
-1165 -175 -261 0
-1165 -175 -262 0
-1165 -175 -264 0
-1165 -175 -265 0
-1165 -175 -266 0
-1165 -175 -268 0
-1165 -175 -269 0
-1165 -175 -270 0
-1165 -176 317 0
-1165 -176 -163 -168 0
-1165 -176 -201 0
-1165 -176 -202 0
-1165 -176 -245 0
-1165 -176 -246 0
-1165 -176 -249 0
-1165 -176 -250 0
-1165 -176 -261 0
-1165 -176 -262 0
-1165 -176 -265 0
-1165 -176 -266 0
-1165 -176 -269 0
-1165 -176 -270 0
-1165 -177 318 0
-1165 -177 -163 -169 0
-1165 -177 -202 0
-1165 -177 -246 0
-1165 -177 -250 0
-1165 -177 -262 0
-1165 -177 -266 0
-1165 -177 -270 0
-1166 296 0
-1166 313 0
-1166 -170 0
-1166 -171 0
-1166 -172 0
-1166 -178 0
-1166 -175 316 0
-1166 -175 -164 -167 0
-1166 -175 -204 0
-1166 -175 -205 0
-1166 -175 -206 0
-1166 -175 -248 0
-1166 -175 -249 0
-1166 -175 -250 0
-1166 -175 -252 0
-1166 -175 -253 0
-1166 -175 -254 0
-1166 -175 -264 0
-1166 -175 -265 0
-1166 -175 -266 0
-1166 -175 -268 0
-1166 -175 -269 0
-1166 -175 -270 0
-1166 -176 317 0
-1166 -176 -164 -168 0
-1166 -176 -205 0
-1166 -176 -206 0
-1166 -176 -249 0
-1166 -176 -250 0
-1166 -176 -253 0
-1166 -176 -254 0
-1166 -176 -265 0
-1166 -176 -266 0
-1166 -176 -269 0
-1166 -176 -270 0
-1166 -177 318 0
-1166 -177 -164 -169 0
-1166 -177 -206 0
-1166 -177 -250 0
-1166 -177 -254 0
-1166 -177 -266 0
-1166 -177 -270 0
-1167 296 0
-1167 314 0
-1167 -170 0
-1167 -171 0
-1167 -172 0
-1167 -173 0
-1167 -178 0
-1167 -175 316 0
-1167 -175 -165 -167 0
-1167 -175 -208 0
-1167 -175 -209 0
-1167 -175 -210 0
-1167 -175 -252 0
-1167 -175 -253 0
-1167 -175 -254 0
-1167 -175 -268 0
-1167 -175 -269 0
-1167 -175 -270 0
-1167 -176 317 0
-1167 -176 -165 -168 0
-1167 -176 -209 0
-1167 -176 -210 0
-1167 -176 -253 0
-1167 -176 -254 0
-1167 -176 -269 0
-1167 -176 -270 0
-1167 -177 318 0
-1167 -177 -165 -169 0
-1167 -177 -210 0
-1167 -177 -254 0
-1167 -177 -270 0
-1168 296 0
-1168 309 0
-1168 -180 0
-1168 -181 0
-1168 -182 0
-1168 -186 0
-1168 -183 316 0
-1168 -183 -160 -167 0
-1168 -183 -188 0
-1168 -183 -189 0
-1168 -183 -190 0
-1168 -183 -236 0
-1168 -183 -237 0
-1168 -183 -238 0
-1168 -183 -256 0
-1168 -183 -257 0
-1168 -183 -258 0
-1168 -184 317 0
-1168 -184 -160 -168 0
-1168 -184 -189 0
-1168 -184 -190 0
-1168 -184 -237 0
-1168 -184 -238 0
-1168 -184 -257 0
-1168 -184 -258 0
-1168 -185 318 0
-1168 -185 -160 -169 0
-1168 -185 -190 0
-1168 -185 -238 0
-1168 -185 -258 0
-1169 296 0
-1169 310 0
-1169 -181 0
-1169 -182 0
-1169 -186 0
-1169 -183 316 0
-1169 -183 -161 -167 0
-1169 -183 -192 0
-1169 -183 -193 0
-1169 -183 -194 0
-1169 -183 -236 0
-1169 -183 -237 0
-1169 -183 -238 0
-1169 -183 -240 0
-1169 -183 -241 0
-1169 -183 -242 0
-1169 -183 -256 0
-1169 -183 -257 0
-1169 -183 -258 0
-1169 -183 -260 0
-1169 -183 -261 0
-1169 -183 -262 0
-1169 -184 317 0
-1169 -184 -161 -168 0
-1169 -184 -193 0
-1169 -184 -194 0
-1169 -184 -237 0
-1169 -184 -238 0
-1169 -184 -241 0
-1169 -184 -242 0
-1169 -184 -257 0
-1169 -184 -258 0
-1169 -184 -261 0
-1169 -184 -262 0
-1169 -185 318 0
-1169 -185 -161 -169 0
-1169 -185 -194 0
-1169 -185 -238 0
-1169 -185 -242 0
-1169 -185 -258 0
-1169 -185 -262 0
-1170 296 0
-1170 311 0
-1170 -182 0
-1170 -186 0
-1170 -183 316 0
-1170 -183 -162 -167 0
-1170 -183 -196 0
-1170 -183 -197 0
-1170 -183 -198 0
-1170 -183 -240 0
-1170 -183 -241 0
-1170 -183 -242 0
-1170 -183 -244 0
-1170 -183 -245 0
-1170 -183 -246 0
-1170 -183 -256 0
-1170 -183 -257 0
-1170 -183 -258 0
-1170 -183 -260 0
-1170 -183 -261 0
-1170 -183 -262 0
-1170 -183 -264 0
-1170 -183 -265 0
-1170 -183 -266 0
-1170 -184 317 0
-1170 -184 -162 -168 0
-1170 -184 -197 0
-1170 -184 -198 0
-1170 -184 -241 0
-1170 -184 -242 0
-1170 -184 -245 0
-1170 -184 -246 0
-1170 -184 -257 0
-1170 -184 -258 0
-1170 -184 -261 0
-1170 -184 -262 0
-1170 -184 -265 0
-1170 -184 -266 0
-1170 -185 318 0
-1170 -185 -162 -169 0
-1170 -185 -198 0
-1170 -185 -242 0
-1170 -185 -246 0
-1170 -185 -258 0
-1170 -185 -262 0
-1170 -185 -266 0
-1171 296 0
-1171 312 0
-1171 -179 0
-1171 -186 0
-1171 -183 316 0
-1171 -183 -163 -167 0
-1171 -183 -200 0
-1171 -183 -201 0
-1171 -183 -202 0
-1171 -183 -244 0
-1171 -183 -245 0
-1171 -183 -246 0
-1171 -183 -248 0
-1171 -183 -249 0
-1171 -183 -250 0
-1171 -183 -260 0
-1171 -183 -261 0
-1171 -183 -262 0
-1171 -183 -264 0
-1171 -183 -265 0
-1171 -183 -266 0
-1171 -183 -268 0
-1171 -183 -269 0
-1171 -183 -270 0
-1171 -184 317 0
-1171 -184 -163 -168 0
-1171 -184 -201 0
-1171 -184 -202 0
-1171 -184 -245 0
-1171 -184 -246 0
-1171 -184 -249 0
-1171 -184 -250 0
-1171 -184 -261 0
-1171 -184 -262 0
-1171 -184 -265 0
-1171 -184 -266 0
-1171 -184 -269 0
-1171 -184 -270 0
-1171 -185 318 0
-1171 -185 -163 -169 0
-1171 -185 -202 0
-1171 -185 -246 0
-1171 -185 -250 0
-1171 -185 -262 0
-1171 -185 -266 0
-1171 -185 -270 0
-1172 296 0
-1172 313 0
-1172 -179 0
-1172 -180 0
-1172 -186 0
-1172 -183 316 0
-1172 -183 -164 -167 0
-1172 -183 -204 0
-1172 -183 -205 0
-1172 -183 -206 0
-1172 -183 -248 0
-1172 -183 -249 0
-1172 -183 -250 0
-1172 -183 -252 0
-1172 -183 -253 0
-1172 -183 -254 0
-1172 -183 -264 0
-1172 -183 -265 0
-1172 -183 -266 0
-1172 -183 -268 0
-1172 -183 -269 0
-1172 -183 -270 0
-1172 -184 317 0
-1172 -184 -164 -168 0
-1172 -184 -205 0
-1172 -184 -206 0
-1172 -184 -249 0
-1172 -184 -250 0
-1172 -184 -253 0
-1172 -184 -254 0
-1172 -184 -265 0
-1172 -184 -266 0
-1172 -184 -269 0
-1172 -184 -270 0
-1172 -185 318 0
-1172 -185 -164 -169 0
-1172 -185 -206 0
-1172 -185 -250 0
-1172 -185 -254 0
-1172 -185 -266 0
-1172 -185 -270 0
-1173 296 0
-1173 314 0
-1173 -179 0
-1173 -180 0
-1173 -181 0
-1173 -186 0
-1173 -183 316 0
-1173 -183 -165 -167 0
-1173 -183 -208 0
-1173 -183 -209 0
-1173 -183 -210 0
-1173 -183 -252 0
-1173 -183 -253 0
-1173 -183 -254 0
-1173 -183 -268 0
-1173 -183 -269 0
-1173 -183 -270 0
-1173 -184 317 0
-1173 -184 -165 -168 0
-1173 -184 -209 0
-1173 -184 -210 0
-1173 -184 -253 0
-1173 -184 -254 0
-1173 -184 -269 0
-1173 -184 -270 0
-1173 -185 318 0
-1173 -185 -165 -169 0
-1173 -185 -210 0
-1173 -185 -254 0
-1173 -185 -270 0
-1174 296 0
-1174 309 0
-1174 315 0
-1174 -160 -166 0
-1174 -187 0
-1174 -188 0
-1174 -189 0
-1174 -190 0
-1174 -235 0
-1174 -236 0
-1174 -237 0
-1174 -238 0
-1174 -255 0
-1174 -256 0
-1174 -257 0
-1174 -258 0
-1175 296 0
-1175 310 0
-1175 315 0
-1175 -161 -166 0
-1175 -191 0
-1175 -192 0
-1175 -193 0
-1175 -194 0
-1175 -235 0
-1175 -236 0
-1175 -237 0
-1175 -238 0
-1175 -239 0
-1175 -240 0
-1175 -241 0
-1175 -242 0
-1175 -255 0
-1175 -256 0
-1175 -257 0
-1175 -258 0
-1175 -259 0
-1175 -260 0
-1175 -261 0
-1175 -262 0
-1176 296 0
-1176 311 0
-1176 315 0
-1176 -162 -166 0
-1176 -195 0
-1176 -196 0
-1176 -197 0
-1176 -198 0
-1176 -239 0
-1176 -240 0
-1176 -241 0
-1176 -242 0
-1176 -243 0
-1176 -244 0
-1176 -245 0
-1176 -246 0
-1176 -255 0
-1176 -256 0
-1176 -257 0
-1176 -258 0
-1176 -259 0
-1176 -260 0
-1176 -261 0
-1176 -262 0
-1176 -263 0
-1176 -264 0
-1176 -265 0
-1176 -266 0
-1177 296 0
-1177 312 0
-1177 315 0
-1177 -163 -166 0
-1177 -199 0
-1177 -200 0
-1177 -201 0
-1177 -202 0
-1177 -243 0
-1177 -244 0
-1177 -245 0
-1177 -246 0
-1177 -247 0
-1177 -248 0
-1177 -249 0
-1177 -250 0
-1177 -259 0
-1177 -260 0
-1177 -261 0
-1177 -262 0
-1177 -263 0
-1177 -264 0
-1177 -265 0
-1177 -266 0
-1177 -267 0
-1177 -268 0
-1177 -269 0
-1177 -270 0
-1178 296 0
-1178 313 0
-1178 315 0
-1178 -164 -166 0
-1178 -203 0
-1178 -204 0
-1178 -205 0
-1178 -206 0
-1178 -247 0
-1178 -248 0
-1178 -249 0
-1178 -250 0
-1178 -251 0
-1178 -252 0
-1178 -253 0
-1178 -254 0
-1178 -263 0
-1178 -264 0
-1178 -265 0
-1178 -266 0
-1178 -267 0
-1178 -268 0
-1178 -269 0
-1178 -270 0
-1179 296 0
-1179 314 0
-1179 315 0
-1179 -165 -166 0
-1179 -207 0
-1179 -208 0
-1179 -209 0
-1179 -210 0
-1179 -251 0
-1179 -252 0
-1179 -253 0
-1179 -254 0
-1179 -267 0
-1179 -268 0
-1179 -269 0
-1179 -270 0
-1180 297 0
-1180 319 0
-1180 -152 0
-1180 -153 0
-1180 -154 0
-1180 -155 0
-1180 -159 0
-1180 -156 325 0
-1180 -156 -170 -176 0
-1180 -156 -188 0
-1180 -156 -189 0
-1180 -156 -190 0
-1180 -156 -192 0
-1180 -156 -193 0
-1180 -156 -194 0
-1180 -156 -212 0
-1180 -156 -213 0
-1180 -156 -214 0
-1180 -156 -216 0
-1180 -156 -217 0
-1180 -156 -218 0
-1180 -156 -256 0
-1180 -156 -257 0
-1180 -156 -258 0
-1180 -156 -260 0
-1180 -156 -261 0
-1180 -156 -262 0
-1180 -157 326 0
-1180 -157 -170 -177 0
-1180 -157 -189 0
-1180 -157 -190 0
-1180 -157 -193 0
-1180 -157 -194 0
-1180 -157 -213 0
-1180 -157 -214 0
-1180 -157 -217 0
-1180 -157 -218 0
-1180 -157 -257 0
-1180 -157 -258 0
-1180 -157 -261 0
-1180 -157 -262 0
-1180 -158 327 0
-1180 -158 -170 -178 0
-1180 -158 -190 0
-1180 -158 -194 0
-1180 -158 -214 0
-1180 -158 -218 0
-1180 -158 -258 0
-1180 -158 -262 0
-1181 297 0
-1181 320 0
-1181 -150 0
-1181 -153 0
-1181 -154 0
-1181 -155 0
-1181 -159 0
-1181 -156 325 0
-1181 -156 -171 -176 0
-1181 -156 -192 0
-1181 -156 -193 0
-1181 -156 -194 0
-1181 -156 -196 0
-1181 -156 -197 0
-1181 -156 -198 0
-1181 -156 -216 0
-1181 -156 -217 0
-1181 -156 -218 0
-1181 -156 -220 0
-1181 -156 -221 0
-1181 -156 -222 0
-1181 -156 -256 0
-1181 -156 -257 0
-1181 -156 -258 0
-1181 -156 -260 0
-1181 -156 -261 0
-1181 -156 -262 0
-1181 -156 -264 0
-1181 -156 -265 0
-1181 -156 -266 0
-1181 -157 326 0
-1181 -157 -171 -177 0
-1181 -157 -193 0
-1181 -157 -194 0
-1181 -157 -197 0
-1181 -157 -198 0
-1181 -157 -217 0
-1181 -157 -218 0
-1181 -157 -221 0
-1181 -157 -222 0
-1181 -157 -257 0
-1181 -157 -258 0
-1181 -157 -261 0
-1181 -157 -262 0
-1181 -157 -265 0
-1181 -157 -266 0
-1181 -158 327 0
-1181 -158 -171 -178 0
-1181 -158 -194 0
-1181 -158 -198 0
-1181 -158 -218 0
-1181 -158 -222 0
-1181 -158 -258 0
-1181 -158 -262 0
-1181 -158 -266 0
-1182 297 0
-1182 321 0
-1182 -150 0
-1182 -151 0
-1182 -154 0
-1182 -155 0
-1182 -159 0
-1182 -156 325 0
-1182 -156 -172 -176 0
-1182 -156 -196 0
-1182 -156 -197 0
-1182 -156 -198 0
-1182 -156 -200 0
-1182 -156 -201 0
-1182 -156 -202 0
-1182 -156 -220 0
-1182 -156 -221 0
-1182 -156 -222 0
-1182 -156 -224 0
-1182 -156 -225 0
-1182 -156 -226 0
-1182 -156 -256 0
-1182 -156 -257 0
-1182 -156 -258 0
-1182 -156 -260 0
-1182 -156 -261 0
-1182 -156 -262 0
-1182 -156 -264 0
-1182 -156 -265 0
-1182 -156 -266 0
-1182 -156 -268 0
-1182 -156 -269 0
-1182 -156 -270 0
-1182 -157 326 0
-1182 -157 -172 -177 0
-1182 -157 -197 0
-1182 -157 -198 0
-1182 -157 -201 0
-1182 -157 -202 0
-1182 -157 -221 0
-1182 -157 -222 0
-1182 -157 -225 0
-1182 -157 -226 0
-1182 -157 -257 0
-1182 -157 -258 0
-1182 -157 -261 0
-1182 -157 -262 0
-1182 -157 -265 0
-1182 -157 -266 0
-1182 -157 -269 0
-1182 -157 -270 0
-1182 -158 327 0
-1182 -158 -172 -178 0
-1182 -158 -198 0
-1182 -158 -202 0
-1182 -158 -222 0
-1182 -158 -226 0
-1182 -158 -258 0
-1182 -158 -262 0
-1182 -158 -266 0
-1182 -158 -270 0
-1183 297 0
-1183 322 0
-1183 -150 0
-1183 -151 0
-1183 -152 0
-1183 -155 0
-1183 -159 0
-1183 -156 325 0
-1183 -156 -173 -176 0
-1183 -156 -200 0
-1183 -156 -201 0
-1183 -156 -202 0
-1183 -156 -204 0
-1183 -156 -205 0
-1183 -156 -206 0
-1183 -156 -224 0
-1183 -156 -225 0
-1183 -156 -226 0
-1183 -156 -228 0
-1183 -156 -229 0
-1183 -156 -230 0
-1183 -156 -260 0
-1183 -156 -261 0
-1183 -156 -262 0
-1183 -156 -264 0
-1183 -156 -265 0
-1183 -156 -266 0
-1183 -156 -268 0
-1183 -156 -269 0
-1183 -156 -270 0
-1183 -157 326 0
-1183 -157 -173 -177 0
-1183 -157 -201 0
-1183 -157 -202 0
-1183 -157 -205 0
-1183 -157 -206 0
-1183 -157 -225 0
-1183 -157 -226 0
-1183 -157 -229 0
-1183 -157 -230 0
-1183 -157 -261 0
-1183 -157 -262 0
-1183 -157 -265 0
-1183 -157 -266 0
-1183 -157 -269 0
-1183 -157 -270 0
-1183 -158 327 0
-1183 -158 -173 -178 0
-1183 -158 -202 0
-1183 -158 -206 0
-1183 -158 -226 0
-1183 -158 -230 0
-1183 -158 -262 0
-1183 -158 -266 0
-1183 -158 -270 0
-1184 297 0
-1184 323 0
-1184 -150 0
-1184 -151 0
-1184 -152 0
-1184 -153 0
-1184 -159 0
-1184 -156 325 0
-1184 -156 -174 -176 0
-1184 -156 -204 0
-1184 -156 -205 0
-1184 -156 -206 0
-1184 -156 -208 0
-1184 -156 -209 0
-1184 -156 -210 0
-1184 -156 -228 0
-1184 -156 -229 0
-1184 -156 -230 0
-1184 -156 -232 0
-1184 -156 -233 0
-1184 -156 -234 0
-1184 -156 -264 0
-1184 -156 -265 0
-1184 -156 -266 0
-1184 -156 -268 0
-1184 -156 -269 0
-1184 -156 -270 0
-1184 -157 326 0
-1184 -157 -174 -177 0
-1184 -157 -205 0
-1184 -157 -206 0
-1184 -157 -209 0
-1184 -157 -210 0
-1184 -157 -229 0
-1184 -157 -230 0
-1184 -157 -233 0
-1184 -157 -234 0
-1184 -157 -265 0
-1184 -157 -266 0
-1184 -157 -269 0
-1184 -157 -270 0
-1184 -158 327 0
-1184 -158 -174 -178 0
-1184 -158 -206 0
-1184 -158 -210 0
-1184 -158 -230 0
-1184 -158 -234 0
-1184 -158 -266 0
-1184 -158 -270 0
-1185 297 0
-1185 319 0
-1185 -162 0
-1185 -163 0
-1185 -164 0
-1185 -165 0
-1185 -169 0
-1185 -166 325 0
-1185 -166 -170 -176 0
-1185 -166 -188 0
-1185 -166 -189 0
-1185 -166 -190 0
-1185 -166 -192 0
-1185 -166 -193 0
-1185 -166 -194 0
-1185 -166 -212 0
-1185 -166 -213 0
-1185 -166 -214 0
-1185 -166 -216 0
-1185 -166 -217 0
-1185 -166 -218 0
-1185 -166 -256 0
-1185 -166 -257 0
-1185 -166 -258 0
-1185 -166 -260 0
-1185 -166 -261 0
-1185 -166 -262 0
-1185 -167 326 0
-1185 -167 -170 -177 0
-1185 -167 -189 0
-1185 -167 -190 0
-1185 -167 -193 0
-1185 -167 -194 0
-1185 -167 -213 0
-1185 -167 -214 0
-1185 -167 -217 0
-1185 -167 -218 0
-1185 -167 -257 0
-1185 -167 -258 0
-1185 -167 -261 0
-1185 -167 -262 0
-1185 -168 327 0
-1185 -168 -170 -178 0
-1185 -168 -190 0
-1185 -168 -194 0
-1185 -168 -214 0
-1185 -168 -218 0
-1185 -168 -258 0
-1185 -168 -262 0
-1186 297 0
-1186 320 0
-1186 -160 0
-1186 -163 0
-1186 -164 0
-1186 -165 0
-1186 -169 0
-1186 -166 325 0
-1186 -166 -171 -176 0
-1186 -166 -192 0
-1186 -166 -193 0
-1186 -166 -194 0
-1186 -166 -196 0
-1186 -166 -197 0
-1186 -166 -198 0
-1186 -166 -216 0
-1186 -166 -217 0
-1186 -166 -218 0
-1186 -166 -220 0
-1186 -166 -221 0
-1186 -166 -222 0
-1186 -166 -256 0
-1186 -166 -257 0
-1186 -166 -258 0
-1186 -166 -260 0
-1186 -166 -261 0
-1186 -166 -262 0
-1186 -166 -264 0
-1186 -166 -265 0
-1186 -166 -266 0
-1186 -167 326 0
-1186 -167 -171 -177 0
-1186 -167 -193 0
-1186 -167 -194 0
-1186 -167 -197 0
-1186 -167 -198 0
-1186 -167 -217 0
-1186 -167 -218 0
-1186 -167 -221 0
-1186 -167 -222 0
-1186 -167 -257 0
-1186 -167 -258 0
-1186 -167 -261 0
-1186 -167 -262 0
-1186 -167 -265 0
-1186 -167 -266 0
-1186 -168 327 0
-1186 -168 -171 -178 0
-1186 -168 -194 0
-1186 -168 -198 0
-1186 -168 -218 0
-1186 -168 -222 0
-1186 -168 -258 0
-1186 -168 -262 0
-1186 -168 -266 0
-1187 297 0
-1187 321 0
-1187 -160 0
-1187 -161 0
-1187 -164 0
-1187 -165 0
-1187 -169 0
-1187 -166 325 0
-1187 -166 -172 -176 0
-1187 -166 -196 0
-1187 -166 -197 0
-1187 -166 -198 0
-1187 -166 -200 0
-1187 -166 -201 0
-1187 -166 -202 0
-1187 -166 -220 0
-1187 -166 -221 0
-1187 -166 -222 0
-1187 -166 -224 0
-1187 -166 -225 0
-1187 -166 -226 0
-1187 -166 -256 0
-1187 -166 -257 0
-1187 -166 -258 0
-1187 -166 -260 0
-1187 -166 -261 0
-1187 -166 -262 0
-1187 -166 -264 0
-1187 -166 -265 0
-1187 -166 -266 0
-1187 -166 -268 0
-1187 -166 -269 0
-1187 -166 -270 0
-1187 -167 326 0
-1187 -167 -172 -177 0
-1187 -167 -197 0
-1187 -167 -198 0
-1187 -167 -201 0
-1187 -167 -202 0
-1187 -167 -221 0
-1187 -167 -222 0
-1187 -167 -225 0
-1187 -167 -226 0
-1187 -167 -257 0
-1187 -167 -258 0
-1187 -167 -261 0
-1187 -167 -262 0
-1187 -167 -265 0
-1187 -167 -266 0
-1187 -167 -269 0
-1187 -167 -270 0
-1187 -168 327 0
-1187 -168 -172 -178 0
-1187 -168 -198 0
-1187 -168 -202 0
-1187 -168 -222 0
-1187 -168 -226 0
-1187 -168 -258 0
-1187 -168 -262 0
-1187 -168 -266 0
-1187 -168 -270 0
-1188 297 0
-1188 322 0
-1188 -160 0
-1188 -161 0
-1188 -162 0
-1188 -165 0
-1188 -169 0
-1188 -166 325 0
-1188 -166 -173 -176 0
-1188 -166 -200 0
-1188 -166 -201 0
-1188 -166 -202 0
-1188 -166 -204 0
-1188 -166 -205 0
-1188 -166 -206 0
-1188 -166 -224 0
-1188 -166 -225 0
-1188 -166 -226 0
-1188 -166 -228 0
-1188 -166 -229 0
-1188 -166 -230 0
-1188 -166 -260 0
-1188 -166 -261 0
-1188 -166 -262 0
-1188 -166 -264 0
-1188 -166 -265 0
-1188 -166 -266 0
-1188 -166 -268 0
-1188 -166 -269 0
-1188 -166 -270 0
-1188 -167 326 0
-1188 -167 -173 -177 0
-1188 -167 -201 0
-1188 -167 -202 0
-1188 -167 -205 0
-1188 -167 -206 0
-1188 -167 -225 0
-1188 -167 -226 0
-1188 -167 -229 0
-1188 -167 -230 0
-1188 -167 -261 0
-1188 -167 -262 0
-1188 -167 -265 0
-1188 -167 -266 0
-1188 -167 -269 0
-1188 -167 -270 0
-1188 -168 327 0
-1188 -168 -173 -178 0
-1188 -168 -202 0
-1188 -168 -206 0
-1188 -168 -226 0
-1188 -168 -230 0
-1188 -168 -262 0
-1188 -168 -266 0
-1188 -168 -270 0
-1189 297 0
-1189 323 0
-1189 -160 0
-1189 -161 0
-1189 -162 0
-1189 -163 0
-1189 -169 0
-1189 -166 325 0
-1189 -166 -174 -176 0
-1189 -166 -204 0
-1189 -166 -205 0
-1189 -166 -206 0
-1189 -166 -208 0
-1189 -166 -209 0
-1189 -166 -210 0
-1189 -166 -228 0
-1189 -166 -229 0
-1189 -166 -230 0
-1189 -166 -232 0
-1189 -166 -233 0
-1189 -166 -234 0
-1189 -166 -264 0
-1189 -166 -265 0
-1189 -166 -266 0
-1189 -166 -268 0
-1189 -166 -269 0
-1189 -166 -270 0
-1189 -167 326 0
-1189 -167 -174 -177 0
-1189 -167 -205 0
-1189 -167 -206 0
-1189 -167 -209 0
-1189 -167 -210 0
-1189 -167 -229 0
-1189 -167 -230 0
-1189 -167 -233 0
-1189 -167 -234 0
-1189 -167 -265 0
-1189 -167 -266 0
-1189 -167 -269 0
-1189 -167 -270 0
-1189 -168 327 0
-1189 -168 -174 -178 0
-1189 -168 -206 0
-1189 -168 -210 0
-1189 -168 -230 0
-1189 -168 -234 0
-1189 -168 -266 0
-1189 -168 -270 0
-1190 297 0
-1190 319 0
-1190 -181 0
-1190 -182 0
-1190 -186 0
-1190 -183 325 0
-1190 -183 -170 -176 0
-1190 -183 -188 0
-1190 -183 -189 0
-1190 -183 -190 0
-1190 -183 -192 0
-1190 -183 -193 0
-1190 -183 -194 0
-1190 -183 -212 0
-1190 -183 -213 0
-1190 -183 -214 0
-1190 -183 -216 0
-1190 -183 -217 0
-1190 -183 -218 0
-1190 -183 -256 0
-1190 -183 -257 0
-1190 -183 -258 0
-1190 -183 -260 0
-1190 -183 -261 0
-1190 -183 -262 0
-1190 -184 326 0
-1190 -184 -170 -177 0
-1190 -184 -189 0
-1190 -184 -190 0
-1190 -184 -193 0
-1190 -184 -194 0
-1190 -184 -213 0
-1190 -184 -214 0
-1190 -184 -217 0
-1190 -184 -218 0
-1190 -184 -257 0
-1190 -184 -258 0
-1190 -184 -261 0
-1190 -184 -262 0
-1190 -185 327 0
-1190 -185 -170 -178 0
-1190 -185 -190 0
-1190 -185 -194 0
-1190 -185 -214 0
-1190 -185 -218 0
-1190 -185 -258 0
-1190 -185 -262 0
-1191 297 0
-1191 320 0
-1191 -182 0
-1191 -186 0
-1191 -183 325 0
-1191 -183 -171 -176 0
-1191 -183 -192 0
-1191 -183 -193 0
-1191 -183 -194 0
-1191 -183 -196 0
-1191 -183 -197 0
-1191 -183 -198 0
-1191 -183 -216 0
-1191 -183 -217 0
-1191 -183 -218 0
-1191 -183 -220 0
-1191 -183 -221 0
-1191 -183 -222 0
-1191 -183 -256 0
-1191 -183 -257 0
-1191 -183 -258 0
-1191 -183 -260 0
-1191 -183 -261 0
-1191 -183 -262 0
-1191 -183 -264 0
-1191 -183 -265 0
-1191 -183 -266 0
-1191 -184 326 0
-1191 -184 -171 -177 0
-1191 -184 -193 0
-1191 -184 -194 0
-1191 -184 -197 0
-1191 -184 -198 0
-1191 -184 -217 0
-1191 -184 -218 0
-1191 -184 -221 0
-1191 -184 -222 0
-1191 -184 -257 0
-1191 -184 -258 0
-1191 -184 -261 0
-1191 -184 -262 0
-1191 -184 -265 0
-1191 -184 -266 0
-1191 -185 327 0
-1191 -185 -171 -178 0
-1191 -185 -194 0
-1191 -185 -198 0
-1191 -185 -218 0
-1191 -185 -222 0
-1191 -185 -258 0
-1191 -185 -262 0
-1191 -185 -266 0
-1192 297 0
-1192 321 0
-1192 -186 0
-1192 -183 325 0
-1192 -183 -172 -176 0
-1192 -183 -196 0
-1192 -183 -197 0
-1192 -183 -198 0
-1192 -183 -200 0
-1192 -183 -201 0
-1192 -183 -202 0
-1192 -183 -220 0
-1192 -183 -221 0
-1192 -183 -222 0
-1192 -183 -224 0
-1192 -183 -225 0
-1192 -183 -226 0
-1192 -183 -256 0
-1192 -183 -257 0
-1192 -183 -258 0
-1192 -183 -260 0
-1192 -183 -261 0
-1192 -183 -262 0
-1192 -183 -264 0
-1192 -183 -265 0
-1192 -183 -266 0
-1192 -183 -268 0
-1192 -183 -269 0
-1192 -183 -270 0
-1192 -184 326 0
-1192 -184 -172 -177 0
-1192 -184 -197 0
-1192 -184 -198 0
-1192 -184 -201 0
-1192 -184 -202 0
-1192 -184 -221 0
-1192 -184 -222 0
-1192 -184 -225 0
-1192 -184 -226 0
-1192 -184 -257 0
-1192 -184 -258 0
-1192 -184 -261 0
-1192 -184 -262 0
-1192 -184 -265 0
-1192 -184 -266 0
-1192 -184 -269 0
-1192 -184 -270 0
-1192 -185 327 0
-1192 -185 -172 -178 0
-1192 -185 -198 0
-1192 -185 -202 0
-1192 -185 -222 0
-1192 -185 -226 0
-1192 -185 -258 0
-1192 -185 -262 0
-1192 -185 -266 0
-1192 -185 -270 0
-1193 297 0
-1193 322 0
-1193 -179 0
-1193 -186 0
-1193 -183 325 0
-1193 -183 -173 -176 0
-1193 -183 -200 0
-1193 -183 -201 0
-1193 -183 -202 0
-1193 -183 -204 0
-1193 -183 -205 0
-1193 -183 -206 0
-1193 -183 -224 0
-1193 -183 -225 0
-1193 -183 -226 0
-1193 -183 -228 0
-1193 -183 -229 0
-1193 -183 -230 0
-1193 -183 -260 0
-1193 -183 -261 0
-1193 -183 -262 0
-1193 -183 -264 0
-1193 -183 -265 0
-1193 -183 -266 0
-1193 -183 -268 0
-1193 -183 -269 0
-1193 -183 -270 0
-1193 -184 326 0
-1193 -184 -173 -177 0
-1193 -184 -201 0
-1193 -184 -202 0
-1193 -184 -205 0
-1193 -184 -206 0
-1193 -184 -225 0
-1193 -184 -226 0
-1193 -184 -229 0
-1193 -184 -230 0
-1193 -184 -261 0
-1193 -184 -262 0
-1193 -184 -265 0
-1193 -184 -266 0
-1193 -184 -269 0
-1193 -184 -270 0
-1193 -185 327 0
-1193 -185 -173 -178 0
-1193 -185 -202 0
-1193 -185 -206 0
-1193 -185 -226 0
-1193 -185 -230 0
-1193 -185 -262 0
-1193 -185 -266 0
-1193 -185 -270 0
-1194 297 0
-1194 323 0
-1194 -179 0
-1194 -180 0
-1194 -186 0
-1194 -183 325 0
-1194 -183 -174 -176 0
-1194 -183 -204 0
-1194 -183 -205 0
-1194 -183 -206 0
-1194 -183 -208 0
-1194 -183 -209 0
-1194 -183 -210 0
-1194 -183 -228 0
-1194 -183 -229 0
-1194 -183 -230 0
-1194 -183 -232 0
-1194 -183 -233 0
-1194 -183 -234 0
-1194 -183 -264 0
-1194 -183 -265 0
-1194 -183 -266 0
-1194 -183 -268 0
-1194 -183 -269 0
-1194 -183 -270 0
-1194 -184 326 0
-1194 -184 -174 -177 0
-1194 -184 -205 0
-1194 -184 -206 0
-1194 -184 -209 0
-1194 -184 -210 0
-1194 -184 -229 0
-1194 -184 -230 0
-1194 -184 -233 0
-1194 -184 -234 0
-1194 -184 -265 0
-1194 -184 -266 0
-1194 -184 -269 0
-1194 -184 -270 0
-1194 -185 327 0
-1194 -185 -174 -178 0
-1194 -185 -206 0
-1194 -185 -210 0
-1194 -185 -230 0
-1194 -185 -234 0
-1194 -185 -266 0
-1194 -185 -270 0
-1195 297 0
-1195 319 0
-1195 324 0
-1195 -170 -175 0
-1195 -187 0
-1195 -188 0
-1195 -189 0
-1195 -190 0
-1195 -191 0
-1195 -192 0
-1195 -193 0
-1195 -194 0
-1195 -211 0
-1195 -212 0
-1195 -213 0
-1195 -214 0
-1195 -215 0
-1195 -216 0
-1195 -217 0
-1195 -218 0
-1195 -255 0
-1195 -256 0
-1195 -257 0
-1195 -258 0
-1195 -259 0
-1195 -260 0
-1195 -261 0
-1195 -262 0
-1196 297 0
-1196 320 0
-1196 324 0
-1196 -171 -175 0
-1196 -191 0
-1196 -192 0
-1196 -193 0
-1196 -194 0
-1196 -195 0
-1196 -196 0
-1196 -197 0
-1196 -198 0
-1196 -215 0
-1196 -216 0
-1196 -217 0
-1196 -218 0
-1196 -219 0
-1196 -220 0
-1196 -221 0
-1196 -222 0
-1196 -255 0
-1196 -256 0
-1196 -257 0
-1196 -258 0
-1196 -259 0
-1196 -260 0
-1196 -261 0
-1196 -262 0
-1196 -263 0
-1196 -264 0
-1196 -265 0
-1196 -266 0
-1197 297 0
-1197 321 0
-1197 324 0
-1197 -172 -175 0
-1197 -195 0
-1197 -196 0
-1197 -197 0
-1197 -198 0
-1197 -199 0
-1197 -200 0
-1197 -201 0
-1197 -202 0
-1197 -219 0
-1197 -220 0
-1197 -221 0
-1197 -222 0
-1197 -223 0
-1197 -224 0
-1197 -225 0
-1197 -226 0
-1197 -255 0
-1197 -256 0
-1197 -257 0
-1197 -258 0
-1197 -259 0
-1197 -260 0
-1197 -261 0
-1197 -262 0
-1197 -263 0
-1197 -264 0
-1197 -265 0
-1197 -266 0
-1197 -267 0
-1197 -268 0
-1197 -269 0
-1197 -270 0
-1198 297 0
-1198 322 0
-1198 324 0
-1198 -173 -175 0
-1198 -199 0
-1198 -200 0
-1198 -201 0
-1198 -202 0
-1198 -203 0
-1198 -204 0
-1198 -205 0
-1198 -206 0
-1198 -223 0
-1198 -224 0
-1198 -225 0
-1198 -226 0
-1198 -227 0
-1198 -228 0
-1198 -229 0
-1198 -230 0
-1198 -259 0
-1198 -260 0
-1198 -261 0
-1198 -262 0
-1198 -263 0
-1198 -264 0
-1198 -265 0
-1198 -266 0
-1198 -267 0
-1198 -268 0
-1198 -269 0
-1198 -270 0
-1199 297 0
-1199 323 0
-1199 324 0
-1199 -174 -175 0
-1199 -203 0
-1199 -204 0
-1199 -205 0
-1199 -206 0
-1199 -207 0
-1199 -208 0
-1199 -209 0
-1199 -210 0
-1199 -227 0
-1199 -228 0
-1199 -229 0
-1199 -230 0
-1199 -231 0
-1199 -232 0
-1199 -233 0
-1199 -234 0
-1199 -263 0
-1199 -264 0
-1199 -265 0
-1199 -266 0
-1199 -267 0
-1199 -268 0
-1199 -269 0
-1199 -270 0
-1200 298 0
-1200 328 0
-1200 -153 0
-1200 -154 0
-1200 -155 0
-1200 -159 0
-1200 -156 333 0
-1200 -156 -179 -184 0
-1200 -156 -188 0
-1200 -156 -189 0
-1200 -156 -190 0
-1200 -156 -192 0
-1200 -156 -193 0
-1200 -156 -194 0
-1200 -156 -196 0
-1200 -156 -197 0
-1200 -156 -198 0
-1200 -156 -212 0
-1200 -156 -213 0
-1200 -156 -214 0
-1200 -156 -216 0
-1200 -156 -217 0
-1200 -156 -218 0
-1200 -156 -220 0
-1200 -156 -221 0
-1200 -156 -222 0
-1200 -156 -236 0
-1200 -156 -237 0
-1200 -156 -238 0
-1200 -156 -240 0
-1200 -156 -241 0
-1200 -156 -242 0
-1200 -156 -244 0
-1200 -156 -245 0
-1200 -156 -246 0
-1200 -157 334 0
-1200 -157 -179 -185 0
-1200 -157 -189 0
-1200 -157 -190 0
-1200 -157 -193 0
-1200 -157 -194 0
-1200 -157 -197 0
-1200 -157 -198 0
-1200 -157 -213 0
-1200 -157 -214 0
-1200 -157 -217 0
-1200 -157 -218 0
-1200 -157 -221 0
-1200 -157 -222 0
-1200 -157 -237 0
-1200 -157 -238 0
-1200 -157 -241 0
-1200 -157 -242 0
-1200 -157 -245 0
-1200 -157 -246 0
-1200 -158 335 0
-1200 -158 -179 -186 0
-1200 -158 -190 0
-1200 -158 -194 0
-1200 -158 -198 0
-1200 -158 -214 0
-1200 -158 -218 0
-1200 -158 -222 0
-1200 -158 -238 0
-1200 -158 -242 0
-1200 -158 -246 0
-1201 298 0
-1201 329 0
-1201 -150 0
-1201 -154 0
-1201 -155 0
-1201 -159 0
-1201 -156 333 0
-1201 -156 -180 -184 0
-1201 -156 -192 0
-1201 -156 -193 0
-1201 -156 -194 0
-1201 -156 -196 0
-1201 -156 -197 0
-1201 -156 -198 0
-1201 -156 -200 0
-1201 -156 -201 0
-1201 -156 -202 0
-1201 -156 -216 0
-1201 -156 -217 0
-1201 -156 -218 0
-1201 -156 -220 0
-1201 -156 -221 0
-1201 -156 -222 0
-1201 -156 -224 0
-1201 -156 -225 0
-1201 -156 -226 0
-1201 -156 -236 0
-1201 -156 -237 0
-1201 -156 -238 0
-1201 -156 -240 0
-1201 -156 -241 0
-1201 -156 -242 0
-1201 -156 -244 0
-1201 -156 -245 0
-1201 -156 -246 0
-1201 -156 -248 0
-1201 -156 -249 0
-1201 -156 -250 0
-1201 -157 334 0
-1201 -157 -180 -185 0
-1201 -157 -193 0
-1201 -157 -194 0
-1201 -157 -197 0
-1201 -157 -198 0
-1201 -157 -201 0
-1201 -157 -202 0
-1201 -157 -217 0
-1201 -157 -218 0
-1201 -157 -221 0
-1201 -157 -222 0
-1201 -157 -225 0
-1201 -157 -226 0
-1201 -157 -237 0
-1201 -157 -238 0
-1201 -157 -241 0
-1201 -157 -242 0
-1201 -157 -245 0
-1201 -157 -246 0
-1201 -157 -249 0
-1201 -157 -250 0
-1201 -158 335 0
-1201 -158 -180 -186 0
-1201 -158 -194 0
-1201 -158 -198 0
-1201 -158 -202 0
-1201 -158 -218 0
-1201 -158 -222 0
-1201 -158 -226 0
-1201 -158 -238 0
-1201 -158 -242 0
-1201 -158 -246 0
-1201 -158 -250 0
-1202 298 0
-1202 330 0
-1202 -150 0
-1202 -151 0
-1202 -155 0
-1202 -159 0
-1202 -156 333 0
-1202 -156 -181 -184 0
-1202 -156 -196 0
-1202 -156 -197 0
-1202 -156 -198 0
-1202 -156 -200 0
-1202 -156 -201 0
-1202 -156 -202 0
-1202 -156 -204 0
-1202 -156 -205 0
-1202 -156 -206 0
-1202 -156 -220 0
-1202 -156 -221 0
-1202 -156 -222 0
-1202 -156 -224 0
-1202 -156 -225 0
-1202 -156 -226 0
-1202 -156 -228 0
-1202 -156 -229 0
-1202 -156 -230 0
-1202 -156 -240 0
-1202 -156 -241 0
-1202 -156 -242 0
-1202 -156 -244 0
-1202 -156 -245 0
-1202 -156 -246 0
-1202 -156 -248 0
-1202 -156 -249 0
-1202 -156 -250 0
-1202 -156 -252 0
-1202 -156 -253 0
-1202 -156 -254 0
-1202 -157 334 0
-1202 -157 -181 -185 0
-1202 -157 -197 0
-1202 -157 -198 0
-1202 -157 -201 0
-1202 -157 -202 0
-1202 -157 -205 0
-1202 -157 -206 0
-1202 -157 -221 0
-1202 -157 -222 0
-1202 -157 -225 0
-1202 -157 -226 0
-1202 -157 -229 0
-1202 -157 -230 0
-1202 -157 -241 0
-1202 -157 -242 0
-1202 -157 -245 0
-1202 -157 -246 0
-1202 -157 -249 0
-1202 -157 -250 0
-1202 -157 -253 0
-1202 -157 -254 0
-1202 -158 335 0
-1202 -158 -181 -186 0
-1202 -158 -198 0
-1202 -158 -202 0
-1202 -158 -206 0
-1202 -158 -222 0
-1202 -158 -226 0
-1202 -158 -230 0
-1202 -158 -242 0
-1202 -158 -246 0
-1202 -158 -250 0
-1202 -158 -254 0
-1203 298 0
-1203 331 0
-1203 -150 0
-1203 -151 0
-1203 -152 0
-1203 -159 0
-1203 -156 333 0
-1203 -156 -182 -184 0
-1203 -156 -200 0
-1203 -156 -201 0
-1203 -156 -202 0
-1203 -156 -204 0
-1203 -156 -205 0
-1203 -156 -206 0
-1203 -156 -208 0
-1203 -156 -209 0
-1203 -156 -210 0
-1203 -156 -224 0
-1203 -156 -225 0
-1203 -156 -226 0
-1203 -156 -228 0
-1203 -156 -229 0
-1203 -156 -230 0
-1203 -156 -232 0
-1203 -156 -233 0
-1203 -156 -234 0
-1203 -156 -244 0
-1203 -156 -245 0
-1203 -156 -246 0
-1203 -156 -248 0
-1203 -156 -249 0
-1203 -156 -250 0
-1203 -156 -252 0
-1203 -156 -253 0
-1203 -156 -254 0
-1203 -157 334 0
-1203 -157 -182 -185 0
-1203 -157 -201 0
-1203 -157 -202 0
-1203 -157 -205 0
-1203 -157 -206 0
-1203 -157 -209 0
-1203 -157 -210 0
-1203 -157 -225 0
-1203 -157 -226 0
-1203 -157 -229 0
-1203 -157 -230 0
-1203 -157 -233 0
-1203 -157 -234 0
-1203 -157 -245 0
-1203 -157 -246 0
-1203 -157 -249 0
-1203 -157 -250 0
-1203 -157 -253 0
-1203 -157 -254 0
-1203 -158 335 0
-1203 -158 -182 -186 0
-1203 -158 -202 0
-1203 -158 -206 0
-1203 -158 -210 0
-1203 -158 -226 0
-1203 -158 -230 0
-1203 -158 -234 0
-1203 -158 -246 0
-1203 -158 -250 0
-1203 -158 -254 0
-1204 298 0
-1204 328 0
-1204 -163 0
-1204 -164 0
-1204 -165 0
-1204 -169 0
-1204 -166 333 0
-1204 -166 -179 -184 0
-1204 -166 -188 0
-1204 -166 -189 0
-1204 -166 -190 0
-1204 -166 -192 0
-1204 -166 -193 0
-1204 -166 -194 0
-1204 -166 -196 0
-1204 -166 -197 0
-1204 -166 -198 0
-1204 -166 -212 0
-1204 -166 -213 0
-1204 -166 -214 0
-1204 -166 -216 0
-1204 -166 -217 0
-1204 -166 -218 0
-1204 -166 -220 0
-1204 -166 -221 0
-1204 -166 -222 0
-1204 -166 -236 0
-1204 -166 -237 0
-1204 -166 -238 0
-1204 -166 -240 0
-1204 -166 -241 0
-1204 -166 -242 0
-1204 -166 -244 0
-1204 -166 -245 0
-1204 -166 -246 0
-1204 -167 334 0
-1204 -167 -179 -185 0
-1204 -167 -189 0
-1204 -167 -190 0
-1204 -167 -193 0
-1204 -167 -194 0
-1204 -167 -197 0
-1204 -167 -198 0
-1204 -167 -213 0
-1204 -167 -214 0
-1204 -167 -217 0
-1204 -167 -218 0
-1204 -167 -221 0
-1204 -167 -222 0
-1204 -167 -237 0
-1204 -167 -238 0
-1204 -167 -241 0
-1204 -167 -242 0
-1204 -167 -245 0
-1204 -167 -246 0
-1204 -168 335 0
-1204 -168 -179 -186 0
-1204 -168 -190 0
-1204 -168 -194 0
-1204 -168 -198 0
-1204 -168 -214 0
-1204 -168 -218 0
-1204 -168 -222 0
-1204 -168 -238 0
-1204 -168 -242 0
-1204 -168 -246 0
-1205 298 0
-1205 329 0
-1205 -160 0
-1205 -164 0
-1205 -165 0
-1205 -169 0
-1205 -166 333 0
-1205 -166 -180 -184 0
-1205 -166 -192 0
-1205 -166 -193 0
-1205 -166 -194 0
-1205 -166 -196 0
-1205 -166 -197 0
-1205 -166 -198 0
-1205 -166 -200 0
-1205 -166 -201 0
-1205 -166 -202 0
-1205 -166 -216 0
-1205 -166 -217 0
-1205 -166 -218 0
-1205 -166 -220 0
-1205 -166 -221 0
-1205 -166 -222 0
-1205 -166 -224 0
-1205 -166 -225 0
-1205 -166 -226 0
-1205 -166 -236 0
-1205 -166 -237 0
-1205 -166 -238 0
-1205 -166 -240 0
-1205 -166 -241 0
-1205 -166 -242 0
-1205 -166 -244 0
-1205 -166 -245 0
-1205 -166 -246 0
-1205 -166 -248 0
-1205 -166 -249 0
-1205 -166 -250 0
-1205 -167 334 0
-1205 -167 -180 -185 0
-1205 -167 -193 0
-1205 -167 -194 0
-1205 -167 -197 0
-1205 -167 -198 0
-1205 -167 -201 0
-1205 -167 -202 0
-1205 -167 -217 0
-1205 -167 -218 0
-1205 -167 -221 0
-1205 -167 -222 0
-1205 -167 -225 0
-1205 -167 -226 0
-1205 -167 -237 0
-1205 -167 -238 0
-1205 -167 -241 0
-1205 -167 -242 0
-1205 -167 -245 0
-1205 -167 -246 0
-1205 -167 -249 0
-1205 -167 -250 0
-1205 -168 335 0
-1205 -168 -180 -186 0
-1205 -168 -194 0
-1205 -168 -198 0
-1205 -168 -202 0
-1205 -168 -218 0
-1205 -168 -222 0
-1205 -168 -226 0
-1205 -168 -238 0
-1205 -168 -242 0
-1205 -168 -246 0
-1205 -168 -250 0
-1206 298 0
-1206 330 0
-1206 -160 0
-1206 -161 0
-1206 -165 0
-1206 -169 0
-1206 -166 333 0
-1206 -166 -181 -184 0
-1206 -166 -196 0
-1206 -166 -197 0
-1206 -166 -198 0
-1206 -166 -200 0
-1206 -166 -201 0
-1206 -166 -202 0
-1206 -166 -204 0
-1206 -166 -205 0
-1206 -166 -206 0
-1206 -166 -220 0
-1206 -166 -221 0
-1206 -166 -222 0
-1206 -166 -224 0
-1206 -166 -225 0
-1206 -166 -226 0
-1206 -166 -228 0
-1206 -166 -229 0
-1206 -166 -230 0
-1206 -166 -240 0
-1206 -166 -241 0
-1206 -166 -242 0
-1206 -166 -244 0
-1206 -166 -245 0
-1206 -166 -246 0
-1206 -166 -248 0
-1206 -166 -249 0
-1206 -166 -250 0
-1206 -166 -252 0
-1206 -166 -253 0
-1206 -166 -254 0
-1206 -167 334 0
-1206 -167 -181 -185 0
-1206 -167 -197 0
-1206 -167 -198 0
-1206 -167 -201 0
-1206 -167 -202 0
-1206 -167 -205 0
-1206 -167 -206 0
-1206 -167 -221 0
-1206 -167 -222 0
-1206 -167 -225 0
-1206 -167 -226 0
-1206 -167 -229 0
-1206 -167 -230 0
-1206 -167 -241 0
-1206 -167 -242 0
-1206 -167 -245 0
-1206 -167 -246 0
-1206 -167 -249 0
-1206 -167 -250 0
-1206 -167 -253 0
-1206 -167 -254 0
-1206 -168 335 0
-1206 -168 -181 -186 0
-1206 -168 -198 0
-1206 -168 -202 0
-1206 -168 -206 0
-1206 -168 -222 0
-1206 -168 -226 0
-1206 -168 -230 0
-1206 -168 -242 0
-1206 -168 -246 0
-1206 -168 -250 0
-1206 -168 -254 0
-1207 298 0
-1207 331 0
-1207 -160 0
-1207 -161 0
-1207 -162 0
-1207 -169 0
-1207 -166 333 0
-1207 -166 -182 -184 0
-1207 -166 -200 0
-1207 -166 -201 0
-1207 -166 -202 0
-1207 -166 -204 0
-1207 -166 -205 0
-1207 -166 -206 0
-1207 -166 -208 0
-1207 -166 -209 0
-1207 -166 -210 0
-1207 -166 -224 0
-1207 -166 -225 0
-1207 -166 -226 0
-1207 -166 -228 0
-1207 -166 -229 0
-1207 -166 -230 0
-1207 -166 -232 0
-1207 -166 -233 0
-1207 -166 -234 0
-1207 -166 -244 0
-1207 -166 -245 0
-1207 -166 -246 0
-1207 -166 -248 0
-1207 -166 -249 0
-1207 -166 -250 0
-1207 -166 -252 0
-1207 -166 -253 0
-1207 -166 -254 0
-1207 -167 334 0
-1207 -167 -182 -185 0
-1207 -167 -201 0
-1207 -167 -202 0
-1207 -167 -205 0
-1207 -167 -206 0
-1207 -167 -209 0
-1207 -167 -210 0
-1207 -167 -225 0
-1207 -167 -226 0
-1207 -167 -229 0
-1207 -167 -230 0
-1207 -167 -233 0
-1207 -167 -234 0
-1207 -167 -245 0
-1207 -167 -246 0
-1207 -167 -249 0
-1207 -167 -250 0
-1207 -167 -253 0
-1207 -167 -254 0
-1207 -168 335 0
-1207 -168 -182 -186 0
-1207 -168 -202 0
-1207 -168 -206 0
-1207 -168 -210 0
-1207 -168 -226 0
-1207 -168 -230 0
-1207 -168 -234 0
-1207 -168 -246 0
-1207 -168 -250 0
-1207 -168 -254 0
-1208 298 0
-1208 328 0
-1208 -173 0
-1208 -174 0
-1208 -178 0
-1208 -175 333 0
-1208 -175 -179 -184 0
-1208 -175 -188 0
-1208 -175 -189 0
-1208 -175 -190 0
-1208 -175 -192 0
-1208 -175 -193 0
-1208 -175 -194 0
-1208 -175 -196 0
-1208 -175 -197 0
-1208 -175 -198 0
-1208 -175 -212 0
-1208 -175 -213 0
-1208 -175 -214 0
-1208 -175 -216 0
-1208 -175 -217 0
-1208 -175 -218 0
-1208 -175 -220 0
-1208 -175 -221 0
-1208 -175 -222 0
-1208 -175 -236 0
-1208 -175 -237 0
-1208 -175 -238 0
-1208 -175 -240 0
-1208 -175 -241 0
-1208 -175 -242 0
-1208 -175 -244 0
-1208 -175 -245 0
-1208 -175 -246 0
-1208 -176 334 0
-1208 -176 -179 -185 0
-1208 -176 -189 0
-1208 -176 -190 0
-1208 -176 -193 0
-1208 -176 -194 0
-1208 -176 -197 0
-1208 -176 -198 0
-1208 -176 -213 0
-1208 -176 -214 0
-1208 -176 -217 0
-1208 -176 -218 0
-1208 -176 -221 0
-1208 -176 -222 0
-1208 -176 -237 0
-1208 -176 -238 0
-1208 -176 -241 0
-1208 -176 -242 0
-1208 -176 -245 0
-1208 -176 -246 0
-1208 -177 335 0
-1208 -177 -179 -186 0
-1208 -177 -190 0
-1208 -177 -194 0
-1208 -177 -198 0
-1208 -177 -214 0
-1208 -177 -218 0
-1208 -177 -222 0
-1208 -177 -238 0
-1208 -177 -242 0
-1208 -177 -246 0
-1209 298 0
-1209 329 0
-1209 -174 0
-1209 -178 0
-1209 -175 333 0
-1209 -175 -180 -184 0
-1209 -175 -192 0
-1209 -175 -193 0
-1209 -175 -194 0
-1209 -175 -196 0
-1209 -175 -197 0
-1209 -175 -198 0
-1209 -175 -200 0
-1209 -175 -201 0
-1209 -175 -202 0
-1209 -175 -216 0
-1209 -175 -217 0
-1209 -175 -218 0
-1209 -175 -220 0
-1209 -175 -221 0
-1209 -175 -222 0
-1209 -175 -224 0
-1209 -175 -225 0
-1209 -175 -226 0
-1209 -175 -236 0
-1209 -175 -237 0
-1209 -175 -238 0
-1209 -175 -240 0
-1209 -175 -241 0
-1209 -175 -242 0
-1209 -175 -244 0
-1209 -175 -245 0
-1209 -175 -246 0
-1209 -175 -248 0
-1209 -175 -249 0
-1209 -175 -250 0
-1209 -176 334 0
-1209 -176 -180 -185 0
-1209 -176 -193 0
-1209 -176 -194 0
-1209 -176 -197 0
-1209 -176 -198 0
-1209 -176 -201 0
-1209 -176 -202 0
-1209 -176 -217 0
-1209 -176 -218 0
-1209 -176 -221 0
-1209 -176 -222 0
-1209 -176 -225 0
-1209 -176 -226 0
-1209 -176 -237 0
-1209 -176 -238 0
-1209 -176 -241 0
-1209 -176 -242 0
-1209 -176 -245 0
-1209 -176 -246 0
-1209 -176 -249 0
-1209 -176 -250 0
-1209 -177 335 0
-1209 -177 -180 -186 0
-1209 -177 -194 0
-1209 -177 -198 0
-1209 -177 -202 0
-1209 -177 -218 0
-1209 -177 -222 0
-1209 -177 -226 0
-1209 -177 -238 0
-1209 -177 -242 0
-1209 -177 -246 0
-1209 -177 -250 0
-1210 298 0
-1210 330 0
-1210 -170 0
-1210 -178 0
-1210 -175 333 0
-1210 -175 -181 -184 0
-1210 -175 -196 0
-1210 -175 -197 0
-1210 -175 -198 0
-1210 -175 -200 0
-1210 -175 -201 0
-1210 -175 -202 0
-1210 -175 -204 0
-1210 -175 -205 0
-1210 -175 -206 0
-1210 -175 -220 0
-1210 -175 -221 0
-1210 -175 -222 0
-1210 -175 -224 0
-1210 -175 -225 0
-1210 -175 -226 0
-1210 -175 -228 0
-1210 -175 -229 0
-1210 -175 -230 0
-1210 -175 -240 0
-1210 -175 -241 0
-1210 -175 -242 0
-1210 -175 -244 0
-1210 -175 -245 0
-1210 -175 -246 0
-1210 -175 -248 0
-1210 -175 -249 0
-1210 -175 -250 0
-1210 -175 -252 0
-1210 -175 -253 0
-1210 -175 -254 0
-1210 -176 334 0
-1210 -176 -181 -185 0
-1210 -176 -197 0
-1210 -176 -198 0
-1210 -176 -201 0
-1210 -176 -202 0
-1210 -176 -205 0
-1210 -176 -206 0
-1210 -176 -221 0
-1210 -176 -222 0
-1210 -176 -225 0
-1210 -176 -226 0
-1210 -176 -229 0
-1210 -176 -230 0
-1210 -176 -241 0
-1210 -176 -242 0
-1210 -176 -245 0
-1210 -176 -246 0
-1210 -176 -249 0
-1210 -176 -250 0
-1210 -176 -253 0
-1210 -176 -254 0
-1210 -177 335 0
-1210 -177 -181 -186 0
-1210 -177 -198 0
-1210 -177 -202 0
-1210 -177 -206 0
-1210 -177 -222 0
-1210 -177 -226 0
-1210 -177 -230 0
-1210 -177 -242 0
-1210 -177 -246 0
-1210 -177 -250 0
-1210 -177 -254 0
-1211 298 0
-1211 331 0
-1211 -170 0
-1211 -171 0
-1211 -178 0
-1211 -175 333 0
-1211 -175 -182 -184 0
-1211 -175 -200 0
-1211 -175 -201 0
-1211 -175 -202 0
-1211 -175 -204 0
-1211 -175 -205 0
-1211 -175 -206 0
-1211 -175 -208 0
-1211 -175 -209 0
-1211 -175 -210 0
-1211 -175 -224 0
-1211 -175 -225 0
-1211 -175 -226 0
-1211 -175 -228 0
-1211 -175 -229 0
-1211 -175 -230 0
-1211 -175 -232 0
-1211 -175 -233 0
-1211 -175 -234 0
-1211 -175 -244 0
-1211 -175 -245 0
-1211 -175 -246 0
-1211 -175 -248 0
-1211 -175 -249 0
-1211 -175 -250 0
-1211 -175 -252 0
-1211 -175 -253 0
-1211 -175 -254 0
-1211 -176 334 0
-1211 -176 -182 -185 0
-1211 -176 -201 0
-1211 -176 -202 0
-1211 -176 -205 0
-1211 -176 -206 0
-1211 -176 -209 0
-1211 -176 -210 0
-1211 -176 -225 0
-1211 -176 -226 0
-1211 -176 -229 0
-1211 -176 -230 0
-1211 -176 -233 0
-1211 -176 -234 0
-1211 -176 -245 0
-1211 -176 -246 0
-1211 -176 -249 0
-1211 -176 -250 0
-1211 -176 -253 0
-1211 -176 -254 0
-1211 -177 335 0
-1211 -177 -182 -186 0
-1211 -177 -202 0
-1211 -177 -206 0
-1211 -177 -210 0
-1211 -177 -226 0
-1211 -177 -230 0
-1211 -177 -234 0
-1211 -177 -246 0
-1211 -177 -250 0
-1211 -177 -254 0
-1212 298 0
-1212 328 0
-1212 332 0
-1212 -179 -183 0
-1212 -187 0
-1212 -188 0
-1212 -189 0
-1212 -190 0
-1212 -191 0
-1212 -192 0
-1212 -193 0
-1212 -194 0
-1212 -195 0
-1212 -196 0
-1212 -197 0
-1212 -198 0
-1212 -211 0
-1212 -212 0
-1212 -213 0
-1212 -214 0
-1212 -215 0
-1212 -216 0
-1212 -217 0
-1212 -218 0
-1212 -219 0
-1212 -220 0
-1212 -221 0
-1212 -222 0
-1212 -235 0
-1212 -236 0
-1212 -237 0
-1212 -238 0
-1212 -239 0
-1212 -240 0
-1212 -241 0
-1212 -242 0
-1212 -243 0
-1212 -244 0
-1212 -245 0
-1212 -246 0
-1213 298 0
-1213 329 0
-1213 332 0
-1213 -180 -183 0
-1213 -191 0
-1213 -192 0
-1213 -193 0
-1213 -194 0
-1213 -195 0
-1213 -196 0
-1213 -197 0
-1213 -198 0
-1213 -199 0
-1213 -200 0
-1213 -201 0
-1213 -202 0
-1213 -215 0
-1213 -216 0
-1213 -217 0
-1213 -218 0
-1213 -219 0
-1213 -220 0
-1213 -221 0
-1213 -222 0
-1213 -223 0
-1213 -224 0
-1213 -225 0
-1213 -226 0
-1213 -235 0
-1213 -236 0
-1213 -237 0
-1213 -238 0
-1213 -239 0
-1213 -240 0
-1213 -241 0
-1213 -242 0
-1213 -243 0
-1213 -244 0
-1213 -245 0
-1213 -246 0
-1213 -247 0
-1213 -248 0
-1213 -249 0
-1213 -250 0
-1214 298 0
-1214 330 0
-1214 332 0
-1214 -181 -183 0
-1214 -195 0
-1214 -196 0
-1214 -197 0
-1214 -198 0
-1214 -199 0
-1214 -200 0
-1214 -201 0
-1214 -202 0
-1214 -203 0
-1214 -204 0
-1214 -205 0
-1214 -206 0
-1214 -219 0
-1214 -220 0
-1214 -221 0
-1214 -222 0
-1214 -223 0
-1214 -224 0
-1214 -225 0
-1214 -226 0
-1214 -227 0
-1214 -228 0
-1214 -229 0
-1214 -230 0
-1214 -239 0
-1214 -240 0
-1214 -241 0
-1214 -242 0
-1214 -243 0
-1214 -244 0
-1214 -245 0
-1214 -246 0
-1214 -247 0
-1214 -248 0
-1214 -249 0
-1214 -250 0
-1214 -251 0
-1214 -252 0
-1214 -253 0
-1214 -254 0
-1215 298 0
-1215 331 0
-1215 332 0
-1215 -182 -183 0
-1215 -199 0
-1215 -200 0
-1215 -201 0
-1215 -202 0
-1215 -203 0
-1215 -204 0
-1215 -205 0
-1215 -206 0
-1215 -207 0
-1215 -208 0
-1215 -209 0
-1215 -210 0
-1215 -223 0
-1215 -224 0
-1215 -225 0
-1215 -226 0
-1215 -227 0
-1215 -228 0
-1215 -229 0
-1215 -230 0
-1215 -231 0
-1215 -232 0
-1215 -233 0
-1215 -234 0
-1215 -243 0
-1215 -244 0
-1215 -245 0
-1215 -246 0
-1215 -247 0
-1215 -248 0
-1215 -249 0
-1215 -250 0
-1215 -251 0
-1215 -252 0
-1215 -253 0
-1215 -254 0
1220 1221 1222 1223 1224 1225 1226 1227 1228 1229 1230 1231 1232 1233 1234 1235 1236 1237 1238 1239 1240 1241 1242 1243 1244 1245 1246 1247 1248 1249 1250 1251 1252 1253 1254 1255 1256 1257 1258 1259 1260 1261 1262 1263 1264 1265 1266 1267 1268 1269 1270 1271 1272 1273 1274 1275 1276 1277 1278 1279 1280 1281 1282 1283 1284 1285 1286 1287 1288 1289 1290 1291 1292 1293 1294 1295 1296 1297 1298 1299 1300 1301 1302 1303 0
-1220 -1221 0
-1220 -1222 0
-1220 -1223 0
-1220 -1224 0
-1220 -1225 0
-1220 -1226 0
-1220 -1227 0
-1220 -1228 0
-1220 -1229 0
-1220 -1230 0
-1220 -1231 0
-1220 -1232 0
-1220 -1233 0
-1220 -1234 0
-1220 -1235 0
-1220 -1236 0
-1220 -1237 0
-1220 -1238 0
-1220 -1239 0
-1220 -1240 0
-1220 -1241 0
-1220 -1242 0
-1220 -1243 0
-1220 -1244 0
-1220 -1245 0
-1220 -1246 0
-1220 -1247 0
-1220 -1248 0
-1220 -1249 0
-1220 -1250 0
-1220 -1251 0
-1220 -1252 0
-1220 -1253 0
-1220 -1254 0
-1220 -1255 0
-1220 -1256 0
-1220 -1257 0
-1220 -1258 0
-1220 -1259 0
-1220 -1260 0
-1220 -1261 0
-1220 -1262 0
-1220 -1263 0
-1220 -1264 0
-1220 -1265 0
-1220 -1266 0
-1220 -1267 0
-1220 -1268 0
-1220 -1269 0
-1220 -1270 0
-1220 -1271 0
-1220 -1272 0
-1220 -1273 0
-1220 -1274 0
-1220 -1275 0
-1220 -1276 0
-1220 -1277 0
-1220 -1278 0
-1220 -1279 0
-1220 -1280 0
-1220 -1281 0
-1220 -1282 0
-1220 -1283 0
-1220 -1284 0
-1220 -1285 0
-1220 -1286 0
-1220 -1287 0
-1220 -1288 0
-1220 -1289 0
-1220 -1290 0
-1220 -1291 0
-1220 -1292 0
-1220 -1293 0
-1220 -1294 0
-1220 -1295 0
-1220 -1296 0
-1220 -1297 0
-1220 -1298 0
-1220 -1299 0
-1220 -1300 0
-1220 -1301 0
-1220 -1302 0
-1220 -1303 0
-1221 -1222 0
-1221 -1223 0
-1221 -1224 0
-1221 -1225 0
-1221 -1226 0
-1221 -1227 0
-1221 -1228 0
-1221 -1229 0
-1221 -1230 0
-1221 -1231 0
-1221 -1232 0
-1221 -1233 0
-1221 -1234 0
-1221 -1235 0
-1221 -1236 0
-1221 -1237 0
-1221 -1238 0
-1221 -1239 0
-1221 -1240 0
-1221 -1241 0
-1221 -1242 0
-1221 -1243 0
-1221 -1244 0
-1221 -1245 0
-1221 -1246 0
-1221 -1247 0
-1221 -1248 0
-1221 -1249 0
-1221 -1250 0
-1221 -1251 0
-1221 -1252 0
-1221 -1253 0
-1221 -1254 0
-1221 -1255 0
-1221 -1256 0
-1221 -1257 0
-1221 -1258 0
-1221 -1259 0
-1221 -1260 0
-1221 -1261 0
-1221 -1262 0
-1221 -1263 0
-1221 -1264 0
-1221 -1265 0
-1221 -1266 0
-1221 -1267 0
-1221 -1268 0
-1221 -1269 0
-1221 -1270 0
-1221 -1271 0
-1221 -1272 0
-1221 -1273 0
-1221 -1274 0
-1221 -1275 0
-1221 -1276 0
-1221 -1277 0
-1221 -1278 0
-1221 -1279 0
-1221 -1280 0
-1221 -1281 0
-1221 -1282 0
-1221 -1283 0
-1221 -1284 0
-1221 -1285 0
-1221 -1286 0
-1221 -1287 0
-1221 -1288 0
-1221 -1289 0
-1221 -1290 0
-1221 -1291 0
-1221 -1292 0
-1221 -1293 0
-1221 -1294 0
-1221 -1295 0
-1221 -1296 0
-1221 -1297 0
-1221 -1298 0
-1221 -1299 0
-1221 -1300 0
-1221 -1301 0
-1221 -1302 0
-1221 -1303 0
-1222 -1223 0
-1222 -1224 0
-1222 -1225 0
-1222 -1226 0
-1222 -1227 0
-1222 -1228 0
-1222 -1229 0
-1222 -1230 0
-1222 -1231 0
-1222 -1232 0
-1222 -1233 0
-1222 -1234 0
-1222 -1235 0
-1222 -1236 0
-1222 -1237 0
-1222 -1238 0
-1222 -1239 0
-1222 -1240 0
-1222 -1241 0
-1222 -1242 0
-1222 -1243 0
-1222 -1244 0
-1222 -1245 0
-1222 -1246 0
-1222 -1247 0
-1222 -1248 0
-1222 -1249 0
-1222 -1250 0
-1222 -1251 0
-1222 -1252 0
-1222 -1253 0
-1222 -1254 0
-1222 -1255 0
-1222 -1256 0
-1222 -1257 0
-1222 -1258 0
-1222 -1259 0
-1222 -1260 0
-1222 -1261 0
-1222 -1262 0
-1222 -1263 0
-1222 -1264 0
-1222 -1265 0
-1222 -1266 0
-1222 -1267 0
-1222 -1268 0
-1222 -1269 0
-1222 -1270 0
-1222 -1271 0
-1222 -1272 0
-1222 -1273 0
-1222 -1274 0
-1222 -1275 0
-1222 -1276 0
-1222 -1277 0
-1222 -1278 0
-1222 -1279 0
-1222 -1280 0
-1222 -1281 0
-1222 -1282 0
-1222 -1283 0
-1222 -1284 0
-1222 -1285 0
-1222 -1286 0
-1222 -1287 0
-1222 -1288 0
-1222 -1289 0
-1222 -1290 0
-1222 -1291 0
-1222 -1292 0
-1222 -1293 0
-1222 -1294 0
-1222 -1295 0
-1222 -1296 0
-1222 -1297 0
-1222 -1298 0
-1222 -1299 0
-1222 -1300 0
-1222 -1301 0
-1222 -1302 0
-1222 -1303 0
-1223 -1224 0
-1223 -1225 0
-1223 -1226 0
-1223 -1227 0
-1223 -1228 0
-1223 -1229 0
-1223 -1230 0
-1223 -1231 0
-1223 -1232 0
-1223 -1233 0
-1223 -1234 0
-1223 -1235 0
-1223 -1236 0
-1223 -1237 0
-1223 -1238 0
-1223 -1239 0
-1223 -1240 0
-1223 -1241 0
-1223 -1242 0
-1223 -1243 0
-1223 -1244 0
-1223 -1245 0
-1223 -1246 0
-1223 -1247 0
-1223 -1248 0
-1223 -1249 0
-1223 -1250 0
-1223 -1251 0
-1223 -1252 0
-1223 -1253 0
-1223 -1254 0
-1223 -1255 0
-1223 -1256 0
-1223 -1257 0
-1223 -1258 0
-1223 -1259 0
-1223 -1260 0
-1223 -1261 0
-1223 -1262 0
-1223 -1263 0
-1223 -1264 0
-1223 -1265 0
-1223 -1266 0
-1223 -1267 0
-1223 -1268 0
-1223 -1269 0
-1223 -1270 0
-1223 -1271 0
-1223 -1272 0
-1223 -1273 0
-1223 -1274 0
-1223 -1275 0
-1223 -1276 0
-1223 -1277 0
-1223 -1278 0
-1223 -1279 0
-1223 -1280 0
-1223 -1281 0
-1223 -1282 0
-1223 -1283 0
-1223 -1284 0
-1223 -1285 0
-1223 -1286 0
-1223 -1287 0
-1223 -1288 0
-1223 -1289 0
-1223 -1290 0
-1223 -1291 0
-1223 -1292 0
-1223 -1293 0
-1223 -1294 0
-1223 -1295 0
-1223 -1296 0
-1223 -1297 0
-1223 -1298 0
-1223 -1299 0
-1223 -1300 0
-1223 -1301 0
-1223 -1302 0
-1223 -1303 0
-1224 -1225 0
-1224 -1226 0
-1224 -1227 0
-1224 -1228 0
-1224 -1229 0
-1224 -1230 0
-1224 -1231 0
-1224 -1232 0
-1224 -1233 0
-1224 -1234 0
-1224 -1235 0
-1224 -1236 0
-1224 -1237 0
-1224 -1238 0
-1224 -1239 0
-1224 -1240 0
-1224 -1241 0
-1224 -1242 0
-1224 -1243 0
-1224 -1244 0
-1224 -1245 0
-1224 -1246 0
-1224 -1247 0
-1224 -1248 0
-1224 -1249 0
-1224 -1250 0
-1224 -1251 0
-1224 -1252 0
-1224 -1253 0
-1224 -1254 0
-1224 -1255 0
-1224 -1256 0
-1224 -1257 0
-1224 -1258 0
-1224 -1259 0
-1224 -1260 0
-1224 -1261 0
-1224 -1262 0
-1224 -1263 0
-1224 -1264 0
-1224 -1265 0
-1224 -1266 0
-1224 -1267 0
-1224 -1268 0
-1224 -1269 0
-1224 -1270 0
-1224 -1271 0
-1224 -1272 0
-1224 -1273 0
-1224 -1274 0
-1224 -1275 0
-1224 -1276 0
-1224 -1277 0
-1224 -1278 0
-1224 -1279 0
-1224 -1280 0
-1224 -1281 0
-1224 -1282 0
-1224 -1283 0
-1224 -1284 0
-1224 -1285 0
-1224 -1286 0
-1224 -1287 0
-1224 -1288 0
-1224 -1289 0
-1224 -1290 0
-1224 -1291 0
-1224 -1292 0
-1224 -1293 0
-1224 -1294 0
-1224 -1295 0
-1224 -1296 0
-1224 -1297 0
-1224 -1298 0
-1224 -1299 0
-1224 -1300 0
-1224 -1301 0
-1224 -1302 0
-1224 -1303 0
-1225 -1226 0
-1225 -1227 0
-1225 -1228 0
-1225 -1229 0
-1225 -1230 0
-1225 -1231 0
-1225 -1232 0
-1225 -1233 0
-1225 -1234 0
-1225 -1235 0
-1225 -1236 0
-1225 -1237 0
-1225 -1238 0
-1225 -1239 0
-1225 -1240 0
-1225 -1241 0
-1225 -1242 0
-1225 -1243 0
-1225 -1244 0
-1225 -1245 0
-1225 -1246 0
-1225 -1247 0
-1225 -1248 0
-1225 -1249 0
-1225 -1250 0
-1225 -1251 0
-1225 -1252 0
-1225 -1253 0
-1225 -1254 0
-1225 -1255 0
-1225 -1256 0
-1225 -1257 0
-1225 -1258 0
-1225 -1259 0
-1225 -1260 0
-1225 -1261 0
-1225 -1262 0
-1225 -1263 0
-1225 -1264 0
-1225 -1265 0
-1225 -1266 0
-1225 -1267 0
-1225 -1268 0
-1225 -1269 0
-1225 -1270 0
-1225 -1271 0
-1225 -1272 0
-1225 -1273 0
-1225 -1274 0
-1225 -1275 0
-1225 -1276 0
-1225 -1277 0
-1225 -1278 0
-1225 -1279 0
-1225 -1280 0
-1225 -1281 0
-1225 -1282 0
-1225 -1283 0
-1225 -1284 0
-1225 -1285 0
-1225 -1286 0
-1225 -1287 0
-1225 -1288 0
-1225 -1289 0
-1225 -1290 0
-1225 -1291 0
-1225 -1292 0
-1225 -1293 0
-1225 -1294 0
-1225 -1295 0
-1225 -1296 0
-1225 -1297 0
-1225 -1298 0
-1225 -1299 0
-1225 -1300 0
-1225 -1301 0
-1225 -1302 0
-1225 -1303 0
-1226 -1227 0
-1226 -1228 0
-1226 -1229 0
-1226 -1230 0
-1226 -1231 0
-1226 -1232 0
-1226 -1233 0
-1226 -1234 0
-1226 -1235 0
-1226 -1236 0
-1226 -1237 0
-1226 -1238 0
-1226 -1239 0
-1226 -1240 0
-1226 -1241 0
-1226 -1242 0
-1226 -1243 0
-1226 -1244 0
-1226 -1245 0
-1226 -1246 0
-1226 -1247 0
-1226 -1248 0
-1226 -1249 0
-1226 -1250 0
-1226 -1251 0
-1226 -1252 0
-1226 -1253 0
-1226 -1254 0
-1226 -1255 0
-1226 -1256 0
-1226 -1257 0
-1226 -1258 0
-1226 -1259 0
-1226 -1260 0
-1226 -1261 0
-1226 -1262 0
-1226 -1263 0
-1226 -1264 0
-1226 -1265 0
-1226 -1266 0
-1226 -1267 0
-1226 -1268 0
-1226 -1269 0
-1226 -1270 0
-1226 -1271 0
-1226 -1272 0
-1226 -1273 0
-1226 -1274 0
-1226 -1275 0
-1226 -1276 0
-1226 -1277 0
-1226 -1278 0
-1226 -1279 0
-1226 -1280 0
-1226 -1281 0
-1226 -1282 0
-1226 -1283 0
-1226 -1284 0
-1226 -1285 0
-1226 -1286 0
-1226 -1287 0
-1226 -1288 0
-1226 -1289 0
-1226 -1290 0
-1226 -1291 0
-1226 -1292 0
-1226 -1293 0
-1226 -1294 0
-1226 -1295 0
-1226 -1296 0
-1226 -1297 0
-1226 -1298 0
-1226 -1299 0
-1226 -1300 0
-1226 -1301 0
-1226 -1302 0
-1226 -1303 0
-1227 -1228 0
-1227 -1229 0
-1227 -1230 0
-1227 -1231 0
-1227 -1232 0
-1227 -1233 0
-1227 -1234 0
-1227 -1235 0
-1227 -1236 0
-1227 -1237 0
-1227 -1238 0
-1227 -1239 0
-1227 -1240 0
-1227 -1241 0
-1227 -1242 0
-1227 -1243 0
-1227 -1244 0
-1227 -1245 0
-1227 -1246 0
-1227 -1247 0
-1227 -1248 0
-1227 -1249 0
-1227 -1250 0
-1227 -1251 0
-1227 -1252 0
-1227 -1253 0
-1227 -1254 0
-1227 -1255 0
-1227 -1256 0
-1227 -1257 0
-1227 -1258 0
-1227 -1259 0
-1227 -1260 0
-1227 -1261 0
-1227 -1262 0
-1227 -1263 0
-1227 -1264 0
-1227 -1265 0
-1227 -1266 0
-1227 -1267 0
-1227 -1268 0
-1227 -1269 0
-1227 -1270 0
-1227 -1271 0
-1227 -1272 0
-1227 -1273 0
-1227 -1274 0
-1227 -1275 0
-1227 -1276 0
-1227 -1277 0
-1227 -1278 0
-1227 -1279 0
-1227 -1280 0
-1227 -1281 0
-1227 -1282 0
-1227 -1283 0
-1227 -1284 0
-1227 -1285 0
-1227 -1286 0
-1227 -1287 0
-1227 -1288 0
-1227 -1289 0
-1227 -1290 0
-1227 -1291 0
-1227 -1292 0
-1227 -1293 0
-1227 -1294 0
-1227 -1295 0
-1227 -1296 0
-1227 -1297 0
-1227 -1298 0
-1227 -1299 0
-1227 -1300 0
-1227 -1301 0
-1227 -1302 0
-1227 -1303 0
-1228 -1229 0
-1228 -1230 0
-1228 -1231 0
-1228 -1232 0
-1228 -1233 0
-1228 -1234 0
-1228 -1235 0
-1228 -1236 0
-1228 -1237 0
-1228 -1238 0
-1228 -1239 0
-1228 -1240 0
-1228 -1241 0
-1228 -1242 0
-1228 -1243 0
-1228 -1244 0
-1228 -1245 0
-1228 -1246 0
-1228 -1247 0
-1228 -1248 0
-1228 -1249 0
-1228 -1250 0
-1228 -1251 0
-1228 -1252 0
-1228 -1253 0
-1228 -1254 0
-1228 -1255 0
-1228 -1256 0
-1228 -1257 0
-1228 -1258 0
-1228 -1259 0
-1228 -1260 0
-1228 -1261 0
-1228 -1262 0
-1228 -1263 0
-1228 -1264 0
-1228 -1265 0
-1228 -1266 0
-1228 -1267 0
-1228 -1268 0
-1228 -1269 0
-1228 -1270 0
-1228 -1271 0
-1228 -1272 0
-1228 -1273 0
-1228 -1274 0
-1228 -1275 0
-1228 -1276 0
-1228 -1277 0
-1228 -1278 0
-1228 -1279 0
-1228 -1280 0
-1228 -1281 0
-1228 -1282 0
-1228 -1283 0
-1228 -1284 0
-1228 -1285 0
-1228 -1286 0
-1228 -1287 0
-1228 -1288 0
-1228 -1289 0
-1228 -1290 0
-1228 -1291 0
-1228 -1292 0
-1228 -1293 0
-1228 -1294 0
-1228 -1295 0
-1228 -1296 0
-1228 -1297 0
-1228 -1298 0
-1228 -1299 0
-1228 -1300 0
-1228 -1301 0
-1228 -1302 0
-1228 -1303 0
-1229 -1230 0
-1229 -1231 0
-1229 -1232 0
-1229 -1233 0
-1229 -1234 0
-1229 -1235 0
-1229 -1236 0
-1229 -1237 0
-1229 -1238 0
-1229 -1239 0
-1229 -1240 0
-1229 -1241 0
-1229 -1242 0
-1229 -1243 0
-1229 -1244 0
-1229 -1245 0
-1229 -1246 0
-1229 -1247 0
-1229 -1248 0
-1229 -1249 0
-1229 -1250 0
-1229 -1251 0
-1229 -1252 0
-1229 -1253 0
-1229 -1254 0
-1229 -1255 0
-1229 -1256 0
-1229 -1257 0
-1229 -1258 0
-1229 -1259 0
-1229 -1260 0
-1229 -1261 0
-1229 -1262 0
-1229 -1263 0
-1229 -1264 0
-1229 -1265 0
-1229 -1266 0
-1229 -1267 0
-1229 -1268 0
-1229 -1269 0
-1229 -1270 0
-1229 -1271 0
-1229 -1272 0
-1229 -1273 0
-1229 -1274 0
-1229 -1275 0
-1229 -1276 0
-1229 -1277 0
-1229 -1278 0
-1229 -1279 0
-1229 -1280 0
-1229 -1281 0
-1229 -1282 0
-1229 -1283 0
-1229 -1284 0
-1229 -1285 0
-1229 -1286 0
-1229 -1287 0
-1229 -1288 0
-1229 -1289 0
-1229 -1290 0
-1229 -1291 0
-1229 -1292 0
-1229 -1293 0
-1229 -1294 0
-1229 -1295 0
-1229 -1296 0
-1229 -1297 0
-1229 -1298 0
-1229 -1299 0
-1229 -1300 0
-1229 -1301 0
-1229 -1302 0
-1229 -1303 0
-1230 -1231 0
-1230 -1232 0
-1230 -1233 0
-1230 -1234 0
-1230 -1235 0
-1230 -1236 0
-1230 -1237 0
-1230 -1238 0
-1230 -1239 0
-1230 -1240 0
-1230 -1241 0
-1230 -1242 0
-1230 -1243 0
-1230 -1244 0
-1230 -1245 0
-1230 -1246 0
-1230 -1247 0
-1230 -1248 0
-1230 -1249 0
-1230 -1250 0
-1230 -1251 0
-1230 -1252 0
-1230 -1253 0
-1230 -1254 0
-1230 -1255 0
-1230 -1256 0
-1230 -1257 0
-1230 -1258 0
-1230 -1259 0
-1230 -1260 0
-1230 -1261 0
-1230 -1262 0
-1230 -1263 0
-1230 -1264 0
-1230 -1265 0
-1230 -1266 0
-1230 -1267 0
-1230 -1268 0
-1230 -1269 0
-1230 -1270 0
-1230 -1271 0
-1230 -1272 0
-1230 -1273 0
-1230 -1274 0
-1230 -1275 0
-1230 -1276 0
-1230 -1277 0
-1230 -1278 0
-1230 -1279 0
-1230 -1280 0
-1230 -1281 0
-1230 -1282 0
-1230 -1283 0
-1230 -1284 0
-1230 -1285 0
-1230 -1286 0
-1230 -1287 0
-1230 -1288 0
-1230 -1289 0
-1230 -1290 0
-1230 -1291 0
-1230 -1292 0
-1230 -1293 0
-1230 -1294 0
-1230 -1295 0
-1230 -1296 0
-1230 -1297 0
-1230 -1298 0
-1230 -1299 0
-1230 -1300 0
-1230 -1301 0
-1230 -1302 0
-1230 -1303 0
-1231 -1232 0
-1231 -1233 0
-1231 -1234 0
-1231 -1235 0
-1231 -1236 0
-1231 -1237 0
-1231 -1238 0
-1231 -1239 0
-1231 -1240 0
-1231 -1241 0
-1231 -1242 0
-1231 -1243 0
-1231 -1244 0
-1231 -1245 0
-1231 -1246 0
-1231 -1247 0
-1231 -1248 0
-1231 -1249 0
-1231 -1250 0
-1231 -1251 0
-1231 -1252 0
-1231 -1253 0
-1231 -1254 0
-1231 -1255 0
-1231 -1256 0
-1231 -1257 0
-1231 -1258 0
-1231 -1259 0
-1231 -1260 0
-1231 -1261 0
-1231 -1262 0
-1231 -1263 0
-1231 -1264 0
-1231 -1265 0
-1231 -1266 0
-1231 -1267 0
-1231 -1268 0
-1231 -1269 0
-1231 -1270 0
-1231 -1271 0
-1231 -1272 0
-1231 -1273 0
-1231 -1274 0
-1231 -1275 0
-1231 -1276 0
-1231 -1277 0
-1231 -1278 0
-1231 -1279 0
-1231 -1280 0
-1231 -1281 0
-1231 -1282 0
-1231 -1283 0
-1231 -1284 0
-1231 -1285 0
-1231 -1286 0
-1231 -1287 0
-1231 -1288 0
-1231 -1289 0
-1231 -1290 0
-1231 -1291 0
-1231 -1292 0
-1231 -1293 0
-1231 -1294 0
-1231 -1295 0
-1231 -1296 0
-1231 -1297 0
-1231 -1298 0
-1231 -1299 0
-1231 -1300 0
-1231 -1301 0
-1231 -1302 0
-1231 -1303 0
-1232 -1233 0
-1232 -1234 0
-1232 -1235 0
-1232 -1236 0
-1232 -1237 0
-1232 -1238 0
-1232 -1239 0
-1232 -1240 0
-1232 -1241 0
-1232 -1242 0
-1232 -1243 0
-1232 -1244 0
-1232 -1245 0
-1232 -1246 0
-1232 -1247 0
-1232 -1248 0
-1232 -1249 0
-1232 -1250 0
-1232 -1251 0
-1232 -1252 0
-1232 -1253 0
-1232 -1254 0
-1232 -1255 0
-1232 -1256 0
-1232 -1257 0
-1232 -1258 0
-1232 -1259 0
-1232 -1260 0
-1232 -1261 0
-1232 -1262 0
-1232 -1263 0
-1232 -1264 0
-1232 -1265 0
-1232 -1266 0
-1232 -1267 0
-1232 -1268 0
-1232 -1269 0
-1232 -1270 0
-1232 -1271 0
-1232 -1272 0
-1232 -1273 0
-1232 -1274 0
-1232 -1275 0
-1232 -1276 0
-1232 -1277 0
-1232 -1278 0
-1232 -1279 0
-1232 -1280 0
-1232 -1281 0
-1232 -1282 0
-1232 -1283 0
-1232 -1284 0
-1232 -1285 0
-1232 -1286 0
-1232 -1287 0
-1232 -1288 0
-1232 -1289 0
-1232 -1290 0
-1232 -1291 0
-1232 -1292 0
-1232 -1293 0
-1232 -1294 0
-1232 -1295 0
-1232 -1296 0
-1232 -1297 0
-1232 -1298 0
-1232 -1299 0
-1232 -1300 0
-1232 -1301 0
-1232 -1302 0
-1232 -1303 0
-1233 -1234 0
-1233 -1235 0
-1233 -1236 0
-1233 -1237 0
-1233 -1238 0
-1233 -1239 0
-1233 -1240 0
-1233 -1241 0
-1233 -1242 0
-1233 -1243 0
-1233 -1244 0
-1233 -1245 0
-1233 -1246 0
-1233 -1247 0
-1233 -1248 0
-1233 -1249 0
-1233 -1250 0
-1233 -1251 0
-1233 -1252 0
-1233 -1253 0
-1233 -1254 0
-1233 -1255 0
-1233 -1256 0
-1233 -1257 0
-1233 -1258 0
-1233 -1259 0
-1233 -1260 0
-1233 -1261 0
-1233 -1262 0
-1233 -1263 0
-1233 -1264 0
-1233 -1265 0
-1233 -1266 0
-1233 -1267 0
-1233 -1268 0
-1233 -1269 0
-1233 -1270 0
-1233 -1271 0
-1233 -1272 0
-1233 -1273 0
-1233 -1274 0
-1233 -1275 0
-1233 -1276 0
-1233 -1277 0
-1233 -1278 0
-1233 -1279 0
-1233 -1280 0
-1233 -1281 0
-1233 -1282 0
-1233 -1283 0
-1233 -1284 0
-1233 -1285 0
-1233 -1286 0
-1233 -1287 0
-1233 -1288 0
-1233 -1289 0
-1233 -1290 0
-1233 -1291 0
-1233 -1292 0
-1233 -1293 0
-1233 -1294 0
-1233 -1295 0
-1233 -1296 0
-1233 -1297 0
-1233 -1298 0
-1233 -1299 0
-1233 -1300 0
-1233 -1301 0
-1233 -1302 0
-1233 -1303 0
-1234 -1235 0
-1234 -1236 0
-1234 -1237 0
-1234 -1238 0
-1234 -1239 0
-1234 -1240 0
-1234 -1241 0
-1234 -1242 0
-1234 -1243 0
-1234 -1244 0
-1234 -1245 0
-1234 -1246 0
-1234 -1247 0
-1234 -1248 0
-1234 -1249 0
-1234 -1250 0
-1234 -1251 0
-1234 -1252 0
-1234 -1253 0
-1234 -1254 0
-1234 -1255 0
-1234 -1256 0
-1234 -1257 0
-1234 -1258 0
-1234 -1259 0
-1234 -1260 0
-1234 -1261 0
-1234 -1262 0
-1234 -1263 0
-1234 -1264 0
-1234 -1265 0
-1234 -1266 0
-1234 -1267 0
-1234 -1268 0
-1234 -1269 0
-1234 -1270 0
-1234 -1271 0
-1234 -1272 0
-1234 -1273 0
-1234 -1274 0
-1234 -1275 0
-1234 -1276 0
-1234 -1277 0
-1234 -1278 0
-1234 -1279 0
-1234 -1280 0
-1234 -1281 0
-1234 -1282 0
-1234 -1283 0
-1234 -1284 0
-1234 -1285 0
-1234 -1286 0
-1234 -1287 0
-1234 -1288 0
-1234 -1289 0
-1234 -1290 0
-1234 -1291 0
-1234 -1292 0
-1234 -1293 0
-1234 -1294 0
-1234 -1295 0
-1234 -1296 0
-1234 -1297 0
-1234 -1298 0
-1234 -1299 0
-1234 -1300 0
-1234 -1301 0
-1234 -1302 0
-1234 -1303 0
-1235 -1236 0
-1235 -1237 0
-1235 -1238 0
-1235 -1239 0
-1235 -1240 0
-1235 -1241 0
-1235 -1242 0
-1235 -1243 0
-1235 -1244 0
-1235 -1245 0
-1235 -1246 0
-1235 -1247 0
-1235 -1248 0
-1235 -1249 0
-1235 -1250 0
-1235 -1251 0
-1235 -1252 0
-1235 -1253 0
-1235 -1254 0
-1235 -1255 0
-1235 -1256 0
-1235 -1257 0
-1235 -1258 0
-1235 -1259 0
-1235 -1260 0
-1235 -1261 0
-1235 -1262 0
-1235 -1263 0
-1235 -1264 0
-1235 -1265 0
-1235 -1266 0
-1235 -1267 0
-1235 -1268 0
-1235 -1269 0
-1235 -1270 0
-1235 -1271 0
-1235 -1272 0
-1235 -1273 0
-1235 -1274 0
-1235 -1275 0
-1235 -1276 0
-1235 -1277 0
-1235 -1278 0
-1235 -1279 0
-1235 -1280 0
-1235 -1281 0
-1235 -1282 0
-1235 -1283 0
-1235 -1284 0
-1235 -1285 0
-1235 -1286 0
-1235 -1287 0
-1235 -1288 0
-1235 -1289 0
-1235 -1290 0
-1235 -1291 0
-1235 -1292 0
-1235 -1293 0
-1235 -1294 0
-1235 -1295 0
-1235 -1296 0
-1235 -1297 0
-1235 -1298 0
-1235 -1299 0
-1235 -1300 0
-1235 -1301 0
-1235 -1302 0
-1235 -1303 0
-1236 -1237 0
-1236 -1238 0
-1236 -1239 0
-1236 -1240 0
-1236 -1241 0
-1236 -1242 0
-1236 -1243 0
-1236 -1244 0
-1236 -1245 0
-1236 -1246 0
-1236 -1247 0
-1236 -1248 0
-1236 -1249 0
-1236 -1250 0
-1236 -1251 0
-1236 -1252 0
-1236 -1253 0
-1236 -1254 0
-1236 -1255 0
-1236 -1256 0
-1236 -1257 0
-1236 -1258 0
-1236 -1259 0
-1236 -1260 0
-1236 -1261 0
-1236 -1262 0
-1236 -1263 0
-1236 -1264 0
-1236 -1265 0
-1236 -1266 0
-1236 -1267 0
-1236 -1268 0
-1236 -1269 0
-1236 -1270 0
-1236 -1271 0
-1236 -1272 0
-1236 -1273 0
-1236 -1274 0
-1236 -1275 0
-1236 -1276 0
-1236 -1277 0
-1236 -1278 0
-1236 -1279 0
-1236 -1280 0
-1236 -1281 0
-1236 -1282 0
-1236 -1283 0
-1236 -1284 0
-1236 -1285 0
-1236 -1286 0
-1236 -1287 0
-1236 -1288 0
-1236 -1289 0
-1236 -1290 0
-1236 -1291 0
-1236 -1292 0
-1236 -1293 0
-1236 -1294 0
-1236 -1295 0
-1236 -1296 0
-1236 -1297 0
-1236 -1298 0
-1236 -1299 0
-1236 -1300 0
-1236 -1301 0
-1236 -1302 0
-1236 -1303 0
-1237 -1238 0
-1237 -1239 0
-1237 -1240 0
-1237 -1241 0
-1237 -1242 0
-1237 -1243 0
-1237 -1244 0
-1237 -1245 0
-1237 -1246 0
-1237 -1247 0
-1237 -1248 0
-1237 -1249 0
-1237 -1250 0
-1237 -1251 0
-1237 -1252 0
-1237 -1253 0
-1237 -1254 0
-1237 -1255 0
-1237 -1256 0
-1237 -1257 0
-1237 -1258 0
-1237 -1259 0
-1237 -1260 0
-1237 -1261 0
-1237 -1262 0
-1237 -1263 0
-1237 -1264 0
-1237 -1265 0
-1237 -1266 0
-1237 -1267 0
-1237 -1268 0
-1237 -1269 0
-1237 -1270 0
-1237 -1271 0
-1237 -1272 0
-1237 -1273 0
-1237 -1274 0
-1237 -1275 0
-1237 -1276 0
-1237 -1277 0
-1237 -1278 0
-1237 -1279 0
-1237 -1280 0
-1237 -1281 0
-1237 -1282 0
-1237 -1283 0
-1237 -1284 0
-1237 -1285 0
-1237 -1286 0
-1237 -1287 0
-1237 -1288 0
-1237 -1289 0
-1237 -1290 0
-1237 -1291 0
-1237 -1292 0
-1237 -1293 0
-1237 -1294 0
-1237 -1295 0
-1237 -1296 0
-1237 -1297 0
-1237 -1298 0
-1237 -1299 0
-1237 -1300 0
-1237 -1301 0
-1237 -1302 0
-1237 -1303 0
-1238 -1239 0
-1238 -1240 0
-1238 -1241 0
-1238 -1242 0
-1238 -1243 0
-1238 -1244 0
-1238 -1245 0
-1238 -1246 0
-1238 -1247 0
-1238 -1248 0
-1238 -1249 0
-1238 -1250 0
-1238 -1251 0
-1238 -1252 0
-1238 -1253 0
-1238 -1254 0
-1238 -1255 0
-1238 -1256 0
-1238 -1257 0
-1238 -1258 0
-1238 -1259 0
-1238 -1260 0
-1238 -1261 0
-1238 -1262 0
-1238 -1263 0
-1238 -1264 0
-1238 -1265 0
-1238 -1266 0
-1238 -1267 0
-1238 -1268 0
-1238 -1269 0
-1238 -1270 0
-1238 -1271 0
-1238 -1272 0
-1238 -1273 0
-1238 -1274 0
-1238 -1275 0
-1238 -1276 0
-1238 -1277 0
-1238 -1278 0
-1238 -1279 0
-1238 -1280 0
-1238 -1281 0
-1238 -1282 0
-1238 -1283 0
-1238 -1284 0
-1238 -1285 0
-1238 -1286 0
-1238 -1287 0
-1238 -1288 0
-1238 -1289 0
-1238 -1290 0
-1238 -1291 0
-1238 -1292 0
-1238 -1293 0
-1238 -1294 0
-1238 -1295 0
-1238 -1296 0
-1238 -1297 0
-1238 -1298 0
-1238 -1299 0
-1238 -1300 0
-1238 -1301 0
-1238 -1302 0
-1238 -1303 0
-1239 -1240 0
-1239 -1241 0
-1239 -1242 0
-1239 -1243 0
-1239 -1244 0
-1239 -1245 0
-1239 -1246 0
-1239 -1247 0
-1239 -1248 0
-1239 -1249 0
-1239 -1250 0
-1239 -1251 0
-1239 -1252 0
-1239 -1253 0
-1239 -1254 0
-1239 -1255 0
-1239 -1256 0
-1239 -1257 0
-1239 -1258 0
-1239 -1259 0
-1239 -1260 0
-1239 -1261 0
-1239 -1262 0
-1239 -1263 0
-1239 -1264 0
-1239 -1265 0
-1239 -1266 0
-1239 -1267 0
-1239 -1268 0
-1239 -1269 0
-1239 -1270 0
-1239 -1271 0
-1239 -1272 0
-1239 -1273 0
-1239 -1274 0
-1239 -1275 0
-1239 -1276 0
-1239 -1277 0
-1239 -1278 0
-1239 -1279 0
-1239 -1280 0
-1239 -1281 0
-1239 -1282 0
-1239 -1283 0
-1239 -1284 0
-1239 -1285 0
-1239 -1286 0
-1239 -1287 0
-1239 -1288 0
-1239 -1289 0
-1239 -1290 0
-1239 -1291 0
-1239 -1292 0
-1239 -1293 0
-1239 -1294 0
-1239 -1295 0
-1239 -1296 0
-1239 -1297 0
-1239 -1298 0
-1239 -1299 0
-1239 -1300 0
-1239 -1301 0
-1239 -1302 0
-1239 -1303 0
-1240 -1241 0
-1240 -1242 0
-1240 -1243 0
-1240 -1244 0
-1240 -1245 0
-1240 -1246 0
-1240 -1247 0
-1240 -1248 0
-1240 -1249 0
-1240 -1250 0
-1240 -1251 0
-1240 -1252 0
-1240 -1253 0
-1240 -1254 0
-1240 -1255 0
-1240 -1256 0
-1240 -1257 0
-1240 -1258 0
-1240 -1259 0
-1240 -1260 0
-1240 -1261 0
-1240 -1262 0
-1240 -1263 0
-1240 -1264 0
-1240 -1265 0
-1240 -1266 0
-1240 -1267 0
-1240 -1268 0
-1240 -1269 0
-1240 -1270 0
-1240 -1271 0
-1240 -1272 0
-1240 -1273 0
-1240 -1274 0
-1240 -1275 0
-1240 -1276 0
-1240 -1277 0
-1240 -1278 0
-1240 -1279 0
-1240 -1280 0
-1240 -1281 0
-1240 -1282 0
-1240 -1283 0
-1240 -1284 0
-1240 -1285 0
-1240 -1286 0
-1240 -1287 0
-1240 -1288 0
-1240 -1289 0
-1240 -1290 0
-1240 -1291 0
-1240 -1292 0
-1240 -1293 0
-1240 -1294 0
-1240 -1295 0
-1240 -1296 0
-1240 -1297 0
-1240 -1298 0
-1240 -1299 0
-1240 -1300 0
-1240 -1301 0
-1240 -1302 0
-1240 -1303 0
-1241 -1242 0
-1241 -1243 0
-1241 -1244 0
-1241 -1245 0
-1241 -1246 0
-1241 -1247 0
-1241 -1248 0
-1241 -1249 0
-1241 -1250 0
-1241 -1251 0
-1241 -1252 0
-1241 -1253 0
-1241 -1254 0
-1241 -1255 0
-1241 -1256 0
-1241 -1257 0
-1241 -1258 0
-1241 -1259 0
-1241 -1260 0
-1241 -1261 0
-1241 -1262 0
-1241 -1263 0
-1241 -1264 0
-1241 -1265 0
-1241 -1266 0
-1241 -1267 0
-1241 -1268 0
-1241 -1269 0
-1241 -1270 0
-1241 -1271 0
-1241 -1272 0
-1241 -1273 0
-1241 -1274 0
-1241 -1275 0
-1241 -1276 0
-1241 -1277 0
-1241 -1278 0
-1241 -1279 0
-1241 -1280 0
-1241 -1281 0
-1241 -1282 0
-1241 -1283 0
-1241 -1284 0
-1241 -1285 0
-1241 -1286 0
-1241 -1287 0
-1241 -1288 0
-1241 -1289 0
-1241 -1290 0
-1241 -1291 0
-1241 -1292 0
-1241 -1293 0
-1241 -1294 0
-1241 -1295 0
-1241 -1296 0
-1241 -1297 0
-1241 -1298 0
-1241 -1299 0
-1241 -1300 0
-1241 -1301 0
-1241 -1302 0
-1241 -1303 0
-1242 -1243 0
-1242 -1244 0
-1242 -1245 0
-1242 -1246 0
-1242 -1247 0
-1242 -1248 0
-1242 -1249 0
-1242 -1250 0
-1242 -1251 0
-1242 -1252 0
-1242 -1253 0
-1242 -1254 0
-1242 -1255 0
-1242 -1256 0
-1242 -1257 0
-1242 -1258 0
-1242 -1259 0
-1242 -1260 0
-1242 -1261 0
-1242 -1262 0
-1242 -1263 0
-1242 -1264 0
-1242 -1265 0
-1242 -1266 0
-1242 -1267 0
-1242 -1268 0
-1242 -1269 0
-1242 -1270 0
-1242 -1271 0
-1242 -1272 0
-1242 -1273 0
-1242 -1274 0
-1242 -1275 0
-1242 -1276 0
-1242 -1277 0
-1242 -1278 0
-1242 -1279 0
-1242 -1280 0
-1242 -1281 0
-1242 -1282 0
-1242 -1283 0
-1242 -1284 0
-1242 -1285 0
-1242 -1286 0
-1242 -1287 0
-1242 -1288 0
-1242 -1289 0
-1242 -1290 0
-1242 -1291 0
-1242 -1292 0
-1242 -1293 0
-1242 -1294 0
-1242 -1295 0
-1242 -1296 0
-1242 -1297 0
-1242 -1298 0
-1242 -1299 0
-1242 -1300 0
-1242 -1301 0
-1242 -1302 0
-1242 -1303 0
-1243 -1244 0
-1243 -1245 0
-1243 -1246 0
-1243 -1247 0
-1243 -1248 0
-1243 -1249 0
-1243 -1250 0
-1243 -1251 0
-1243 -1252 0
-1243 -1253 0
-1243 -1254 0
-1243 -1255 0
-1243 -1256 0
-1243 -1257 0
-1243 -1258 0
-1243 -1259 0
-1243 -1260 0
-1243 -1261 0
-1243 -1262 0
-1243 -1263 0
-1243 -1264 0
-1243 -1265 0
-1243 -1266 0
-1243 -1267 0
-1243 -1268 0
-1243 -1269 0
-1243 -1270 0
-1243 -1271 0
-1243 -1272 0
-1243 -1273 0
-1243 -1274 0
-1243 -1275 0
-1243 -1276 0
-1243 -1277 0
-1243 -1278 0
-1243 -1279 0
-1243 -1280 0
-1243 -1281 0
-1243 -1282 0
-1243 -1283 0
-1243 -1284 0
-1243 -1285 0
-1243 -1286 0
-1243 -1287 0
-1243 -1288 0
-1243 -1289 0
-1243 -1290 0
-1243 -1291 0
-1243 -1292 0
-1243 -1293 0
-1243 -1294 0
-1243 -1295 0
-1243 -1296 0
-1243 -1297 0
-1243 -1298 0
-1243 -1299 0
-1243 -1300 0
-1243 -1301 0
-1243 -1302 0
-1243 -1303 0
-1244 -1245 0
-1244 -1246 0
-1244 -1247 0
-1244 -1248 0
-1244 -1249 0
-1244 -1250 0
-1244 -1251 0
-1244 -1252 0
-1244 -1253 0
-1244 -1254 0
-1244 -1255 0
-1244 -1256 0
-1244 -1257 0
-1244 -1258 0
-1244 -1259 0
-1244 -1260 0
-1244 -1261 0
-1244 -1262 0
-1244 -1263 0
-1244 -1264 0
-1244 -1265 0
-1244 -1266 0
-1244 -1267 0
-1244 -1268 0
-1244 -1269 0
-1244 -1270 0
-1244 -1271 0
-1244 -1272 0
-1244 -1273 0
-1244 -1274 0
-1244 -1275 0
-1244 -1276 0
-1244 -1277 0
-1244 -1278 0
-1244 -1279 0
-1244 -1280 0
-1244 -1281 0
-1244 -1282 0
-1244 -1283 0
-1244 -1284 0
-1244 -1285 0
-1244 -1286 0
-1244 -1287 0
-1244 -1288 0
-1244 -1289 0
-1244 -1290 0
-1244 -1291 0
-1244 -1292 0
-1244 -1293 0
-1244 -1294 0
-1244 -1295 0
-1244 -1296 0
-1244 -1297 0
-1244 -1298 0
-1244 -1299 0
-1244 -1300 0
-1244 -1301 0
-1244 -1302 0
-1244 -1303 0
-1245 -1246 0
-1245 -1247 0
-1245 -1248 0
-1245 -1249 0
-1245 -1250 0
-1245 -1251 0
-1245 -1252 0
-1245 -1253 0
-1245 -1254 0
-1245 -1255 0
-1245 -1256 0
-1245 -1257 0
-1245 -1258 0
-1245 -1259 0
-1245 -1260 0
-1245 -1261 0
-1245 -1262 0
-1245 -1263 0
-1245 -1264 0
-1245 -1265 0
-1245 -1266 0
-1245 -1267 0
-1245 -1268 0
-1245 -1269 0
-1245 -1270 0
-1245 -1271 0
-1245 -1272 0
-1245 -1273 0
-1245 -1274 0
-1245 -1275 0
-1245 -1276 0
-1245 -1277 0
-1245 -1278 0
-1245 -1279 0
-1245 -1280 0
-1245 -1281 0
-1245 -1282 0
-1245 -1283 0
-1245 -1284 0
-1245 -1285 0
-1245 -1286 0
-1245 -1287 0
-1245 -1288 0
-1245 -1289 0
-1245 -1290 0
-1245 -1291 0
-1245 -1292 0
-1245 -1293 0
-1245 -1294 0
-1245 -1295 0
-1245 -1296 0
-1245 -1297 0
-1245 -1298 0
-1245 -1299 0
-1245 -1300 0
-1245 -1301 0
-1245 -1302 0
-1245 -1303 0
-1246 -1247 0
-1246 -1248 0
-1246 -1249 0
-1246 -1250 0
-1246 -1251 0
-1246 -1252 0
-1246 -1253 0
-1246 -1254 0
-1246 -1255 0
-1246 -1256 0
-1246 -1257 0
-1246 -1258 0
-1246 -1259 0
-1246 -1260 0
-1246 -1261 0
-1246 -1262 0
-1246 -1263 0
-1246 -1264 0
-1246 -1265 0
-1246 -1266 0
-1246 -1267 0
-1246 -1268 0
-1246 -1269 0
-1246 -1270 0
-1246 -1271 0
-1246 -1272 0
-1246 -1273 0
-1246 -1274 0
-1246 -1275 0
-1246 -1276 0
-1246 -1277 0
-1246 -1278 0
-1246 -1279 0
-1246 -1280 0
-1246 -1281 0
-1246 -1282 0
-1246 -1283 0
-1246 -1284 0
-1246 -1285 0
-1246 -1286 0
-1246 -1287 0
-1246 -1288 0
-1246 -1289 0
-1246 -1290 0
-1246 -1291 0
-1246 -1292 0
-1246 -1293 0
-1246 -1294 0
-1246 -1295 0
-1246 -1296 0
-1246 -1297 0
-1246 -1298 0
-1246 -1299 0
-1246 -1300 0
-1246 -1301 0
-1246 -1302 0
-1246 -1303 0
-1247 -1248 0
-1247 -1249 0
-1247 -1250 0
-1247 -1251 0
-1247 -1252 0
-1247 -1253 0
-1247 -1254 0
-1247 -1255 0
-1247 -1256 0
-1247 -1257 0
-1247 -1258 0
-1247 -1259 0
-1247 -1260 0
-1247 -1261 0
-1247 -1262 0
-1247 -1263 0
-1247 -1264 0
-1247 -1265 0
-1247 -1266 0
-1247 -1267 0
-1247 -1268 0
-1247 -1269 0
-1247 -1270 0
-1247 -1271 0
-1247 -1272 0
-1247 -1273 0
-1247 -1274 0
-1247 -1275 0
-1247 -1276 0
-1247 -1277 0
-1247 -1278 0
-1247 -1279 0
-1247 -1280 0
-1247 -1281 0
-1247 -1282 0
-1247 -1283 0
-1247 -1284 0
-1247 -1285 0
-1247 -1286 0
-1247 -1287 0
-1247 -1288 0
-1247 -1289 0
-1247 -1290 0
-1247 -1291 0
-1247 -1292 0
-1247 -1293 0
-1247 -1294 0
-1247 -1295 0
-1247 -1296 0
-1247 -1297 0
-1247 -1298 0
-1247 -1299 0
-1247 -1300 0
-1247 -1301 0
-1247 -1302 0
-1247 -1303 0
-1248 -1249 0
-1248 -1250 0
-1248 -1251 0
-1248 -1252 0
-1248 -1253 0
-1248 -1254 0
-1248 -1255 0
-1248 -1256 0
-1248 -1257 0
-1248 -1258 0
-1248 -1259 0
-1248 -1260 0
-1248 -1261 0
-1248 -1262 0
-1248 -1263 0
-1248 -1264 0
-1248 -1265 0
-1248 -1266 0
-1248 -1267 0
-1248 -1268 0
-1248 -1269 0
-1248 -1270 0
-1248 -1271 0
-1248 -1272 0
-1248 -1273 0
-1248 -1274 0
-1248 -1275 0
-1248 -1276 0
-1248 -1277 0
-1248 -1278 0
-1248 -1279 0
-1248 -1280 0
-1248 -1281 0
-1248 -1282 0
-1248 -1283 0
-1248 -1284 0
-1248 -1285 0
-1248 -1286 0
-1248 -1287 0
-1248 -1288 0
-1248 -1289 0
-1248 -1290 0
-1248 -1291 0
-1248 -1292 0
-1248 -1293 0
-1248 -1294 0
-1248 -1295 0
-1248 -1296 0
-1248 -1297 0
-1248 -1298 0
-1248 -1299 0
-1248 -1300 0
-1248 -1301 0
-1248 -1302 0
-1248 -1303 0
-1249 -1250 0
-1249 -1251 0
-1249 -1252 0
-1249 -1253 0
-1249 -1254 0
-1249 -1255 0
-1249 -1256 0
-1249 -1257 0
-1249 -1258 0
-1249 -1259 0
-1249 -1260 0
-1249 -1261 0
-1249 -1262 0
-1249 -1263 0
-1249 -1264 0
-1249 -1265 0
-1249 -1266 0
-1249 -1267 0
-1249 -1268 0
-1249 -1269 0
-1249 -1270 0
-1249 -1271 0
-1249 -1272 0
-1249 -1273 0
-1249 -1274 0
-1249 -1275 0
-1249 -1276 0
-1249 -1277 0
-1249 -1278 0
-1249 -1279 0
-1249 -1280 0
-1249 -1281 0
-1249 -1282 0
-1249 -1283 0
-1249 -1284 0
-1249 -1285 0
-1249 -1286 0
-1249 -1287 0
-1249 -1288 0
-1249 -1289 0
-1249 -1290 0
-1249 -1291 0
-1249 -1292 0
-1249 -1293 0
-1249 -1294 0
-1249 -1295 0
-1249 -1296 0
-1249 -1297 0
-1249 -1298 0
-1249 -1299 0
-1249 -1300 0
-1249 -1301 0
-1249 -1302 0
-1249 -1303 0
-1250 -1251 0
-1250 -1252 0
-1250 -1253 0
-1250 -1254 0
-1250 -1255 0
-1250 -1256 0
-1250 -1257 0
-1250 -1258 0
-1250 -1259 0
-1250 -1260 0
-1250 -1261 0
-1250 -1262 0
-1250 -1263 0
-1250 -1264 0
-1250 -1265 0
-1250 -1266 0
-1250 -1267 0
-1250 -1268 0
-1250 -1269 0
-1250 -1270 0
-1250 -1271 0
-1250 -1272 0
-1250 -1273 0
-1250 -1274 0
-1250 -1275 0
-1250 -1276 0
-1250 -1277 0
-1250 -1278 0
-1250 -1279 0
-1250 -1280 0
-1250 -1281 0
-1250 -1282 0
-1250 -1283 0
-1250 -1284 0
-1250 -1285 0
-1250 -1286 0
-1250 -1287 0
-1250 -1288 0
-1250 -1289 0
-1250 -1290 0
-1250 -1291 0
-1250 -1292 0
-1250 -1293 0
-1250 -1294 0
-1250 -1295 0
-1250 -1296 0
-1250 -1297 0
-1250 -1298 0
-1250 -1299 0
-1250 -1300 0
-1250 -1301 0
-1250 -1302 0
-1250 -1303 0
-1251 -1252 0
-1251 -1253 0
-1251 -1254 0
-1251 -1255 0
-1251 -1256 0
-1251 -1257 0
-1251 -1258 0
-1251 -1259 0
-1251 -1260 0
-1251 -1261 0
-1251 -1262 0
-1251 -1263 0
-1251 -1264 0
-1251 -1265 0
-1251 -1266 0
-1251 -1267 0
-1251 -1268 0
-1251 -1269 0
-1251 -1270 0
-1251 -1271 0
-1251 -1272 0
-1251 -1273 0
-1251 -1274 0
-1251 -1275 0
-1251 -1276 0
-1251 -1277 0
-1251 -1278 0
-1251 -1279 0
-1251 -1280 0
-1251 -1281 0
-1251 -1282 0
-1251 -1283 0
-1251 -1284 0
-1251 -1285 0
-1251 -1286 0
-1251 -1287 0
-1251 -1288 0
-1251 -1289 0
-1251 -1290 0
-1251 -1291 0
-1251 -1292 0
-1251 -1293 0
-1251 -1294 0
-1251 -1295 0
-1251 -1296 0
-1251 -1297 0
-1251 -1298 0
-1251 -1299 0
-1251 -1300 0
-1251 -1301 0
-1251 -1302 0
-1251 -1303 0
-1252 -1253 0
-1252 -1254 0
-1252 -1255 0
-1252 -1256 0
-1252 -1257 0
-1252 -1258 0
-1252 -1259 0
-1252 -1260 0
-1252 -1261 0
-1252 -1262 0
-1252 -1263 0
-1252 -1264 0
-1252 -1265 0
-1252 -1266 0
-1252 -1267 0
-1252 -1268 0
-1252 -1269 0
-1252 -1270 0
-1252 -1271 0
-1252 -1272 0
-1252 -1273 0
-1252 -1274 0
-1252 -1275 0
-1252 -1276 0
-1252 -1277 0
-1252 -1278 0
-1252 -1279 0
-1252 -1280 0
-1252 -1281 0
-1252 -1282 0
-1252 -1283 0
-1252 -1284 0
-1252 -1285 0
-1252 -1286 0
-1252 -1287 0
-1252 -1288 0
-1252 -1289 0
-1252 -1290 0
-1252 -1291 0
-1252 -1292 0
-1252 -1293 0
-1252 -1294 0
-1252 -1295 0
-1252 -1296 0
-1252 -1297 0
-1252 -1298 0
-1252 -1299 0
-1252 -1300 0
-1252 -1301 0
-1252 -1302 0
-1252 -1303 0
-1253 -1254 0
-1253 -1255 0
-1253 -1256 0
-1253 -1257 0
-1253 -1258 0
-1253 -1259 0
-1253 -1260 0
-1253 -1261 0
-1253 -1262 0
-1253 -1263 0
-1253 -1264 0
-1253 -1265 0
-1253 -1266 0
-1253 -1267 0
-1253 -1268 0
-1253 -1269 0
-1253 -1270 0
-1253 -1271 0
-1253 -1272 0
-1253 -1273 0
-1253 -1274 0
-1253 -1275 0
-1253 -1276 0
-1253 -1277 0
-1253 -1278 0
-1253 -1279 0
-1253 -1280 0
-1253 -1281 0
-1253 -1282 0
-1253 -1283 0
-1253 -1284 0
-1253 -1285 0
-1253 -1286 0
-1253 -1287 0
-1253 -1288 0
-1253 -1289 0
-1253 -1290 0
-1253 -1291 0
-1253 -1292 0
-1253 -1293 0
-1253 -1294 0
-1253 -1295 0
-1253 -1296 0
-1253 -1297 0
-1253 -1298 0
-1253 -1299 0
-1253 -1300 0
-1253 -1301 0
-1253 -1302 0
-1253 -1303 0
-1254 -1255 0
-1254 -1256 0
-1254 -1257 0
-1254 -1258 0
-1254 -1259 0
-1254 -1260 0
-1254 -1261 0
-1254 -1262 0
-1254 -1263 0
-1254 -1264 0
-1254 -1265 0
-1254 -1266 0
-1254 -1267 0
-1254 -1268 0
-1254 -1269 0
-1254 -1270 0
-1254 -1271 0
-1254 -1272 0
-1254 -1273 0
-1254 -1274 0
-1254 -1275 0
-1254 -1276 0
-1254 -1277 0
-1254 -1278 0
-1254 -1279 0
-1254 -1280 0
-1254 -1281 0
-1254 -1282 0
-1254 -1283 0
-1254 -1284 0
-1254 -1285 0
-1254 -1286 0
-1254 -1287 0
-1254 -1288 0
-1254 -1289 0
-1254 -1290 0
-1254 -1291 0
-1254 -1292 0
-1254 -1293 0
-1254 -1294 0
-1254 -1295 0
-1254 -1296 0
-1254 -1297 0
-1254 -1298 0
-1254 -1299 0
-1254 -1300 0
-1254 -1301 0
-1254 -1302 0
-1254 -1303 0
-1255 -1256 0
-1255 -1257 0
-1255 -1258 0
-1255 -1259 0
-1255 -1260 0
-1255 -1261 0
-1255 -1262 0
-1255 -1263 0
-1255 -1264 0
-1255 -1265 0
-1255 -1266 0
-1255 -1267 0
-1255 -1268 0
-1255 -1269 0
-1255 -1270 0
-1255 -1271 0
-1255 -1272 0
-1255 -1273 0
-1255 -1274 0
-1255 -1275 0
-1255 -1276 0
-1255 -1277 0
-1255 -1278 0
-1255 -1279 0
-1255 -1280 0
-1255 -1281 0
-1255 -1282 0
-1255 -1283 0
-1255 -1284 0
-1255 -1285 0
-1255 -1286 0
-1255 -1287 0
-1255 -1288 0
-1255 -1289 0
-1255 -1290 0
-1255 -1291 0
-1255 -1292 0
-1255 -1293 0
-1255 -1294 0
-1255 -1295 0
-1255 -1296 0
-1255 -1297 0
-1255 -1298 0
-1255 -1299 0
-1255 -1300 0
-1255 -1301 0
-1255 -1302 0
-1255 -1303 0
-1256 -1257 0
-1256 -1258 0
-1256 -1259 0
-1256 -1260 0
-1256 -1261 0
-1256 -1262 0
-1256 -1263 0
-1256 -1264 0
-1256 -1265 0
-1256 -1266 0
-1256 -1267 0
-1256 -1268 0
-1256 -1269 0
-1256 -1270 0
-1256 -1271 0
-1256 -1272 0
-1256 -1273 0
-1256 -1274 0
-1256 -1275 0
-1256 -1276 0
-1256 -1277 0
-1256 -1278 0
-1256 -1279 0
-1256 -1280 0
-1256 -1281 0
-1256 -1282 0
-1256 -1283 0
-1256 -1284 0
-1256 -1285 0
-1256 -1286 0
-1256 -1287 0
-1256 -1288 0
-1256 -1289 0
-1256 -1290 0
-1256 -1291 0
-1256 -1292 0
-1256 -1293 0
-1256 -1294 0
-1256 -1295 0
-1256 -1296 0
-1256 -1297 0
-1256 -1298 0
-1256 -1299 0
-1256 -1300 0
-1256 -1301 0
-1256 -1302 0
-1256 -1303 0
-1257 -1258 0
-1257 -1259 0
-1257 -1260 0
-1257 -1261 0
-1257 -1262 0
-1257 -1263 0
-1257 -1264 0
-1257 -1265 0
-1257 -1266 0
-1257 -1267 0
-1257 -1268 0
-1257 -1269 0
-1257 -1270 0
-1257 -1271 0
-1257 -1272 0
-1257 -1273 0
-1257 -1274 0
-1257 -1275 0
-1257 -1276 0
-1257 -1277 0
-1257 -1278 0
-1257 -1279 0
-1257 -1280 0
-1257 -1281 0
-1257 -1282 0
-1257 -1283 0
-1257 -1284 0
-1257 -1285 0
-1257 -1286 0
-1257 -1287 0
-1257 -1288 0
-1257 -1289 0
-1257 -1290 0
-1257 -1291 0
-1257 -1292 0
-1257 -1293 0
-1257 -1294 0
-1257 -1295 0
-1257 -1296 0
-1257 -1297 0
-1257 -1298 0
-1257 -1299 0
-1257 -1300 0
-1257 -1301 0
-1257 -1302 0
-1257 -1303 0
-1258 -1259 0
-1258 -1260 0
-1258 -1261 0
-1258 -1262 0
-1258 -1263 0
-1258 -1264 0
-1258 -1265 0
-1258 -1266 0
-1258 -1267 0
-1258 -1268 0
-1258 -1269 0
-1258 -1270 0
-1258 -1271 0
-1258 -1272 0
-1258 -1273 0
-1258 -1274 0
-1258 -1275 0
-1258 -1276 0
-1258 -1277 0
-1258 -1278 0
-1258 -1279 0
-1258 -1280 0
-1258 -1281 0
-1258 -1282 0
-1258 -1283 0
-1258 -1284 0
-1258 -1285 0
-1258 -1286 0
-1258 -1287 0
-1258 -1288 0
-1258 -1289 0
-1258 -1290 0
-1258 -1291 0
-1258 -1292 0
-1258 -1293 0
-1258 -1294 0
-1258 -1295 0
-1258 -1296 0
-1258 -1297 0
-1258 -1298 0
-1258 -1299 0
-1258 -1300 0
-1258 -1301 0
-1258 -1302 0
-1258 -1303 0
-1259 -1260 0
-1259 -1261 0
-1259 -1262 0
-1259 -1263 0
-1259 -1264 0
-1259 -1265 0
-1259 -1266 0
-1259 -1267 0
-1259 -1268 0
-1259 -1269 0
-1259 -1270 0
-1259 -1271 0
-1259 -1272 0
-1259 -1273 0
-1259 -1274 0
-1259 -1275 0
-1259 -1276 0
-1259 -1277 0
-1259 -1278 0
-1259 -1279 0
-1259 -1280 0
-1259 -1281 0
-1259 -1282 0
-1259 -1283 0
-1259 -1284 0
-1259 -1285 0
-1259 -1286 0
-1259 -1287 0
-1259 -1288 0
-1259 -1289 0
-1259 -1290 0
-1259 -1291 0
-1259 -1292 0
-1259 -1293 0
-1259 -1294 0
-1259 -1295 0
-1259 -1296 0
-1259 -1297 0
-1259 -1298 0
-1259 -1299 0
-1259 -1300 0
-1259 -1301 0
-1259 -1302 0
-1259 -1303 0
-1260 -1261 0
-1260 -1262 0
-1260 -1263 0
-1260 -1264 0
-1260 -1265 0
-1260 -1266 0
-1260 -1267 0
-1260 -1268 0
-1260 -1269 0
-1260 -1270 0
-1260 -1271 0
-1260 -1272 0
-1260 -1273 0
-1260 -1274 0
-1260 -1275 0
-1260 -1276 0
-1260 -1277 0
-1260 -1278 0
-1260 -1279 0
-1260 -1280 0
-1260 -1281 0
-1260 -1282 0
-1260 -1283 0
-1260 -1284 0
-1260 -1285 0
-1260 -1286 0
-1260 -1287 0
-1260 -1288 0
-1260 -1289 0
-1260 -1290 0
-1260 -1291 0
-1260 -1292 0
-1260 -1293 0
-1260 -1294 0
-1260 -1295 0
-1260 -1296 0
-1260 -1297 0
-1260 -1298 0
-1260 -1299 0
-1260 -1300 0
-1260 -1301 0
-1260 -1302 0
-1260 -1303 0
-1261 -1262 0
-1261 -1263 0
-1261 -1264 0
-1261 -1265 0
-1261 -1266 0
-1261 -1267 0
-1261 -1268 0
-1261 -1269 0
-1261 -1270 0
-1261 -1271 0
-1261 -1272 0
-1261 -1273 0
-1261 -1274 0
-1261 -1275 0
-1261 -1276 0
-1261 -1277 0
-1261 -1278 0
-1261 -1279 0
-1261 -1280 0
-1261 -1281 0
-1261 -1282 0
-1261 -1283 0
-1261 -1284 0
-1261 -1285 0
-1261 -1286 0
-1261 -1287 0
-1261 -1288 0
-1261 -1289 0
-1261 -1290 0
-1261 -1291 0
-1261 -1292 0
-1261 -1293 0
-1261 -1294 0
-1261 -1295 0
-1261 -1296 0
-1261 -1297 0
-1261 -1298 0
-1261 -1299 0
-1261 -1300 0
-1261 -1301 0
-1261 -1302 0
-1261 -1303 0
-1262 -1263 0
-1262 -1264 0
-1262 -1265 0
-1262 -1266 0
-1262 -1267 0
-1262 -1268 0
-1262 -1269 0
-1262 -1270 0
-1262 -1271 0
-1262 -1272 0
-1262 -1273 0
-1262 -1274 0
-1262 -1275 0
-1262 -1276 0
-1262 -1277 0
-1262 -1278 0
-1262 -1279 0
-1262 -1280 0
-1262 -1281 0
-1262 -1282 0
-1262 -1283 0
-1262 -1284 0
-1262 -1285 0
-1262 -1286 0
-1262 -1287 0
-1262 -1288 0
-1262 -1289 0
-1262 -1290 0
-1262 -1291 0
-1262 -1292 0
-1262 -1293 0
-1262 -1294 0
-1262 -1295 0
-1262 -1296 0
-1262 -1297 0
-1262 -1298 0
-1262 -1299 0
-1262 -1300 0
-1262 -1301 0
-1262 -1302 0
-1262 -1303 0
-1263 -1264 0
-1263 -1265 0
-1263 -1266 0
-1263 -1267 0
-1263 -1268 0
-1263 -1269 0
-1263 -1270 0
-1263 -1271 0
-1263 -1272 0
-1263 -1273 0
-1263 -1274 0
-1263 -1275 0
-1263 -1276 0
-1263 -1277 0
-1263 -1278 0
-1263 -1279 0
-1263 -1280 0
-1263 -1281 0
-1263 -1282 0
-1263 -1283 0
-1263 -1284 0
-1263 -1285 0
-1263 -1286 0
-1263 -1287 0
-1263 -1288 0
-1263 -1289 0
-1263 -1290 0
-1263 -1291 0
-1263 -1292 0
-1263 -1293 0
-1263 -1294 0
-1263 -1295 0
-1263 -1296 0
-1263 -1297 0
-1263 -1298 0
-1263 -1299 0
-1263 -1300 0
-1263 -1301 0
-1263 -1302 0
-1263 -1303 0
-1264 -1265 0
-1264 -1266 0
-1264 -1267 0
-1264 -1268 0
-1264 -1269 0
-1264 -1270 0
-1264 -1271 0
-1264 -1272 0
-1264 -1273 0
-1264 -1274 0
-1264 -1275 0
-1264 -1276 0
-1264 -1277 0
-1264 -1278 0
-1264 -1279 0
-1264 -1280 0
-1264 -1281 0
-1264 -1282 0
-1264 -1283 0
-1264 -1284 0
-1264 -1285 0
-1264 -1286 0
-1264 -1287 0
-1264 -1288 0
-1264 -1289 0
-1264 -1290 0
-1264 -1291 0
-1264 -1292 0
-1264 -1293 0
-1264 -1294 0
-1264 -1295 0
-1264 -1296 0
-1264 -1297 0
-1264 -1298 0
-1264 -1299 0
-1264 -1300 0
-1264 -1301 0
-1264 -1302 0
-1264 -1303 0
-1265 -1266 0
-1265 -1267 0
-1265 -1268 0
-1265 -1269 0
-1265 -1270 0
-1265 -1271 0
-1265 -1272 0
-1265 -1273 0
-1265 -1274 0
-1265 -1275 0
-1265 -1276 0
-1265 -1277 0
-1265 -1278 0
-1265 -1279 0
-1265 -1280 0
-1265 -1281 0
-1265 -1282 0
-1265 -1283 0
-1265 -1284 0
-1265 -1285 0
-1265 -1286 0
-1265 -1287 0
-1265 -1288 0
-1265 -1289 0
-1265 -1290 0
-1265 -1291 0
-1265 -1292 0
-1265 -1293 0
-1265 -1294 0
-1265 -1295 0
-1265 -1296 0
-1265 -1297 0
-1265 -1298 0
-1265 -1299 0
-1265 -1300 0
-1265 -1301 0
-1265 -1302 0
-1265 -1303 0
-1266 -1267 0
-1266 -1268 0
-1266 -1269 0
-1266 -1270 0
-1266 -1271 0
-1266 -1272 0
-1266 -1273 0
-1266 -1274 0
-1266 -1275 0
-1266 -1276 0
-1266 -1277 0
-1266 -1278 0
-1266 -1279 0
-1266 -1280 0
-1266 -1281 0
-1266 -1282 0
-1266 -1283 0
-1266 -1284 0
-1266 -1285 0
-1266 -1286 0
-1266 -1287 0
-1266 -1288 0
-1266 -1289 0
-1266 -1290 0
-1266 -1291 0
-1266 -1292 0
-1266 -1293 0
-1266 -1294 0
-1266 -1295 0
-1266 -1296 0
-1266 -1297 0
-1266 -1298 0
-1266 -1299 0
-1266 -1300 0
-1266 -1301 0
-1266 -1302 0
-1266 -1303 0
-1267 -1268 0
-1267 -1269 0
-1267 -1270 0
-1267 -1271 0
-1267 -1272 0
-1267 -1273 0
-1267 -1274 0
-1267 -1275 0
-1267 -1276 0
-1267 -1277 0
-1267 -1278 0
-1267 -1279 0
-1267 -1280 0
-1267 -1281 0
-1267 -1282 0
-1267 -1283 0
-1267 -1284 0
-1267 -1285 0
-1267 -1286 0
-1267 -1287 0
-1267 -1288 0
-1267 -1289 0
-1267 -1290 0
-1267 -1291 0
-1267 -1292 0
-1267 -1293 0
-1267 -1294 0
-1267 -1295 0
-1267 -1296 0
-1267 -1297 0
-1267 -1298 0
-1267 -1299 0
-1267 -1300 0
-1267 -1301 0
-1267 -1302 0
-1267 -1303 0
-1268 -1269 0
-1268 -1270 0
-1268 -1271 0
-1268 -1272 0
-1268 -1273 0
-1268 -1274 0
-1268 -1275 0
-1268 -1276 0
-1268 -1277 0
-1268 -1278 0
-1268 -1279 0
-1268 -1280 0
-1268 -1281 0
-1268 -1282 0
-1268 -1283 0
-1268 -1284 0
-1268 -1285 0
-1268 -1286 0
-1268 -1287 0
-1268 -1288 0
-1268 -1289 0
-1268 -1290 0
-1268 -1291 0
-1268 -1292 0
-1268 -1293 0
-1268 -1294 0
-1268 -1295 0
-1268 -1296 0
-1268 -1297 0
-1268 -1298 0
-1268 -1299 0
-1268 -1300 0
-1268 -1301 0
-1268 -1302 0
-1268 -1303 0
-1269 -1270 0
-1269 -1271 0
-1269 -1272 0
-1269 -1273 0
-1269 -1274 0
-1269 -1275 0
-1269 -1276 0
-1269 -1277 0
-1269 -1278 0
-1269 -1279 0
-1269 -1280 0
-1269 -1281 0
-1269 -1282 0
-1269 -1283 0
-1269 -1284 0
-1269 -1285 0
-1269 -1286 0
-1269 -1287 0
-1269 -1288 0
-1269 -1289 0
-1269 -1290 0
-1269 -1291 0
-1269 -1292 0
-1269 -1293 0
-1269 -1294 0
-1269 -1295 0
-1269 -1296 0
-1269 -1297 0
-1269 -1298 0
-1269 -1299 0
-1269 -1300 0
-1269 -1301 0
-1269 -1302 0
-1269 -1303 0
-1270 -1271 0
-1270 -1272 0
-1270 -1273 0
-1270 -1274 0
-1270 -1275 0
-1270 -1276 0
-1270 -1277 0
-1270 -1278 0
-1270 -1279 0
-1270 -1280 0
-1270 -1281 0
-1270 -1282 0
-1270 -1283 0
-1270 -1284 0
-1270 -1285 0
-1270 -1286 0
-1270 -1287 0
-1270 -1288 0
-1270 -1289 0
-1270 -1290 0
-1270 -1291 0
-1270 -1292 0
-1270 -1293 0
-1270 -1294 0
-1270 -1295 0
-1270 -1296 0
-1270 -1297 0
-1270 -1298 0
-1270 -1299 0
-1270 -1300 0
-1270 -1301 0
-1270 -1302 0
-1270 -1303 0
-1271 -1272 0
-1271 -1273 0
-1271 -1274 0
-1271 -1275 0
-1271 -1276 0
-1271 -1277 0
-1271 -1278 0
-1271 -1279 0
-1271 -1280 0
-1271 -1281 0
-1271 -1282 0
-1271 -1283 0
-1271 -1284 0
-1271 -1285 0
-1271 -1286 0
-1271 -1287 0
-1271 -1288 0
-1271 -1289 0
-1271 -1290 0
-1271 -1291 0
-1271 -1292 0
-1271 -1293 0
-1271 -1294 0
-1271 -1295 0
-1271 -1296 0
-1271 -1297 0
-1271 -1298 0
-1271 -1299 0
-1271 -1300 0
-1271 -1301 0
-1271 -1302 0
-1271 -1303 0
-1272 -1273 0
-1272 -1274 0
-1272 -1275 0
-1272 -1276 0
-1272 -1277 0
-1272 -1278 0
-1272 -1279 0
-1272 -1280 0
-1272 -1281 0
-1272 -1282 0
-1272 -1283 0
-1272 -1284 0
-1272 -1285 0
-1272 -1286 0
-1272 -1287 0
-1272 -1288 0
-1272 -1289 0
-1272 -1290 0
-1272 -1291 0
-1272 -1292 0
-1272 -1293 0
-1272 -1294 0
-1272 -1295 0
-1272 -1296 0
-1272 -1297 0
-1272 -1298 0
-1272 -1299 0
-1272 -1300 0
-1272 -1301 0
-1272 -1302 0
-1272 -1303 0
-1273 -1274 0
-1273 -1275 0
-1273 -1276 0
-1273 -1277 0
-1273 -1278 0
-1273 -1279 0
-1273 -1280 0
-1273 -1281 0
-1273 -1282 0
-1273 -1283 0
-1273 -1284 0
-1273 -1285 0
-1273 -1286 0
-1273 -1287 0
-1273 -1288 0
-1273 -1289 0
-1273 -1290 0
-1273 -1291 0
-1273 -1292 0
-1273 -1293 0
-1273 -1294 0
-1273 -1295 0
-1273 -1296 0
-1273 -1297 0
-1273 -1298 0
-1273 -1299 0
-1273 -1300 0
-1273 -1301 0
-1273 -1302 0
-1273 -1303 0
-1274 -1275 0
-1274 -1276 0
-1274 -1277 0
-1274 -1278 0
-1274 -1279 0
-1274 -1280 0
-1274 -1281 0
-1274 -1282 0
-1274 -1283 0
-1274 -1284 0
-1274 -1285 0
-1274 -1286 0
-1274 -1287 0
-1274 -1288 0
-1274 -1289 0
-1274 -1290 0
-1274 -1291 0
-1274 -1292 0
-1274 -1293 0
-1274 -1294 0
-1274 -1295 0
-1274 -1296 0
-1274 -1297 0
-1274 -1298 0
-1274 -1299 0
-1274 -1300 0
-1274 -1301 0
-1274 -1302 0
-1274 -1303 0
-1275 -1276 0
-1275 -1277 0
-1275 -1278 0
-1275 -1279 0
-1275 -1280 0
-1275 -1281 0
-1275 -1282 0
-1275 -1283 0
-1275 -1284 0
-1275 -1285 0
-1275 -1286 0
-1275 -1287 0
-1275 -1288 0
-1275 -1289 0
-1275 -1290 0
-1275 -1291 0
-1275 -1292 0
-1275 -1293 0
-1275 -1294 0
-1275 -1295 0
-1275 -1296 0
-1275 -1297 0
-1275 -1298 0
-1275 -1299 0
-1275 -1300 0
-1275 -1301 0
-1275 -1302 0
-1275 -1303 0
-1276 -1277 0
-1276 -1278 0
-1276 -1279 0
-1276 -1280 0
-1276 -1281 0
-1276 -1282 0
-1276 -1283 0
-1276 -1284 0
-1276 -1285 0
-1276 -1286 0
-1276 -1287 0
-1276 -1288 0
-1276 -1289 0
-1276 -1290 0
-1276 -1291 0
-1276 -1292 0
-1276 -1293 0
-1276 -1294 0
-1276 -1295 0
-1276 -1296 0
-1276 -1297 0
-1276 -1298 0
-1276 -1299 0
-1276 -1300 0
-1276 -1301 0
-1276 -1302 0
-1276 -1303 0
-1277 -1278 0
-1277 -1279 0
-1277 -1280 0
-1277 -1281 0
-1277 -1282 0
-1277 -1283 0
-1277 -1284 0
-1277 -1285 0
-1277 -1286 0
-1277 -1287 0
-1277 -1288 0
-1277 -1289 0
-1277 -1290 0
-1277 -1291 0
-1277 -1292 0
-1277 -1293 0
-1277 -1294 0
-1277 -1295 0
-1277 -1296 0
-1277 -1297 0
-1277 -1298 0
-1277 -1299 0
-1277 -1300 0
-1277 -1301 0
-1277 -1302 0
-1277 -1303 0
-1278 -1279 0
-1278 -1280 0
-1278 -1281 0
-1278 -1282 0
-1278 -1283 0
-1278 -1284 0
-1278 -1285 0
-1278 -1286 0
-1278 -1287 0
-1278 -1288 0
-1278 -1289 0
-1278 -1290 0
-1278 -1291 0
-1278 -1292 0
-1278 -1293 0
-1278 -1294 0
-1278 -1295 0
-1278 -1296 0
-1278 -1297 0
-1278 -1298 0
-1278 -1299 0
-1278 -1300 0
-1278 -1301 0
-1278 -1302 0
-1278 -1303 0
-1279 -1280 0
-1279 -1281 0
-1279 -1282 0
-1279 -1283 0
-1279 -1284 0
-1279 -1285 0
-1279 -1286 0
-1279 -1287 0
-1279 -1288 0
-1279 -1289 0
-1279 -1290 0
-1279 -1291 0
-1279 -1292 0
-1279 -1293 0
-1279 -1294 0
-1279 -1295 0
-1279 -1296 0
-1279 -1297 0
-1279 -1298 0
-1279 -1299 0
-1279 -1300 0
-1279 -1301 0
-1279 -1302 0
-1279 -1303 0
-1280 -1281 0
-1280 -1282 0
-1280 -1283 0
-1280 -1284 0
-1280 -1285 0
-1280 -1286 0
-1280 -1287 0
-1280 -1288 0
-1280 -1289 0
-1280 -1290 0
-1280 -1291 0
-1280 -1292 0
-1280 -1293 0
-1280 -1294 0
-1280 -1295 0
-1280 -1296 0
-1280 -1297 0
-1280 -1298 0
-1280 -1299 0
-1280 -1300 0
-1280 -1301 0
-1280 -1302 0
-1280 -1303 0
-1281 -1282 0
-1281 -1283 0
-1281 -1284 0
-1281 -1285 0
-1281 -1286 0
-1281 -1287 0
-1281 -1288 0
-1281 -1289 0
-1281 -1290 0
-1281 -1291 0
-1281 -1292 0
-1281 -1293 0
-1281 -1294 0
-1281 -1295 0
-1281 -1296 0
-1281 -1297 0
-1281 -1298 0
-1281 -1299 0
-1281 -1300 0
-1281 -1301 0
-1281 -1302 0
-1281 -1303 0
-1282 -1283 0
-1282 -1284 0
-1282 -1285 0
-1282 -1286 0
-1282 -1287 0
-1282 -1288 0
-1282 -1289 0
-1282 -1290 0
-1282 -1291 0
-1282 -1292 0
-1282 -1293 0
-1282 -1294 0
-1282 -1295 0
-1282 -1296 0
-1282 -1297 0
-1282 -1298 0
-1282 -1299 0
-1282 -1300 0
-1282 -1301 0
-1282 -1302 0
-1282 -1303 0
-1283 -1284 0
-1283 -1285 0
-1283 -1286 0
-1283 -1287 0
-1283 -1288 0
-1283 -1289 0
-1283 -1290 0
-1283 -1291 0
-1283 -1292 0
-1283 -1293 0
-1283 -1294 0
-1283 -1295 0
-1283 -1296 0
-1283 -1297 0
-1283 -1298 0
-1283 -1299 0
-1283 -1300 0
-1283 -1301 0
-1283 -1302 0
-1283 -1303 0
-1284 -1285 0
-1284 -1286 0
-1284 -1287 0
-1284 -1288 0
-1284 -1289 0
-1284 -1290 0
-1284 -1291 0
-1284 -1292 0
-1284 -1293 0
-1284 -1294 0
-1284 -1295 0
-1284 -1296 0
-1284 -1297 0
-1284 -1298 0
-1284 -1299 0
-1284 -1300 0
-1284 -1301 0
-1284 -1302 0
-1284 -1303 0
-1285 -1286 0
-1285 -1287 0
-1285 -1288 0
-1285 -1289 0
-1285 -1290 0
-1285 -1291 0
-1285 -1292 0
-1285 -1293 0
-1285 -1294 0
-1285 -1295 0
-1285 -1296 0
-1285 -1297 0
-1285 -1298 0
-1285 -1299 0
-1285 -1300 0
-1285 -1301 0
-1285 -1302 0
-1285 -1303 0
-1286 -1287 0
-1286 -1288 0
-1286 -1289 0
-1286 -1290 0
-1286 -1291 0
-1286 -1292 0
-1286 -1293 0
-1286 -1294 0
-1286 -1295 0
-1286 -1296 0
-1286 -1297 0
-1286 -1298 0
-1286 -1299 0
-1286 -1300 0
-1286 -1301 0
-1286 -1302 0
-1286 -1303 0
-1287 -1288 0
-1287 -1289 0
-1287 -1290 0
-1287 -1291 0
-1287 -1292 0
-1287 -1293 0
-1287 -1294 0
-1287 -1295 0
-1287 -1296 0
-1287 -1297 0
-1287 -1298 0
-1287 -1299 0
-1287 -1300 0
-1287 -1301 0
-1287 -1302 0
-1287 -1303 0
-1288 -1289 0
-1288 -1290 0
-1288 -1291 0
-1288 -1292 0
-1288 -1293 0
-1288 -1294 0
-1288 -1295 0
-1288 -1296 0
-1288 -1297 0
-1288 -1298 0
-1288 -1299 0
-1288 -1300 0
-1288 -1301 0
-1288 -1302 0
-1288 -1303 0
-1289 -1290 0
-1289 -1291 0
-1289 -1292 0
-1289 -1293 0
-1289 -1294 0
-1289 -1295 0
-1289 -1296 0
-1289 -1297 0
-1289 -1298 0
-1289 -1299 0
-1289 -1300 0
-1289 -1301 0
-1289 -1302 0
-1289 -1303 0
-1290 -1291 0
-1290 -1292 0
-1290 -1293 0
-1290 -1294 0
-1290 -1295 0
-1290 -1296 0
-1290 -1297 0
-1290 -1298 0
-1290 -1299 0
-1290 -1300 0
-1290 -1301 0
-1290 -1302 0
-1290 -1303 0
-1291 -1292 0
-1291 -1293 0
-1291 -1294 0
-1291 -1295 0
-1291 -1296 0
-1291 -1297 0
-1291 -1298 0
-1291 -1299 0
-1291 -1300 0
-1291 -1301 0
-1291 -1302 0
-1291 -1303 0
-1292 -1293 0
-1292 -1294 0
-1292 -1295 0
-1292 -1296 0
-1292 -1297 0
-1292 -1298 0
-1292 -1299 0
-1292 -1300 0
-1292 -1301 0
-1292 -1302 0
-1292 -1303 0
-1293 -1294 0
-1293 -1295 0
-1293 -1296 0
-1293 -1297 0
-1293 -1298 0
-1293 -1299 0
-1293 -1300 0
-1293 -1301 0
-1293 -1302 0
-1293 -1303 0
-1294 -1295 0
-1294 -1296 0
-1294 -1297 0
-1294 -1298 0
-1294 -1299 0
-1294 -1300 0
-1294 -1301 0
-1294 -1302 0
-1294 -1303 0
-1295 -1296 0
-1295 -1297 0
-1295 -1298 0
-1295 -1299 0
-1295 -1300 0
-1295 -1301 0
-1295 -1302 0
-1295 -1303 0
-1296 -1297 0
-1296 -1298 0
-1296 -1299 0
-1296 -1300 0
-1296 -1301 0
-1296 -1302 0
-1296 -1303 0
-1297 -1298 0
-1297 -1299 0
-1297 -1300 0
-1297 -1301 0
-1297 -1302 0
-1297 -1303 0
-1298 -1299 0
-1298 -1300 0
-1298 -1301 0
-1298 -1302 0
-1298 -1303 0
-1299 -1300 0
-1299 -1301 0
-1299 -1302 0
-1299 -1303 0
-1300 -1301 0
-1300 -1302 0
-1300 -1303 0
-1301 -1302 0
-1301 -1303 0
-1302 -1303 0
-1304 1220 1221 1222 1223 1224 1225 1226 1227 1228 1229 1230 1231 1232 1233 1234 1235 1236 1237 1238 1239 1240 1241 1242 1243 0
-1220 1304 0
-1221 1304 0
-1222 1304 0
-1223 1304 0
-1224 1304 0
-1225 1304 0
-1226 1304 0
-1227 1304 0
-1228 1304 0
-1229 1304 0
-1230 1304 0
-1231 1304 0
-1232 1304 0
-1233 1304 0
-1234 1304 0
-1235 1304 0
-1236 1304 0
-1237 1304 0
-1238 1304 0
-1239 1304 0
-1240 1304 0
-1241 1304 0
-1242 1304 0
-1243 1304 0
1304 -299 448 0
1304 299 -448 0
1304 -300 449 0
1304 300 -449 0
1304 -301 450 0
1304 301 -450 0
1304 -302 451 0
1304 302 -451 0
1304 -303 452 0
1304 303 -452 0
1304 -304 453 0
1304 304 -453 0
1304 -305 454 0
1304 305 -454 0
1304 -306 455 0
1304 306 -455 0
1304 -307 456 0
1304 307 -456 0
1304 -308 457 0
1304 308 -457 0
-1305 1244 1245 1246 1247 1248 1249 1250 1251 1252 1253 1254 1255 1256 1257 1258 1259 1260 1261 1262 1263 1264 1265 1266 1267 0
-1244 1305 0
-1245 1305 0
-1246 1305 0
-1247 1305 0
-1248 1305 0
-1249 1305 0
-1250 1305 0
-1251 1305 0
-1252 1305 0
-1253 1305 0
-1254 1305 0
-1255 1305 0
-1256 1305 0
-1257 1305 0
-1258 1305 0
-1259 1305 0
-1260 1305 0
-1261 1305 0
-1262 1305 0
-1263 1305 0
-1264 1305 0
-1265 1305 0
-1266 1305 0
-1267 1305 0
1305 -309 458 0
1305 309 -458 0
1305 -310 459 0
1305 310 -459 0
1305 -311 460 0
1305 311 -460 0
1305 -312 461 0
1305 312 -461 0
1305 -313 462 0
1305 313 -462 0
1305 -314 463 0
1305 314 -463 0
1305 -315 464 0
1305 315 -464 0
1305 -316 465 0
1305 316 -465 0
1305 -317 466 0
1305 317 -466 0
1305 -318 467 0
1305 318 -467 0
-1306 1268 1269 1270 1271 1272 1273 1274 1275 1276 1277 1278 1279 1280 1281 1282 1283 1284 1285 1286 1287 0
-1268 1306 0
-1269 1306 0
-1270 1306 0
-1271 1306 0
-1272 1306 0
-1273 1306 0
-1274 1306 0
-1275 1306 0
-1276 1306 0
-1277 1306 0
-1278 1306 0
-1279 1306 0
-1280 1306 0
-1281 1306 0
-1282 1306 0
-1283 1306 0
-1284 1306 0
-1285 1306 0
-1286 1306 0
-1287 1306 0
1306 -319 468 0
1306 319 -468 0
1306 -320 469 0
1306 320 -469 0
1306 -321 470 0
1306 321 -470 0
1306 -322 471 0
1306 322 -471 0
1306 -323 472 0
1306 323 -472 0
1306 -324 473 0
1306 324 -473 0
1306 -325 474 0
1306 325 -474 0
1306 -326 475 0
1306 326 -475 0
1306 -327 476 0
1306 327 -476 0
-1307 1288 1289 1290 1291 1292 1293 1294 1295 1296 1297 1298 1299 1300 1301 1302 1303 0
-1288 1307 0
-1289 1307 0
-1290 1307 0
-1291 1307 0
-1292 1307 0
-1293 1307 0
-1294 1307 0
-1295 1307 0
-1296 1307 0
-1297 1307 0
-1298 1307 0
-1299 1307 0
-1300 1307 0
-1301 1307 0
-1302 1307 0
-1303 1307 0
1307 -328 477 0
1307 328 -477 0
1307 -329 478 0
1307 329 -478 0
1307 -330 479 0
1307 330 -479 0
1307 -331 480 0
1307 331 -480 0
1307 -332 481 0
1307 332 -481 0
1307 -333 482 0
1307 333 -482 0
1307 -334 483 0
1307 334 -483 0
1307 -335 484 0
1307 335 -484 0
-1220 444 0
-1220 448 0
-1220 -310 0
-1220 -311 0
-1220 -312 0
-1220 -313 0
-1220 -314 0
-1220 -318 0
-1220 -315 455 0
-1220 -315 -299 -306 0
-1220 -315 -361 0
-1220 -315 -362 0
-1220 -315 -363 0
-1220 -315 -385 0
-1220 -315 -386 0
-1220 -315 -387 0
-1220 -315 -405 0
-1220 -315 -406 0
-1220 -315 -407 0
-1220 -316 456 0
-1220 -316 -299 -307 0
-1220 -316 -362 0
-1220 -316 -363 0
-1220 -316 -386 0
-1220 -316 -387 0
-1220 -316 -406 0
-1220 -316 -407 0
-1220 -317 457 0
-1220 -317 -299 -308 0
-1220 -317 -363 0
-1220 -317 -387 0
-1220 -317 -407 0
-1221 444 0
-1221 449 0
-1221 -309 0
-1221 -311 0
-1221 -312 0
-1221 -313 0
-1221 -314 0
-1221 -318 0
-1221 -315 455 0
-1221 -315 -300 -306 0
-1221 -315 -365 0
-1221 -315 -366 0
-1221 -315 -367 0
-1221 -315 -385 0
-1221 -315 -386 0
-1221 -315 -387 0
-1221 -315 -389 0
-1221 -315 -390 0
-1221 -315 -391 0
-1221 -315 -405 0
-1221 -315 -406 0
-1221 -315 -407 0
-1221 -315 -409 0
-1221 -315 -410 0
-1221 -315 -411 0
-1221 -316 456 0
-1221 -316 -300 -307 0
-1221 -316 -366 0
-1221 -316 -367 0
-1221 -316 -386 0
-1221 -316 -387 0
-1221 -316 -390 0
-1221 -316 -391 0
-1221 -316 -406 0
-1221 -316 -407 0
-1221 -316 -410 0
-1221 -316 -411 0
-1221 -317 457 0
-1221 -317 -300 -308 0
-1221 -317 -367 0
-1221 -317 -387 0
-1221 -317 -391 0
-1221 -317 -407 0
-1221 -317 -411 0
-1222 444 0
-1222 450 0
-1222 -309 0
-1222 -310 0
-1222 -312 0
-1222 -313 0
-1222 -314 0
-1222 -318 0
-1222 -315 455 0
-1222 -315 -301 -306 0
-1222 -315 -369 0
-1222 -315 -370 0
-1222 -315 -371 0
-1222 -315 -389 0
-1222 -315 -390 0
-1222 -315 -391 0
-1222 -315 -393 0
-1222 -315 -394 0
-1222 -315 -395 0
-1222 -315 -405 0
-1222 -315 -406 0
-1222 -315 -407 0
-1222 -315 -409 0
-1222 -315 -410 0
-1222 -315 -411 0
-1222 -315 -413 0
-1222 -315 -414 0
-1222 -315 -415 0
-1222 -316 456 0
-1222 -316 -301 -307 0
-1222 -316 -370 0
-1222 -316 -371 0
-1222 -316 -390 0
-1222 -316 -391 0
-1222 -316 -394 0
-1222 -316 -395 0
-1222 -316 -406 0
-1222 -316 -407 0
-1222 -316 -410 0
-1222 -316 -411 0
-1222 -316 -414 0
-1222 -316 -415 0
-1222 -317 457 0
-1222 -317 -301 -308 0
-1222 -317 -371 0
-1222 -317 -391 0
-1222 -317 -395 0
-1222 -317 -407 0
-1222 -317 -411 0
-1222 -317 -415 0
-1223 444 0
-1223 451 0
-1223 -309 0
-1223 -310 0
-1223 -311 0
-1223 -313 0
-1223 -314 0
-1223 -318 0
-1223 -315 455 0
-1223 -315 -302 -306 0
-1223 -315 -373 0
-1223 -315 -374 0
-1223 -315 -375 0
-1223 -315 -393 0
-1223 -315 -394 0
-1223 -315 -395 0
-1223 -315 -397 0
-1223 -315 -398 0
-1223 -315 -399 0
-1223 -315 -409 0
-1223 -315 -410 0
-1223 -315 -411 0
-1223 -315 -413 0
-1223 -315 -414 0
-1223 -315 -415 0
-1223 -315 -417 0
-1223 -315 -418 0
-1223 -315 -419 0
-1223 -316 456 0
-1223 -316 -302 -307 0
-1223 -316 -374 0
-1223 -316 -375 0
-1223 -316 -394 0
-1223 -316 -395 0
-1223 -316 -398 0
-1223 -316 -399 0
-1223 -316 -410 0
-1223 -316 -411 0
-1223 -316 -414 0
-1223 -316 -415 0
-1223 -316 -418 0
-1223 -316 -419 0
-1223 -317 457 0
-1223 -317 -302 -308 0
-1223 -317 -375 0
-1223 -317 -395 0
-1223 -317 -399 0
-1223 -317 -411 0
-1223 -317 -415 0
-1223 -317 -419 0
-1224 444 0
-1224 452 0
-1224 -309 0
-1224 -310 0
-1224 -311 0
-1224 -312 0
-1224 -314 0
-1224 -318 0
-1224 -315 455 0
-1224 -315 -303 -306 0
-1224 -315 -377 0
-1224 -315 -378 0
-1224 -315 -379 0
-1224 -315 -397 0
-1224 -315 -398 0
-1224 -315 -399 0
-1224 -315 -401 0
-1224 -315 -402 0
-1224 -315 -403 0
-1224 -315 -413 0
-1224 -315 -414 0
-1224 -315 -415 0
-1224 -315 -417 0
-1224 -315 -418 0
-1224 -315 -419 0
-1224 -316 456 0
-1224 -316 -303 -307 0
-1224 -316 -378 0
-1224 -316 -379 0
-1224 -316 -398 0
-1224 -316 -399 0
-1224 -316 -402 0
-1224 -316 -403 0
-1224 -316 -414 0
-1224 -316 -415 0
-1224 -316 -418 0
-1224 -316 -419 0
-1224 -317 457 0
-1224 -317 -303 -308 0
-1224 -317 -379 0
-1224 -317 -399 0
-1224 -317 -403 0
-1224 -317 -415 0
-1224 -317 -419 0
-1225 444 0
-1225 453 0
-1225 -309 0
-1225 -310 0
-1225 -311 0
-1225 -312 0
-1225 -313 0
-1225 -318 0
-1225 -315 455 0
-1225 -315 -304 -306 0
-1225 -315 -381 0
-1225 -315 -382 0
-1225 -315 -383 0
-1225 -315 -401 0
-1225 -315 -402 0
-1225 -315 -403 0
-1225 -315 -417 0
-1225 -315 -418 0
-1225 -315 -419 0
-1225 -316 456 0
-1225 -316 -304 -307 0
-1225 -316 -382 0
-1225 -316 -383 0
-1225 -316 -402 0
-1225 -316 -403 0
-1225 -316 -418 0
-1225 -316 -419 0
-1225 -317 457 0
-1225 -317 -304 -308 0
-1225 -317 -383 0
-1225 -317 -403 0
-1225 -317 -419 0
-1226 444 0
-1226 448 0
-1226 -320 0
-1226 -321 0
-1226 -322 0
-1226 -323 0
-1226 -327 0
-1226 -324 455 0
-1226 -324 -299 -306 0
-1226 -324 -361 0
-1226 -324 -362 0
-1226 -324 -363 0
-1226 -324 -385 0
-1226 -324 -386 0
-1226 -324 -387 0
-1226 -324 -405 0
-1226 -324 -406 0
-1226 -324 -407 0
-1226 -325 456 0
-1226 -325 -299 -307 0
-1226 -325 -362 0
-1226 -325 -363 0
-1226 -325 -386 0
-1226 -325 -387 0
-1226 -325 -406 0
-1226 -325 -407 0
-1226 -326 457 0
-1226 -326 -299 -308 0
-1226 -326 -363 0
-1226 -326 -387 0
-1226 -326 -407 0
-1227 444 0
-1227 449 0
-1227 -321 0
-1227 -322 0
-1227 -323 0
-1227 -327 0
-1227 -324 455 0
-1227 -324 -300 -306 0
-1227 -324 -365 0
-1227 -324 -366 0
-1227 -324 -367 0
-1227 -324 -385 0
-1227 -324 -386 0
-1227 -324 -387 0
-1227 -324 -389 0
-1227 -324 -390 0
-1227 -324 -391 0
-1227 -324 -405 0
-1227 -324 -406 0
-1227 -324 -407 0
-1227 -324 -409 0
-1227 -324 -410 0
-1227 -324 -411 0
-1227 -325 456 0
-1227 -325 -300 -307 0
-1227 -325 -366 0
-1227 -325 -367 0
-1227 -325 -386 0
-1227 -325 -387 0
-1227 -325 -390 0
-1227 -325 -391 0
-1227 -325 -406 0
-1227 -325 -407 0
-1227 -325 -410 0
-1227 -325 -411 0
-1227 -326 457 0
-1227 -326 -300 -308 0
-1227 -326 -367 0
-1227 -326 -387 0
-1227 -326 -391 0
-1227 -326 -407 0
-1227 -326 -411 0
-1228 444 0
-1228 450 0
-1228 -319 0
-1228 -322 0
-1228 -323 0
-1228 -327 0
-1228 -324 455 0
-1228 -324 -301 -306 0
-1228 -324 -369 0
-1228 -324 -370 0
-1228 -324 -371 0
-1228 -324 -389 0
-1228 -324 -390 0
-1228 -324 -391 0
-1228 -324 -393 0
-1228 -324 -394 0
-1228 -324 -395 0
-1228 -324 -405 0
-1228 -324 -406 0
-1228 -324 -407 0
-1228 -324 -409 0
-1228 -324 -410 0
-1228 -324 -411 0
-1228 -324 -413 0
-1228 -324 -414 0
-1228 -324 -415 0
-1228 -325 456 0
-1228 -325 -301 -307 0
-1228 -325 -370 0
-1228 -325 -371 0
-1228 -325 -390 0
-1228 -325 -391 0
-1228 -325 -394 0
-1228 -325 -395 0
-1228 -325 -406 0
-1228 -325 -407 0
-1228 -325 -410 0
-1228 -325 -411 0
-1228 -325 -414 0
-1228 -325 -415 0
-1228 -326 457 0
-1228 -326 -301 -308 0
-1228 -326 -371 0
-1228 -326 -391 0
-1228 -326 -395 0
-1228 -326 -407 0
-1228 -326 -411 0
-1228 -326 -415 0
-1229 444 0
-1229 451 0
-1229 -319 0
-1229 -320 0
-1229 -323 0
-1229 -327 0
-1229 -324 455 0
-1229 -324 -302 -306 0
-1229 -324 -373 0
-1229 -324 -374 0
-1229 -324 -375 0
-1229 -324 -393 0
-1229 -324 -394 0
-1229 -324 -395 0
-1229 -324 -397 0
-1229 -324 -398 0
-1229 -324 -399 0
-1229 -324 -409 0
-1229 -324 -410 0
-1229 -324 -411 0
-1229 -324 -413 0
-1229 -324 -414 0
-1229 -324 -415 0
-1229 -324 -417 0
-1229 -324 -418 0
-1229 -324 -419 0
-1229 -325 456 0
-1229 -325 -302 -307 0
-1229 -325 -374 0
-1229 -325 -375 0
-1229 -325 -394 0
-1229 -325 -395 0
-1229 -325 -398 0
-1229 -325 -399 0
-1229 -325 -410 0
-1229 -325 -411 0
-1229 -325 -414 0
-1229 -325 -415 0
-1229 -325 -418 0
-1229 -325 -419 0
-1229 -326 457 0
-1229 -326 -302 -308 0
-1229 -326 -375 0
-1229 -326 -395 0
-1229 -326 -399 0
-1229 -326 -411 0
-1229 -326 -415 0
-1229 -326 -419 0
-1230 444 0
-1230 452 0
-1230 -319 0
-1230 -320 0
-1230 -321 0
-1230 -327 0
-1230 -324 455 0
-1230 -324 -303 -306 0
-1230 -324 -377 0
-1230 -324 -378 0
-1230 -324 -379 0
-1230 -324 -397 0
-1230 -324 -398 0
-1230 -324 -399 0
-1230 -324 -401 0
-1230 -324 -402 0
-1230 -324 -403 0
-1230 -324 -413 0
-1230 -324 -414 0
-1230 -324 -415 0
-1230 -324 -417 0
-1230 -324 -418 0
-1230 -324 -419 0
-1230 -325 456 0
-1230 -325 -303 -307 0
-1230 -325 -378 0
-1230 -325 -379 0
-1230 -325 -398 0
-1230 -325 -399 0
-1230 -325 -402 0
-1230 -325 -403 0
-1230 -325 -414 0
-1230 -325 -415 0
-1230 -325 -418 0
-1230 -325 -419 0
-1230 -326 457 0
-1230 -326 -303 -308 0
-1230 -326 -379 0
-1230 -326 -399 0
-1230 -326 -403 0
-1230 -326 -415 0
-1230 -326 -419 0
-1231 444 0
-1231 453 0
-1231 -319 0
-1231 -320 0
-1231 -321 0
-1231 -322 0
-1231 -327 0
-1231 -324 455 0
-1231 -324 -304 -306 0
-1231 -324 -381 0
-1231 -324 -382 0
-1231 -324 -383 0
-1231 -324 -401 0
-1231 -324 -402 0
-1231 -324 -403 0
-1231 -324 -417 0
-1231 -324 -418 0
-1231 -324 -419 0
-1231 -325 456 0
-1231 -325 -304 -307 0
-1231 -325 -382 0
-1231 -325 -383 0
-1231 -325 -402 0
-1231 -325 -403 0
-1231 -325 -418 0
-1231 -325 -419 0
-1231 -326 457 0
-1231 -326 -304 -308 0
-1231 -326 -383 0
-1231 -326 -403 0
-1231 -326 -419 0
-1232 444 0
-1232 448 0
-1232 -329 0
-1232 -330 0
-1232 -331 0
-1232 -335 0
-1232 -332 455 0
-1232 -332 -299 -306 0
-1232 -332 -361 0
-1232 -332 -362 0
-1232 -332 -363 0
-1232 -332 -385 0
-1232 -332 -386 0
-1232 -332 -387 0
-1232 -332 -405 0
-1232 -332 -406 0
-1232 -332 -407 0
-1232 -333 456 0
-1232 -333 -299 -307 0
-1232 -333 -362 0
-1232 -333 -363 0
-1232 -333 -386 0
-1232 -333 -387 0
-1232 -333 -406 0
-1232 -333 -407 0
-1232 -334 457 0
-1232 -334 -299 -308 0
-1232 -334 -363 0
-1232 -334 -387 0
-1232 -334 -407 0
-1233 444 0
-1233 449 0
-1233 -330 0
-1233 -331 0
-1233 -335 0
-1233 -332 455 0
-1233 -332 -300 -306 0
-1233 -332 -365 0
-1233 -332 -366 0
-1233 -332 -367 0
-1233 -332 -385 0
-1233 -332 -386 0
-1233 -332 -387 0
-1233 -332 -389 0
-1233 -332 -390 0
-1233 -332 -391 0
-1233 -332 -405 0
-1233 -332 -406 0
-1233 -332 -407 0
-1233 -332 -409 0
-1233 -332 -410 0
-1233 -332 -411 0
-1233 -333 456 0
-1233 -333 -300 -307 0
-1233 -333 -366 0
-1233 -333 -367 0
-1233 -333 -386 0
-1233 -333 -387 0
-1233 -333 -390 0
-1233 -333 -391 0
-1233 -333 -406 0
-1233 -333 -407 0
-1233 -333 -410 0
-1233 -333 -411 0
-1233 -334 457 0
-1233 -334 -300 -308 0
-1233 -334 -367 0
-1233 -334 -387 0
-1233 -334 -391 0
-1233 -334 -407 0
-1233 -334 -411 0
-1234 444 0
-1234 450 0
-1234 -331 0
-1234 -335 0
-1234 -332 455 0
-1234 -332 -301 -306 0
-1234 -332 -369 0
-1234 -332 -370 0
-1234 -332 -371 0
-1234 -332 -389 0
-1234 -332 -390 0
-1234 -332 -391 0
-1234 -332 -393 0
-1234 -332 -394 0
-1234 -332 -395 0
-1234 -332 -405 0
-1234 -332 -406 0
-1234 -332 -407 0
-1234 -332 -409 0
-1234 -332 -410 0
-1234 -332 -411 0
-1234 -332 -413 0
-1234 -332 -414 0
-1234 -332 -415 0
-1234 -333 456 0
-1234 -333 -301 -307 0
-1234 -333 -370 0
-1234 -333 -371 0
-1234 -333 -390 0
-1234 -333 -391 0
-1234 -333 -394 0
-1234 -333 -395 0
-1234 -333 -406 0
-1234 -333 -407 0
-1234 -333 -410 0
-1234 -333 -411 0
-1234 -333 -414 0
-1234 -333 -415 0
-1234 -334 457 0
-1234 -334 -301 -308 0
-1234 -334 -371 0
-1234 -334 -391 0
-1234 -334 -395 0
-1234 -334 -407 0
-1234 -334 -411 0
-1234 -334 -415 0
-1235 444 0
-1235 451 0
-1235 -328 0
-1235 -335 0
-1235 -332 455 0
-1235 -332 -302 -306 0
-1235 -332 -373 0
-1235 -332 -374 0
-1235 -332 -375 0
-1235 -332 -393 0
-1235 -332 -394 0
-1235 -332 -395 0
-1235 -332 -397 0
-1235 -332 -398 0
-1235 -332 -399 0
-1235 -332 -409 0
-1235 -332 -410 0
-1235 -332 -411 0
-1235 -332 -413 0
-1235 -332 -414 0
-1235 -332 -415 0
-1235 -332 -417 0
-1235 -332 -418 0
-1235 -332 -419 0
-1235 -333 456 0
-1235 -333 -302 -307 0
-1235 -333 -374 0
-1235 -333 -375 0
-1235 -333 -394 0
-1235 -333 -395 0
-1235 -333 -398 0
-1235 -333 -399 0
-1235 -333 -410 0
-1235 -333 -411 0
-1235 -333 -414 0
-1235 -333 -415 0
-1235 -333 -418 0
-1235 -333 -419 0
-1235 -334 457 0
-1235 -334 -302 -308 0
-1235 -334 -375 0
-1235 -334 -395 0
-1235 -334 -399 0
-1235 -334 -411 0
-1235 -334 -415 0
-1235 -334 -419 0
-1236 444 0
-1236 452 0
-1236 -328 0
-1236 -329 0
-1236 -335 0
-1236 -332 455 0
-1236 -332 -303 -306 0
-1236 -332 -377 0
-1236 -332 -378 0
-1236 -332 -379 0
-1236 -332 -397 0
-1236 -332 -398 0
-1236 -332 -399 0
-1236 -332 -401 0
-1236 -332 -402 0
-1236 -332 -403 0
-1236 -332 -413 0
-1236 -332 -414 0
-1236 -332 -415 0
-1236 -332 -417 0
-1236 -332 -418 0
-1236 -332 -419 0
-1236 -333 456 0
-1236 -333 -303 -307 0
-1236 -333 -378 0
-1236 -333 -379 0
-1236 -333 -398 0
-1236 -333 -399 0
-1236 -333 -402 0
-1236 -333 -403 0
-1236 -333 -414 0
-1236 -333 -415 0
-1236 -333 -418 0
-1236 -333 -419 0
-1236 -334 457 0
-1236 -334 -303 -308 0
-1236 -334 -379 0
-1236 -334 -399 0
-1236 -334 -403 0
-1236 -334 -415 0
-1236 -334 -419 0
-1237 444 0
-1237 453 0
-1237 -328 0
-1237 -329 0
-1237 -330 0
-1237 -335 0
-1237 -332 455 0
-1237 -332 -304 -306 0
-1237 -332 -381 0
-1237 -332 -382 0
-1237 -332 -383 0
-1237 -332 -401 0
-1237 -332 -402 0
-1237 -332 -403 0
-1237 -332 -417 0
-1237 -332 -418 0
-1237 -332 -419 0
-1237 -333 456 0
-1237 -333 -304 -307 0
-1237 -333 -382 0
-1237 -333 -383 0
-1237 -333 -402 0
-1237 -333 -403 0
-1237 -333 -418 0
-1237 -333 -419 0
-1237 -334 457 0
-1237 -334 -304 -308 0
-1237 -334 -383 0
-1237 -334 -403 0
-1237 -334 -419 0
-1238 444 0
-1238 448 0
-1238 454 0
-1238 -299 -305 0
-1238 -360 0
-1238 -361 0
-1238 -362 0
-1238 -363 0
-1238 -384 0
-1238 -385 0
-1238 -386 0
-1238 -387 0
-1238 -404 0
-1238 -405 0
-1238 -406 0
-1238 -407 0
-1239 444 0
-1239 449 0
-1239 454 0
-1239 -300 -305 0
-1239 -364 0
-1239 -365 0
-1239 -366 0
-1239 -367 0
-1239 -384 0
-1239 -385 0
-1239 -386 0
-1239 -387 0
-1239 -388 0
-1239 -389 0
-1239 -390 0
-1239 -391 0
-1239 -404 0
-1239 -405 0
-1239 -406 0
-1239 -407 0
-1239 -408 0
-1239 -409 0
-1239 -410 0
-1239 -411 0
-1240 444 0
-1240 450 0
-1240 454 0
-1240 -301 -305 0
-1240 -368 0
-1240 -369 0
-1240 -370 0
-1240 -371 0
-1240 -388 0
-1240 -389 0
-1240 -390 0
-1240 -391 0
-1240 -392 0
-1240 -393 0
-1240 -394 0
-1240 -395 0
-1240 -404 0
-1240 -405 0
-1240 -406 0
-1240 -407 0
-1240 -408 0
-1240 -409 0
-1240 -410 0
-1240 -411 0
-1240 -412 0
-1240 -413 0
-1240 -414 0
-1240 -415 0
-1241 444 0
-1241 451 0
-1241 454 0
-1241 -302 -305 0
-1241 -372 0
-1241 -373 0
-1241 -374 0
-1241 -375 0
-1241 -392 0
-1241 -393 0
-1241 -394 0
-1241 -395 0
-1241 -396 0
-1241 -397 0
-1241 -398 0
-1241 -399 0
-1241 -408 0
-1241 -409 0
-1241 -410 0
-1241 -411 0
-1241 -412 0
-1241 -413 0
-1241 -414 0
-1241 -415 0
-1241 -416 0
-1241 -417 0
-1241 -418 0
-1241 -419 0
-1242 444 0
-1242 452 0
-1242 454 0
-1242 -303 -305 0
-1242 -376 0
-1242 -377 0
-1242 -378 0
-1242 -379 0
-1242 -396 0
-1242 -397 0
-1242 -398 0
-1242 -399 0
-1242 -400 0
-1242 -401 0
-1242 -402 0
-1242 -403 0
-1242 -412 0
-1242 -413 0
-1242 -414 0
-1242 -415 0
-1242 -416 0
-1242 -417 0
-1242 -418 0
-1242 -419 0
-1243 444 0
-1243 453 0
-1243 454 0
-1243 -304 -305 0
-1243 -380 0
-1243 -381 0
-1243 -382 0
-1243 -383 0
-1243 -400 0
-1243 -401 0
-1243 -402 0
-1243 -403 0
-1243 -416 0
-1243 -417 0
-1243 -418 0
-1243 -419 0
-1244 445 0
-1244 458 0
-1244 -300 0
-1244 -301 0
-1244 -302 0
-1244 -303 0
-1244 -304 0
-1244 -308 0
-1244 -305 465 0
-1244 -305 -309 -316 0
-1244 -305 -337 0
-1244 -305 -338 0
-1244 -305 -339 0
-1244 -305 -385 0
-1244 -305 -386 0
-1244 -305 -387 0
-1244 -305 -405 0
-1244 -305 -406 0
-1244 -305 -407 0
-1244 -306 466 0
-1244 -306 -309 -317 0
-1244 -306 -338 0
-1244 -306 -339 0
-1244 -306 -386 0
-1244 -306 -387 0
-1244 -306 -406 0
-1244 -306 -407 0
-1244 -307 467 0
-1244 -307 -309 -318 0
-1244 -307 -339 0
-1244 -307 -387 0
-1244 -307 -407 0
-1245 445 0
-1245 459 0
-1245 -299 0
-1245 -301 0
-1245 -302 0
-1245 -303 0
-1245 -304 0
-1245 -308 0
-1245 -305 465 0
-1245 -305 -310 -316 0
-1245 -305 -341 0
-1245 -305 -342 0
-1245 -305 -343 0
-1245 -305 -385 0
-1245 -305 -386 0
-1245 -305 -387 0
-1245 -305 -389 0
-1245 -305 -390 0
-1245 -305 -391 0
-1245 -305 -405 0
-1245 -305 -406 0
-1245 -305 -407 0
-1245 -305 -409 0
-1245 -305 -410 0
-1245 -305 -411 0
-1245 -306 466 0
-1245 -306 -310 -317 0
-1245 -306 -342 0
-1245 -306 -343 0
-1245 -306 -386 0
-1245 -306 -387 0
-1245 -306 -390 0
-1245 -306 -391 0
-1245 -306 -406 0
-1245 -306 -407 0
-1245 -306 -410 0
-1245 -306 -411 0
-1245 -307 467 0
-1245 -307 -310 -318 0
-1245 -307 -343 0
-1245 -307 -387 0
-1245 -307 -391 0
-1245 -307 -407 0
-1245 -307 -411 0
-1246 445 0
-1246 460 0
-1246 -299 0
-1246 -300 0
-1246 -302 0
-1246 -303 0
-1246 -304 0
-1246 -308 0
-1246 -305 465 0
-1246 -305 -311 -316 0
-1246 -305 -345 0
-1246 -305 -346 0
-1246 -305 -347 0
-1246 -305 -389 0
-1246 -305 -390 0
-1246 -305 -391 0
-1246 -305 -393 0
-1246 -305 -394 0
-1246 -305 -395 0
-1246 -305 -405 0
-1246 -305 -406 0
-1246 -305 -407 0
-1246 -305 -409 0
-1246 -305 -410 0
-1246 -305 -411 0
-1246 -305 -413 0
-1246 -305 -414 0
-1246 -305 -415 0
-1246 -306 466 0
-1246 -306 -311 -317 0
-1246 -306 -346 0
-1246 -306 -347 0
-1246 -306 -390 0
-1246 -306 -391 0
-1246 -306 -394 0
-1246 -306 -395 0
-1246 -306 -406 0
-1246 -306 -407 0
-1246 -306 -410 0
-1246 -306 -411 0
-1246 -306 -414 0
-1246 -306 -415 0
-1246 -307 467 0
-1246 -307 -311 -318 0
-1246 -307 -347 0
-1246 -307 -391 0
-1246 -307 -395 0
-1246 -307 -407 0
-1246 -307 -411 0
-1246 -307 -415 0
-1247 445 0
-1247 461 0
-1247 -299 0
-1247 -300 0
-1247 -301 0
-1247 -303 0
-1247 -304 0
-1247 -308 0
-1247 -305 465 0
-1247 -305 -312 -316 0
-1247 -305 -349 0
-1247 -305 -350 0
-1247 -305 -351 0
-1247 -305 -393 0
-1247 -305 -394 0
-1247 -305 -395 0
-1247 -305 -397 0
-1247 -305 -398 0
-1247 -305 -399 0
-1247 -305 -409 0
-1247 -305 -410 0
-1247 -305 -411 0
-1247 -305 -413 0
-1247 -305 -414 0
-1247 -305 -415 0
-1247 -305 -417 0
-1247 -305 -418 0
-1247 -305 -419 0
-1247 -306 466 0
-1247 -306 -312 -317 0
-1247 -306 -350 0
-1247 -306 -351 0
-1247 -306 -394 0
-1247 -306 -395 0
-1247 -306 -398 0
-1247 -306 -399 0
-1247 -306 -410 0
-1247 -306 -411 0
-1247 -306 -414 0
-1247 -306 -415 0
-1247 -306 -418 0
-1247 -306 -419 0
-1247 -307 467 0
-1247 -307 -312 -318 0
-1247 -307 -351 0
-1247 -307 -395 0
-1247 -307 -399 0
-1247 -307 -411 0
-1247 -307 -415 0
-1247 -307 -419 0
-1248 445 0
-1248 462 0
-1248 -299 0
-1248 -300 0
-1248 -301 0
-1248 -302 0
-1248 -304 0
-1248 -308 0
-1248 -305 465 0
-1248 -305 -313 -316 0
-1248 -305 -353 0
-1248 -305 -354 0
-1248 -305 -355 0
-1248 -305 -397 0
-1248 -305 -398 0
-1248 -305 -399 0
-1248 -305 -401 0
-1248 -305 -402 0
-1248 -305 -403 0
-1248 -305 -413 0
-1248 -305 -414 0
-1248 -305 -415 0
-1248 -305 -417 0
-1248 -305 -418 0
-1248 -305 -419 0
-1248 -306 466 0
-1248 -306 -313 -317 0
-1248 -306 -354 0
-1248 -306 -355 0
-1248 -306 -398 0
-1248 -306 -399 0
-1248 -306 -402 0
-1248 -306 -403 0
-1248 -306 -414 0
-1248 -306 -415 0
-1248 -306 -418 0
-1248 -306 -419 0
-1248 -307 467 0
-1248 -307 -313 -318 0
-1248 -307 -355 0
-1248 -307 -399 0
-1248 -307 -403 0
-1248 -307 -415 0
-1248 -307 -419 0
-1249 445 0
-1249 463 0
-1249 -299 0
-1249 -300 0
-1249 -301 0
-1249 -302 0
-1249 -303 0
-1249 -308 0
-1249 -305 465 0
-1249 -305 -314 -316 0
-1249 -305 -357 0
-1249 -305 -358 0
-1249 -305 -359 0
-1249 -305 -401 0
-1249 -305 -402 0
-1249 -305 -403 0
-1249 -305 -417 0
-1249 -305 -418 0
-1249 -305 -419 0
-1249 -306 466 0
-1249 -306 -314 -317 0
-1249 -306 -358 0
-1249 -306 -359 0
-1249 -306 -402 0
-1249 -306 -403 0
-1249 -306 -418 0
-1249 -306 -419 0
-1249 -307 467 0
-1249 -307 -314 -318 0
-1249 -307 -359 0
-1249 -307 -403 0
-1249 -307 -419 0
-1250 445 0
-1250 458 0
-1250 -320 0
-1250 -321 0
-1250 -322 0
-1250 -323 0
-1250 -327 0
-1250 -324 465 0
-1250 -324 -309 -316 0
-1250 -324 -337 0
-1250 -324 -338 0
-1250 -324 -339 0
-1250 -324 -385 0
-1250 -324 -386 0
-1250 -324 -387 0
-1250 -324 -405 0
-1250 -324 -406 0
-1250 -324 -407 0
-1250 -325 466 0
-1250 -325 -309 -317 0
-1250 -325 -338 0
-1250 -325 -339 0
-1250 -325 -386 0
-1250 -325 -387 0
-1250 -325 -406 0
-1250 -325 -407 0
-1250 -326 467 0
-1250 -326 -309 -318 0
-1250 -326 -339 0
-1250 -326 -387 0
-1250 -326 -407 0
-1251 445 0
-1251 459 0
-1251 -321 0
-1251 -322 0
-1251 -323 0
-1251 -327 0
-1251 -324 465 0
-1251 -324 -310 -316 0
-1251 -324 -341 0
-1251 -324 -342 0
-1251 -324 -343 0
-1251 -324 -385 0
-1251 -324 -386 0
-1251 -324 -387 0
-1251 -324 -389 0
-1251 -324 -390 0
-1251 -324 -391 0
-1251 -324 -405 0
-1251 -324 -406 0
-1251 -324 -407 0
-1251 -324 -409 0
-1251 -324 -410 0
-1251 -324 -411 0
-1251 -325 466 0
-1251 -325 -310 -317 0
-1251 -325 -342 0
-1251 -325 -343 0
-1251 -325 -386 0
-1251 -325 -387 0
-1251 -325 -390 0
-1251 -325 -391 0
-1251 -325 -406 0
-1251 -325 -407 0
-1251 -325 -410 0
-1251 -325 -411 0
-1251 -326 467 0
-1251 -326 -310 -318 0
-1251 -326 -343 0
-1251 -326 -387 0
-1251 -326 -391 0
-1251 -326 -407 0
-1251 -326 -411 0
-1252 445 0
-1252 460 0
-1252 -319 0
-1252 -322 0
-1252 -323 0
-1252 -327 0
-1252 -324 465 0
-1252 -324 -311 -316 0
-1252 -324 -345 0
-1252 -324 -346 0
-1252 -324 -347 0
-1252 -324 -389 0
-1252 -324 -390 0
-1252 -324 -391 0
-1252 -324 -393 0
-1252 -324 -394 0
-1252 -324 -395 0
-1252 -324 -405 0
-1252 -324 -406 0
-1252 -324 -407 0
-1252 -324 -409 0
-1252 -324 -410 0
-1252 -324 -411 0
-1252 -324 -413 0
-1252 -324 -414 0
-1252 -324 -415 0
-1252 -325 466 0
-1252 -325 -311 -317 0
-1252 -325 -346 0
-1252 -325 -347 0
-1252 -325 -390 0
-1252 -325 -391 0
-1252 -325 -394 0
-1252 -325 -395 0
-1252 -325 -406 0
-1252 -325 -407 0
-1252 -325 -410 0
-1252 -325 -411 0
-1252 -325 -414 0
-1252 -325 -415 0
-1252 -326 467 0
-1252 -326 -311 -318 0
-1252 -326 -347 0
-1252 -326 -391 0
-1252 -326 -395 0
-1252 -326 -407 0
-1252 -326 -411 0
-1252 -326 -415 0
-1253 445 0
-1253 461 0
-1253 -319 0
-1253 -320 0
-1253 -323 0
-1253 -327 0
-1253 -324 465 0
-1253 -324 -312 -316 0
-1253 -324 -349 0
-1253 -324 -350 0
-1253 -324 -351 0
-1253 -324 -393 0
-1253 -324 -394 0
-1253 -324 -395 0
-1253 -324 -397 0
-1253 -324 -398 0
-1253 -324 -399 0
-1253 -324 -409 0
-1253 -324 -410 0
-1253 -324 -411 0
-1253 -324 -413 0
-1253 -324 -414 0
-1253 -324 -415 0
-1253 -324 -417 0
-1253 -324 -418 0
-1253 -324 -419 0
-1253 -325 466 0
-1253 -325 -312 -317 0
-1253 -325 -350 0
-1253 -325 -351 0
-1253 -325 -394 0
-1253 -325 -395 0
-1253 -325 -398 0
-1253 -325 -399 0
-1253 -325 -410 0
-1253 -325 -411 0
-1253 -325 -414 0
-1253 -325 -415 0
-1253 -325 -418 0
-1253 -325 -419 0
-1253 -326 467 0
-1253 -326 -312 -318 0
-1253 -326 -351 0
-1253 -326 -395 0
-1253 -326 -399 0
-1253 -326 -411 0
-1253 -326 -415 0
-1253 -326 -419 0
-1254 445 0
-1254 462 0
-1254 -319 0
-1254 -320 0
-1254 -321 0
-1254 -327 0
-1254 -324 465 0
-1254 -324 -313 -316 0
-1254 -324 -353 0
-1254 -324 -354 0
-1254 -324 -355 0
-1254 -324 -397 0
-1254 -324 -398 0
-1254 -324 -399 0
-1254 -324 -401 0
-1254 -324 -402 0
-1254 -324 -403 0
-1254 -324 -413 0
-1254 -324 -414 0
-1254 -324 -415 0
-1254 -324 -417 0
-1254 -324 -418 0
-1254 -324 -419 0
-1254 -325 466 0
-1254 -325 -313 -317 0
-1254 -325 -354 0
-1254 -325 -355 0
-1254 -325 -398 0
-1254 -325 -399 0
-1254 -325 -402 0
-1254 -325 -403 0
-1254 -325 -414 0
-1254 -325 -415 0
-1254 -325 -418 0
-1254 -325 -419 0
-1254 -326 467 0
-1254 -326 -313 -318 0
-1254 -326 -355 0
-1254 -326 -399 0
-1254 -326 -403 0
-1254 -326 -415 0
-1254 -326 -419 0
-1255 445 0
-1255 463 0
-1255 -319 0
-1255 -320 0
-1255 -321 0
-1255 -322 0
-1255 -327 0
-1255 -324 465 0
-1255 -324 -314 -316 0
-1255 -324 -357 0
-1255 -324 -358 0
-1255 -324 -359 0
-1255 -324 -401 0
-1255 -324 -402 0
-1255 -324 -403 0
-1255 -324 -417 0
-1255 -324 -418 0
-1255 -324 -419 0
-1255 -325 466 0
-1255 -325 -314 -317 0
-1255 -325 -358 0
-1255 -325 -359 0
-1255 -325 -402 0
-1255 -325 -403 0
-1255 -325 -418 0
-1255 -325 -419 0
-1255 -326 467 0
-1255 -326 -314 -318 0
-1255 -326 -359 0
-1255 -326 -403 0
-1255 -326 -419 0
-1256 445 0
-1256 458 0
-1256 -329 0
-1256 -330 0
-1256 -331 0
-1256 -335 0
-1256 -332 465 0
-1256 -332 -309 -316 0
-1256 -332 -337 0
-1256 -332 -338 0
-1256 -332 -339 0
-1256 -332 -385 0
-1256 -332 -386 0
-1256 -332 -387 0
-1256 -332 -405 0
-1256 -332 -406 0
-1256 -332 -407 0
-1256 -333 466 0
-1256 -333 -309 -317 0
-1256 -333 -338 0
-1256 -333 -339 0
-1256 -333 -386 0
-1256 -333 -387 0
-1256 -333 -406 0
-1256 -333 -407 0
-1256 -334 467 0
-1256 -334 -309 -318 0
-1256 -334 -339 0
-1256 -334 -387 0
-1256 -334 -407 0
-1257 445 0
-1257 459 0
-1257 -330 0
-1257 -331 0
-1257 -335 0
-1257 -332 465 0
-1257 -332 -310 -316 0
-1257 -332 -341 0
-1257 -332 -342 0
-1257 -332 -343 0
-1257 -332 -385 0
-1257 -332 -386 0
-1257 -332 -387 0
-1257 -332 -389 0
-1257 -332 -390 0
-1257 -332 -391 0
-1257 -332 -405 0
-1257 -332 -406 0
-1257 -332 -407 0
-1257 -332 -409 0
-1257 -332 -410 0
-1257 -332 -411 0
-1257 -333 466 0
-1257 -333 -310 -317 0
-1257 -333 -342 0
-1257 -333 -343 0
-1257 -333 -386 0
-1257 -333 -387 0
-1257 -333 -390 0
-1257 -333 -391 0
-1257 -333 -406 0
-1257 -333 -407 0
-1257 -333 -410 0
-1257 -333 -411 0
-1257 -334 467 0
-1257 -334 -310 -318 0
-1257 -334 -343 0
-1257 -334 -387 0
-1257 -334 -391 0
-1257 -334 -407 0
-1257 -334 -411 0
-1258 445 0
-1258 460 0
-1258 -331 0
-1258 -335 0
-1258 -332 465 0
-1258 -332 -311 -316 0
-1258 -332 -345 0
-1258 -332 -346 0
-1258 -332 -347 0
-1258 -332 -389 0
-1258 -332 -390 0
-1258 -332 -391 0
-1258 -332 -393 0
-1258 -332 -394 0
-1258 -332 -395 0
-1258 -332 -405 0
-1258 -332 -406 0
-1258 -332 -407 0
-1258 -332 -409 0
-1258 -332 -410 0
-1258 -332 -411 0
-1258 -332 -413 0
-1258 -332 -414 0
-1258 -332 -415 0
-1258 -333 466 0
-1258 -333 -311 -317 0
-1258 -333 -346 0
-1258 -333 -347 0
-1258 -333 -390 0
-1258 -333 -391 0
-1258 -333 -394 0
-1258 -333 -395 0
-1258 -333 -406 0
-1258 -333 -407 0
-1258 -333 -410 0
-1258 -333 -411 0
-1258 -333 -414 0
-1258 -333 -415 0
-1258 -334 467 0
-1258 -334 -311 -318 0
-1258 -334 -347 0
-1258 -334 -391 0
-1258 -334 -395 0
-1258 -334 -407 0
-1258 -334 -411 0
-1258 -334 -415 0
-1259 445 0
-1259 461 0
-1259 -328 0
-1259 -335 0
-1259 -332 465 0
-1259 -332 -312 -316 0
-1259 -332 -349 0
-1259 -332 -350 0
-1259 -332 -351 0
-1259 -332 -393 0
-1259 -332 -394 0
-1259 -332 -395 0
-1259 -332 -397 0
-1259 -332 -398 0
-1259 -332 -399 0
-1259 -332 -409 0
-1259 -332 -410 0
-1259 -332 -411 0
-1259 -332 -413 0
-1259 -332 -414 0
-1259 -332 -415 0
-1259 -332 -417 0
-1259 -332 -418 0
-1259 -332 -419 0
-1259 -333 466 0
-1259 -333 -312 -317 0
-1259 -333 -350 0
-1259 -333 -351 0
-1259 -333 -394 0
-1259 -333 -395 0
-1259 -333 -398 0
-1259 -333 -399 0
-1259 -333 -410 0
-1259 -333 -411 0
-1259 -333 -414 0
-1259 -333 -415 0
-1259 -333 -418 0
-1259 -333 -419 0
-1259 -334 467 0
-1259 -334 -312 -318 0
-1259 -334 -351 0
-1259 -334 -395 0
-1259 -334 -399 0
-1259 -334 -411 0
-1259 -334 -415 0
-1259 -334 -419 0
-1260 445 0
-1260 462 0
-1260 -328 0
-1260 -329 0
-1260 -335 0
-1260 -332 465 0
-1260 -332 -313 -316 0
-1260 -332 -353 0
-1260 -332 -354 0
-1260 -332 -355 0
-1260 -332 -397 0
-1260 -332 -398 0
-1260 -332 -399 0
-1260 -332 -401 0
-1260 -332 -402 0
-1260 -332 -403 0
-1260 -332 -413 0
-1260 -332 -414 0
-1260 -332 -415 0
-1260 -332 -417 0
-1260 -332 -418 0
-1260 -332 -419 0
-1260 -333 466 0
-1260 -333 -313 -317 0
-1260 -333 -354 0
-1260 -333 -355 0
-1260 -333 -398 0
-1260 -333 -399 0
-1260 -333 -402 0
-1260 -333 -403 0
-1260 -333 -414 0
-1260 -333 -415 0
-1260 -333 -418 0
-1260 -333 -419 0
-1260 -334 467 0
-1260 -334 -313 -318 0
-1260 -334 -355 0
-1260 -334 -399 0
-1260 -334 -403 0
-1260 -334 -415 0
-1260 -334 -419 0
-1261 445 0
-1261 463 0
-1261 -328 0
-1261 -329 0
-1261 -330 0
-1261 -335 0
-1261 -332 465 0
-1261 -332 -314 -316 0
-1261 -332 -357 0
-1261 -332 -358 0
-1261 -332 -359 0
-1261 -332 -401 0
-1261 -332 -402 0
-1261 -332 -403 0
-1261 -332 -417 0
-1261 -332 -418 0
-1261 -332 -419 0
-1261 -333 466 0
-1261 -333 -314 -317 0
-1261 -333 -358 0
-1261 -333 -359 0
-1261 -333 -402 0
-1261 -333 -403 0
-1261 -333 -418 0
-1261 -333 -419 0
-1261 -334 467 0
-1261 -334 -314 -318 0
-1261 -334 -359 0
-1261 -334 -403 0
-1261 -334 -419 0
-1262 445 0
-1262 458 0
-1262 464 0
-1262 -309 -315 0
-1262 -336 0
-1262 -337 0
-1262 -338 0
-1262 -339 0
-1262 -384 0
-1262 -385 0
-1262 -386 0
-1262 -387 0
-1262 -404 0
-1262 -405 0
-1262 -406 0
-1262 -407 0
-1263 445 0
-1263 459 0
-1263 464 0
-1263 -310 -315 0
-1263 -340 0
-1263 -341 0
-1263 -342 0
-1263 -343 0
-1263 -384 0
-1263 -385 0
-1263 -386 0
-1263 -387 0
-1263 -388 0
-1263 -389 0
-1263 -390 0
-1263 -391 0
-1263 -404 0
-1263 -405 0
-1263 -406 0
-1263 -407 0
-1263 -408 0
-1263 -409 0
-1263 -410 0
-1263 -411 0
-1264 445 0
-1264 460 0
-1264 464 0
-1264 -311 -315 0
-1264 -344 0
-1264 -345 0
-1264 -346 0
-1264 -347 0
-1264 -388 0
-1264 -389 0
-1264 -390 0
-1264 -391 0
-1264 -392 0
-1264 -393 0
-1264 -394 0
-1264 -395 0
-1264 -404 0
-1264 -405 0
-1264 -406 0
-1264 -407 0
-1264 -408 0
-1264 -409 0
-1264 -410 0
-1264 -411 0
-1264 -412 0
-1264 -413 0
-1264 -414 0
-1264 -415 0
-1265 445 0
-1265 461 0
-1265 464 0
-1265 -312 -315 0
-1265 -348 0
-1265 -349 0
-1265 -350 0
-1265 -351 0
-1265 -392 0
-1265 -393 0
-1265 -394 0
-1265 -395 0
-1265 -396 0
-1265 -397 0
-1265 -398 0
-1265 -399 0
-1265 -408 0
-1265 -409 0
-1265 -410 0
-1265 -411 0
-1265 -412 0
-1265 -413 0
-1265 -414 0
-1265 -415 0
-1265 -416 0
-1265 -417 0
-1265 -418 0
-1265 -419 0
-1266 445 0
-1266 462 0
-1266 464 0
-1266 -313 -315 0
-1266 -352 0
-1266 -353 0
-1266 -354 0
-1266 -355 0
-1266 -396 0
-1266 -397 0
-1266 -398 0
-1266 -399 0
-1266 -400 0
-1266 -401 0
-1266 -402 0
-1266 -403 0
-1266 -412 0
-1266 -413 0
-1266 -414 0
-1266 -415 0
-1266 -416 0
-1266 -417 0
-1266 -418 0
-1266 -419 0
-1267 445 0
-1267 463 0
-1267 464 0
-1267 -314 -315 0
-1267 -356 0
-1267 -357 0
-1267 -358 0
-1267 -359 0
-1267 -400 0
-1267 -401 0
-1267 -402 0
-1267 -403 0
-1267 -416 0
-1267 -417 0
-1267 -418 0
-1267 -419 0
-1268 446 0
-1268 468 0
-1268 -301 0
-1268 -302 0
-1268 -303 0
-1268 -304 0
-1268 -308 0
-1268 -305 474 0
-1268 -305 -319 -325 0
-1268 -305 -337 0
-1268 -305 -338 0
-1268 -305 -339 0
-1268 -305 -341 0
-1268 -305 -342 0
-1268 -305 -343 0
-1268 -305 -361 0
-1268 -305 -362 0
-1268 -305 -363 0
-1268 -305 -365 0
-1268 -305 -366 0
-1268 -305 -367 0
-1268 -305 -405 0
-1268 -305 -406 0
-1268 -305 -407 0
-1268 -305 -409 0
-1268 -305 -410 0
-1268 -305 -411 0
-1268 -306 475 0
-1268 -306 -319 -326 0
-1268 -306 -338 0
-1268 -306 -339 0
-1268 -306 -342 0
-1268 -306 -343 0
-1268 -306 -362 0
-1268 -306 -363 0
-1268 -306 -366 0
-1268 -306 -367 0
-1268 -306 -406 0
-1268 -306 -407 0
-1268 -306 -410 0
-1268 -306 -411 0
-1268 -307 476 0
-1268 -307 -319 -327 0
-1268 -307 -339 0
-1268 -307 -343 0
-1268 -307 -363 0
-1268 -307 -367 0
-1268 -307 -407 0
-1268 -307 -411 0
-1269 446 0
-1269 469 0
-1269 -299 0
-1269 -302 0
-1269 -303 0
-1269 -304 0
-1269 -308 0
-1269 -305 474 0
-1269 -305 -320 -325 0
-1269 -305 -341 0
-1269 -305 -342 0
-1269 -305 -343 0
-1269 -305 -345 0
-1269 -305 -346 0
-1269 -305 -347 0
-1269 -305 -365 0
-1269 -305 -366 0
-1269 -305 -367 0
-1269 -305 -369 0
-1269 -305 -370 0
-1269 -305 -371 0
-1269 -305 -405 0
-1269 -305 -406 0
-1269 -305 -407 0
-1269 -305 -409 0
-1269 -305 -410 0
-1269 -305 -411 0
-1269 -305 -413 0
-1269 -305 -414 0
-1269 -305 -415 0
-1269 -306 475 0
-1269 -306 -320 -326 0
-1269 -306 -342 0
-1269 -306 -343 0
-1269 -306 -346 0
-1269 -306 -347 0
-1269 -306 -366 0
-1269 -306 -367 0
-1269 -306 -370 0
-1269 -306 -371 0
-1269 -306 -406 0
-1269 -306 -407 0
-1269 -306 -410 0
-1269 -306 -411 0
-1269 -306 -414 0
-1269 -306 -415 0
-1269 -307 476 0
-1269 -307 -320 -327 0
-1269 -307 -343 0
-1269 -307 -347 0
-1269 -307 -367 0
-1269 -307 -371 0
-1269 -307 -407 0
-1269 -307 -411 0
-1269 -307 -415 0
-1270 446 0
-1270 470 0
-1270 -299 0
-1270 -300 0
-1270 -303 0
-1270 -304 0
-1270 -308 0
-1270 -305 474 0
-1270 -305 -321 -325 0
-1270 -305 -345 0
-1270 -305 -346 0
-1270 -305 -347 0
-1270 -305 -349 0
-1270 -305 -350 0
-1270 -305 -351 0
-1270 -305 -369 0
-1270 -305 -370 0
-1270 -305 -371 0
-1270 -305 -373 0
-1270 -305 -374 0
-1270 -305 -375 0
-1270 -305 -405 0
-1270 -305 -406 0
-1270 -305 -407 0
-1270 -305 -409 0
-1270 -305 -410 0
-1270 -305 -411 0
-1270 -305 -413 0
-1270 -305 -414 0
-1270 -305 -415 0
-1270 -305 -417 0
-1270 -305 -418 0
-1270 -305 -419 0
-1270 -306 475 0
-1270 -306 -321 -326 0
-1270 -306 -346 0
-1270 -306 -347 0
-1270 -306 -350 0
-1270 -306 -351 0
-1270 -306 -370 0
-1270 -306 -371 0
-1270 -306 -374 0
-1270 -306 -375 0
-1270 -306 -406 0
-1270 -306 -407 0
-1270 -306 -410 0
-1270 -306 -411 0
-1270 -306 -414 0
-1270 -306 -415 0
-1270 -306 -418 0
-1270 -306 -419 0
-1270 -307 476 0
-1270 -307 -321 -327 0
-1270 -307 -347 0
-1270 -307 -351 0
-1270 -307 -371 0
-1270 -307 -375 0
-1270 -307 -407 0
-1270 -307 -411 0
-1270 -307 -415 0
-1270 -307 -419 0
-1271 446 0
-1271 471 0
-1271 -299 0
-1271 -300 0
-1271 -301 0
-1271 -304 0
-1271 -308 0
-1271 -305 474 0
-1271 -305 -322 -325 0
-1271 -305 -349 0
-1271 -305 -350 0
-1271 -305 -351 0
-1271 -305 -353 0
-1271 -305 -354 0
-1271 -305 -355 0
-1271 -305 -373 0
-1271 -305 -374 0
-1271 -305 -375 0
-1271 -305 -377 0
-1271 -305 -378 0
-1271 -305 -379 0
-1271 -305 -409 0
-1271 -305 -410 0
-1271 -305 -411 0
-1271 -305 -413 0
-1271 -305 -414 0
-1271 -305 -415 0
-1271 -305 -417 0
-1271 -305 -418 0
-1271 -305 -419 0
-1271 -306 475 0
-1271 -306 -322 -326 0
-1271 -306 -350 0
-1271 -306 -351 0
-1271 -306 -354 0
-1271 -306 -355 0
-1271 -306 -374 0
-1271 -306 -375 0
-1271 -306 -378 0
-1271 -306 -379 0
-1271 -306 -410 0
-1271 -306 -411 0
-1271 -306 -414 0
-1271 -306 -415 0
-1271 -306 -418 0
-1271 -306 -419 0
-1271 -307 476 0
-1271 -307 -322 -327 0
-1271 -307 -351 0
-1271 -307 -355 0
-1271 -307 -375 0
-1271 -307 -379 0
-1271 -307 -411 0
-1271 -307 -415 0
-1271 -307 -419 0
-1272 446 0
-1272 472 0
-1272 -299 0
-1272 -300 0
-1272 -301 0
-1272 -302 0
-1272 -308 0
-1272 -305 474 0
-1272 -305 -323 -325 0
-1272 -305 -353 0
-1272 -305 -354 0
-1272 -305 -355 0
-1272 -305 -357 0
-1272 -305 -358 0
-1272 -305 -359 0
-1272 -305 -377 0
-1272 -305 -378 0
-1272 -305 -379 0
-1272 -305 -381 0
-1272 -305 -382 0
-1272 -305 -383 0
-1272 -305 -413 0
-1272 -305 -414 0
-1272 -305 -415 0
-1272 -305 -417 0
-1272 -305 -418 0
-1272 -305 -419 0
-1272 -306 475 0
-1272 -306 -323 -326 0
-1272 -306 -354 0
-1272 -306 -355 0
-1272 -306 -358 0
-1272 -306 -359 0
-1272 -306 -378 0
-1272 -306 -379 0
-1272 -306 -382 0
-1272 -306 -383 0
-1272 -306 -414 0
-1272 -306 -415 0
-1272 -306 -418 0
-1272 -306 -419 0
-1272 -307 476 0
-1272 -307 -323 -327 0
-1272 -307 -355 0
-1272 -307 -359 0
-1272 -307 -379 0
-1272 -307 -383 0
-1272 -307 -415 0
-1272 -307 -419 0
-1273 446 0
-1273 468 0
-1273 -311 0
-1273 -312 0
-1273 -313 0
-1273 -314 0
-1273 -318 0
-1273 -315 474 0
-1273 -315 -319 -325 0
-1273 -315 -337 0
-1273 -315 -338 0
-1273 -315 -339 0
-1273 -315 -341 0
-1273 -315 -342 0
-1273 -315 -343 0
-1273 -315 -361 0
-1273 -315 -362 0
-1273 -315 -363 0
-1273 -315 -365 0
-1273 -315 -366 0
-1273 -315 -367 0
-1273 -315 -405 0
-1273 -315 -406 0
-1273 -315 -407 0
-1273 -315 -409 0
-1273 -315 -410 0
-1273 -315 -411 0
-1273 -316 475 0
-1273 -316 -319 -326 0
-1273 -316 -338 0
-1273 -316 -339 0
-1273 -316 -342 0
-1273 -316 -343 0
-1273 -316 -362 0
-1273 -316 -363 0
-1273 -316 -366 0
-1273 -316 -367 0
-1273 -316 -406 0
-1273 -316 -407 0
-1273 -316 -410 0
-1273 -316 -411 0
-1273 -317 476 0
-1273 -317 -319 -327 0
-1273 -317 -339 0
-1273 -317 -343 0
-1273 -317 -363 0
-1273 -317 -367 0
-1273 -317 -407 0
-1273 -317 -411 0
-1274 446 0
-1274 469 0
-1274 -309 0
-1274 -312 0
-1274 -313 0
-1274 -314 0
-1274 -318 0
-1274 -315 474 0
-1274 -315 -320 -325 0
-1274 -315 -341 0
-1274 -315 -342 0
-1274 -315 -343 0
-1274 -315 -345 0
-1274 -315 -346 0
-1274 -315 -347 0
-1274 -315 -365 0
-1274 -315 -366 0
-1274 -315 -367 0
-1274 -315 -369 0
-1274 -315 -370 0
-1274 -315 -371 0
-1274 -315 -405 0
-1274 -315 -406 0
-1274 -315 -407 0
-1274 -315 -409 0
-1274 -315 -410 0
-1274 -315 -411 0
-1274 -315 -413 0
-1274 -315 -414 0
-1274 -315 -415 0
-1274 -316 475 0
-1274 -316 -320 -326 0
-1274 -316 -342 0
-1274 -316 -343 0
-1274 -316 -346 0
-1274 -316 -347 0
-1274 -316 -366 0
-1274 -316 -367 0
-1274 -316 -370 0
-1274 -316 -371 0
-1274 -316 -406 0
-1274 -316 -407 0
-1274 -316 -410 0
-1274 -316 -411 0
-1274 -316 -414 0
-1274 -316 -415 0
-1274 -317 476 0
-1274 -317 -320 -327 0
-1274 -317 -343 0
-1274 -317 -347 0
-1274 -317 -367 0
-1274 -317 -371 0
-1274 -317 -407 0
-1274 -317 -411 0
-1274 -317 -415 0
-1275 446 0
-1275 470 0
-1275 -309 0
-1275 -310 0
-1275 -313 0
-1275 -314 0
-1275 -318 0
-1275 -315 474 0
-1275 -315 -321 -325 0
-1275 -315 -345 0
-1275 -315 -346 0
-1275 -315 -347 0
-1275 -315 -349 0
-1275 -315 -350 0
-1275 -315 -351 0
-1275 -315 -369 0
-1275 -315 -370 0
-1275 -315 -371 0
-1275 -315 -373 0
-1275 -315 -374 0
-1275 -315 -375 0
-1275 -315 -405 0
-1275 -315 -406 0
-1275 -315 -407 0
-1275 -315 -409 0
-1275 -315 -410 0
-1275 -315 -411 0
-1275 -315 -413 0
-1275 -315 -414 0
-1275 -315 -415 0
-1275 -315 -417 0
-1275 -315 -418 0
-1275 -315 -419 0
-1275 -316 475 0
-1275 -316 -321 -326 0
-1275 -316 -346 0
-1275 -316 -347 0
-1275 -316 -350 0
-1275 -316 -351 0
-1275 -316 -370 0
-1275 -316 -371 0
-1275 -316 -374 0
-1275 -316 -375 0
-1275 -316 -406 0
-1275 -316 -407 0
-1275 -316 -410 0
-1275 -316 -411 0
-1275 -316 -414 0
-1275 -316 -415 0
-1275 -316 -418 0
-1275 -316 -419 0
-1275 -317 476 0
-1275 -317 -321 -327 0
-1275 -317 -347 0
-1275 -317 -351 0
-1275 -317 -371 0
-1275 -317 -375 0
-1275 -317 -407 0
-1275 -317 -411 0
-1275 -317 -415 0
-1275 -317 -419 0
-1276 446 0
-1276 471 0
-1276 -309 0
-1276 -310 0
-1276 -311 0
-1276 -314 0
-1276 -318 0
-1276 -315 474 0
-1276 -315 -322 -325 0
-1276 -315 -349 0
-1276 -315 -350 0
-1276 -315 -351 0
-1276 -315 -353 0
-1276 -315 -354 0
-1276 -315 -355 0
-1276 -315 -373 0
-1276 -315 -374 0
-1276 -315 -375 0
-1276 -315 -377 0
-1276 -315 -378 0
-1276 -315 -379 0
-1276 -315 -409 0
-1276 -315 -410 0
-1276 -315 -411 0
-1276 -315 -413 0
-1276 -315 -414 0
-1276 -315 -415 0
-1276 -315 -417 0
-1276 -315 -418 0
-1276 -315 -419 0
-1276 -316 475 0
-1276 -316 -322 -326 0
-1276 -316 -350 0
-1276 -316 -351 0
-1276 -316 -354 0
-1276 -316 -355 0
-1276 -316 -374 0
-1276 -316 -375 0
-1276 -316 -378 0
-1276 -316 -379 0
-1276 -316 -410 0
-1276 -316 -411 0
-1276 -316 -414 0
-1276 -316 -415 0
-1276 -316 -418 0
-1276 -316 -419 0
-1276 -317 476 0
-1276 -317 -322 -327 0
-1276 -317 -351 0
-1276 -317 -355 0
-1276 -317 -375 0
-1276 -317 -379 0
-1276 -317 -411 0
-1276 -317 -415 0
-1276 -317 -419 0
-1277 446 0
-1277 472 0
-1277 -309 0
-1277 -310 0
-1277 -311 0
-1277 -312 0
-1277 -318 0
-1277 -315 474 0
-1277 -315 -323 -325 0
-1277 -315 -353 0
-1277 -315 -354 0
-1277 -315 -355 0
-1277 -315 -357 0
-1277 -315 -358 0
-1277 -315 -359 0
-1277 -315 -377 0
-1277 -315 -378 0
-1277 -315 -379 0
-1277 -315 -381 0
-1277 -315 -382 0
-1277 -315 -383 0
-1277 -315 -413 0
-1277 -315 -414 0
-1277 -315 -415 0
-1277 -315 -417 0
-1277 -315 -418 0
-1277 -315 -419 0
-1277 -316 475 0
-1277 -316 -323 -326 0
-1277 -316 -354 0
-1277 -316 -355 0
-1277 -316 -358 0
-1277 -316 -359 0
-1277 -316 -378 0
-1277 -316 -379 0
-1277 -316 -382 0
-1277 -316 -383 0
-1277 -316 -414 0
-1277 -316 -415 0
-1277 -316 -418 0
-1277 -316 -419 0
-1277 -317 476 0
-1277 -317 -323 -327 0
-1277 -317 -355 0
-1277 -317 -359 0
-1277 -317 -379 0
-1277 -317 -383 0
-1277 -317 -415 0
-1277 -317 -419 0
-1278 446 0
-1278 468 0
-1278 -330 0
-1278 -331 0
-1278 -335 0
-1278 -332 474 0
-1278 -332 -319 -325 0
-1278 -332 -337 0
-1278 -332 -338 0
-1278 -332 -339 0
-1278 -332 -341 0
-1278 -332 -342 0
-1278 -332 -343 0
-1278 -332 -361 0
-1278 -332 -362 0
-1278 -332 -363 0
-1278 -332 -365 0
-1278 -332 -366 0
-1278 -332 -367 0
-1278 -332 -405 0
-1278 -332 -406 0
-1278 -332 -407 0
-1278 -332 -409 0
-1278 -332 -410 0
-1278 -332 -411 0
-1278 -333 475 0
-1278 -333 -319 -326 0
-1278 -333 -338 0
-1278 -333 -339 0
-1278 -333 -342 0
-1278 -333 -343 0
-1278 -333 -362 0
-1278 -333 -363 0
-1278 -333 -366 0
-1278 -333 -367 0
-1278 -333 -406 0
-1278 -333 -407 0
-1278 -333 -410 0
-1278 -333 -411 0
-1278 -334 476 0
-1278 -334 -319 -327 0
-1278 -334 -339 0
-1278 -334 -343 0
-1278 -334 -363 0
-1278 -334 -367 0
-1278 -334 -407 0
-1278 -334 -411 0
-1279 446 0
-1279 469 0
-1279 -331 0
-1279 -335 0
-1279 -332 474 0
-1279 -332 -320 -325 0
-1279 -332 -341 0
-1279 -332 -342 0
-1279 -332 -343 0
-1279 -332 -345 0
-1279 -332 -346 0
-1279 -332 -347 0
-1279 -332 -365 0
-1279 -332 -366 0
-1279 -332 -367 0
-1279 -332 -369 0
-1279 -332 -370 0
-1279 -332 -371 0
-1279 -332 -405 0
-1279 -332 -406 0
-1279 -332 -407 0
-1279 -332 -409 0
-1279 -332 -410 0
-1279 -332 -411 0
-1279 -332 -413 0
-1279 -332 -414 0
-1279 -332 -415 0
-1279 -333 475 0
-1279 -333 -320 -326 0
-1279 -333 -342 0
-1279 -333 -343 0
-1279 -333 -346 0
-1279 -333 -347 0
-1279 -333 -366 0
-1279 -333 -367 0
-1279 -333 -370 0
-1279 -333 -371 0
-1279 -333 -406 0
-1279 -333 -407 0
-1279 -333 -410 0
-1279 -333 -411 0
-1279 -333 -414 0
-1279 -333 -415 0
-1279 -334 476 0
-1279 -334 -320 -327 0
-1279 -334 -343 0
-1279 -334 -347 0
-1279 -334 -367 0
-1279 -334 -371 0
-1279 -334 -407 0
-1279 -334 -411 0
-1279 -334 -415 0
-1280 446 0
-1280 470 0
-1280 -335 0
-1280 -332 474 0
-1280 -332 -321 -325 0
-1280 -332 -345 0
-1280 -332 -346 0
-1280 -332 -347 0
-1280 -332 -349 0
-1280 -332 -350 0
-1280 -332 -351 0
-1280 -332 -369 0
-1280 -332 -370 0
-1280 -332 -371 0
-1280 -332 -373 0
-1280 -332 -374 0
-1280 -332 -375 0
-1280 -332 -405 0
-1280 -332 -406 0
-1280 -332 -407 0
-1280 -332 -409 0
-1280 -332 -410 0
-1280 -332 -411 0
-1280 -332 -413 0
-1280 -332 -414 0
-1280 -332 -415 0
-1280 -332 -417 0
-1280 -332 -418 0
-1280 -332 -419 0
-1280 -333 475 0
-1280 -333 -321 -326 0
-1280 -333 -346 0
-1280 -333 -347 0
-1280 -333 -350 0
-1280 -333 -351 0
-1280 -333 -370 0
-1280 -333 -371 0
-1280 -333 -374 0
-1280 -333 -375 0
-1280 -333 -406 0
-1280 -333 -407 0
-1280 -333 -410 0
-1280 -333 -411 0
-1280 -333 -414 0
-1280 -333 -415 0
-1280 -333 -418 0
-1280 -333 -419 0
-1280 -334 476 0
-1280 -334 -321 -327 0
-1280 -334 -347 0
-1280 -334 -351 0
-1280 -334 -371 0
-1280 -334 -375 0
-1280 -334 -407 0
-1280 -334 -411 0
-1280 -334 -415 0
-1280 -334 -419 0
-1281 446 0
-1281 471 0
-1281 -328 0
-1281 -335 0
-1281 -332 474 0
-1281 -332 -322 -325 0
-1281 -332 -349 0
-1281 -332 -350 0
-1281 -332 -351 0
-1281 -332 -353 0
-1281 -332 -354 0
-1281 -332 -355 0
-1281 -332 -373 0
-1281 -332 -374 0
-1281 -332 -375 0
-1281 -332 -377 0
-1281 -332 -378 0
-1281 -332 -379 0
-1281 -332 -409 0
-1281 -332 -410 0
-1281 -332 -411 0
-1281 -332 -413 0
-1281 -332 -414 0
-1281 -332 -415 0
-1281 -332 -417 0
-1281 -332 -418 0
-1281 -332 -419 0
-1281 -333 475 0
-1281 -333 -322 -326 0
-1281 -333 -350 0
-1281 -333 -351 0
-1281 -333 -354 0
-1281 -333 -355 0
-1281 -333 -374 0
-1281 -333 -375 0
-1281 -333 -378 0
-1281 -333 -379 0
-1281 -333 -410 0
-1281 -333 -411 0
-1281 -333 -414 0
-1281 -333 -415 0
-1281 -333 -418 0
-1281 -333 -419 0
-1281 -334 476 0
-1281 -334 -322 -327 0
-1281 -334 -351 0
-1281 -334 -355 0
-1281 -334 -375 0
-1281 -334 -379 0
-1281 -334 -411 0
-1281 -334 -415 0
-1281 -334 -419 0
-1282 446 0
-1282 472 0
-1282 -328 0
-1282 -329 0
-1282 -335 0
-1282 -332 474 0
-1282 -332 -323 -325 0
-1282 -332 -353 0
-1282 -332 -354 0
-1282 -332 -355 0
-1282 -332 -357 0
-1282 -332 -358 0
-1282 -332 -359 0
-1282 -332 -377 0
-1282 -332 -378 0
-1282 -332 -379 0
-1282 -332 -381 0
-1282 -332 -382 0
-1282 -332 -383 0
-1282 -332 -413 0
-1282 -332 -414 0
-1282 -332 -415 0
-1282 -332 -417 0
-1282 -332 -418 0
-1282 -332 -419 0
-1282 -333 475 0
-1282 -333 -323 -326 0
-1282 -333 -354 0
-1282 -333 -355 0
-1282 -333 -358 0
-1282 -333 -359 0
-1282 -333 -378 0
-1282 -333 -379 0
-1282 -333 -382 0
-1282 -333 -383 0
-1282 -333 -414 0
-1282 -333 -415 0
-1282 -333 -418 0
-1282 -333 -419 0
-1282 -334 476 0
-1282 -334 -323 -327 0
-1282 -334 -355 0
-1282 -334 -359 0
-1282 -334 -379 0
-1282 -334 -383 0
-1282 -334 -415 0
-1282 -334 -419 0
-1283 446 0
-1283 468 0
-1283 473 0
-1283 -319 -324 0
-1283 -336 0
-1283 -337 0
-1283 -338 0
-1283 -339 0
-1283 -340 0
-1283 -341 0
-1283 -342 0
-1283 -343 0
-1283 -360 0
-1283 -361 0
-1283 -362 0
-1283 -363 0
-1283 -364 0
-1283 -365 0
-1283 -366 0
-1283 -367 0
-1283 -404 0
-1283 -405 0
-1283 -406 0
-1283 -407 0
-1283 -408 0
-1283 -409 0
-1283 -410 0
-1283 -411 0
-1284 446 0
-1284 469 0
-1284 473 0
-1284 -320 -324 0
-1284 -340 0
-1284 -341 0
-1284 -342 0
-1284 -343 0
-1284 -344 0
-1284 -345 0
-1284 -346 0
-1284 -347 0
-1284 -364 0
-1284 -365 0
-1284 -366 0
-1284 -367 0
-1284 -368 0
-1284 -369 0
-1284 -370 0
-1284 -371 0
-1284 -404 0
-1284 -405 0
-1284 -406 0
-1284 -407 0
-1284 -408 0
-1284 -409 0
-1284 -410 0
-1284 -411 0
-1284 -412 0
-1284 -413 0
-1284 -414 0
-1284 -415 0
-1285 446 0
-1285 470 0
-1285 473 0
-1285 -321 -324 0
-1285 -344 0
-1285 -345 0
-1285 -346 0
-1285 -347 0
-1285 -348 0
-1285 -349 0
-1285 -350 0
-1285 -351 0
-1285 -368 0
-1285 -369 0
-1285 -370 0
-1285 -371 0
-1285 -372 0
-1285 -373 0
-1285 -374 0
-1285 -375 0
-1285 -404 0
-1285 -405 0
-1285 -406 0
-1285 -407 0
-1285 -408 0
-1285 -409 0
-1285 -410 0
-1285 -411 0
-1285 -412 0
-1285 -413 0
-1285 -414 0
-1285 -415 0
-1285 -416 0
-1285 -417 0
-1285 -418 0
-1285 -419 0
-1286 446 0
-1286 471 0
-1286 473 0
-1286 -322 -324 0
-1286 -348 0
-1286 -349 0
-1286 -350 0
-1286 -351 0
-1286 -352 0
-1286 -353 0
-1286 -354 0
-1286 -355 0
-1286 -372 0
-1286 -373 0
-1286 -374 0
-1286 -375 0
-1286 -376 0
-1286 -377 0
-1286 -378 0
-1286 -379 0
-1286 -408 0
-1286 -409 0
-1286 -410 0
-1286 -411 0
-1286 -412 0
-1286 -413 0
-1286 -414 0
-1286 -415 0
-1286 -416 0
-1286 -417 0
-1286 -418 0
-1286 -419 0
-1287 446 0
-1287 472 0
-1287 473 0
-1287 -323 -324 0
-1287 -352 0
-1287 -353 0
-1287 -354 0
-1287 -355 0
-1287 -356 0
-1287 -357 0
-1287 -358 0
-1287 -359 0
-1287 -376 0
-1287 -377 0
-1287 -378 0
-1287 -379 0
-1287 -380 0
-1287 -381 0
-1287 -382 0
-1287 -383 0
-1287 -412 0
-1287 -413 0
-1287 -414 0
-1287 -415 0
-1287 -416 0
-1287 -417 0
-1287 -418 0
-1287 -419 0
-1288 447 0
-1288 477 0
-1288 -302 0
-1288 -303 0
-1288 -304 0
-1288 -308 0
-1288 -305 482 0
-1288 -305 -328 -333 0
-1288 -305 -337 0
-1288 -305 -338 0
-1288 -305 -339 0
-1288 -305 -341 0
-1288 -305 -342 0
-1288 -305 -343 0
-1288 -305 -345 0
-1288 -305 -346 0
-1288 -305 -347 0
-1288 -305 -361 0
-1288 -305 -362 0
-1288 -305 -363 0
-1288 -305 -365 0
-1288 -305 -366 0
-1288 -305 -367 0
-1288 -305 -369 0
-1288 -305 -370 0
-1288 -305 -371 0
-1288 -305 -385 0
-1288 -305 -386 0
-1288 -305 -387 0
-1288 -305 -389 0
-1288 -305 -390 0
-1288 -305 -391 0
-1288 -305 -393 0
-1288 -305 -394 0
-1288 -305 -395 0
-1288 -306 483 0
-1288 -306 -328 -334 0
-1288 -306 -338 0
-1288 -306 -339 0
-1288 -306 -342 0
-1288 -306 -343 0
-1288 -306 -346 0
-1288 -306 -347 0
-1288 -306 -362 0
-1288 -306 -363 0
-1288 -306 -366 0
-1288 -306 -367 0
-1288 -306 -370 0
-1288 -306 -371 0
-1288 -306 -386 0
-1288 -306 -387 0
-1288 -306 -390 0
-1288 -306 -391 0
-1288 -306 -394 0
-1288 -306 -395 0
-1288 -307 484 0
-1288 -307 -328 -335 0
-1288 -307 -339 0
-1288 -307 -343 0
-1288 -307 -347 0
-1288 -307 -363 0
-1288 -307 -367 0
-1288 -307 -371 0
-1288 -307 -387 0
-1288 -307 -391 0
-1288 -307 -395 0
-1289 447 0
-1289 478 0
-1289 -299 0
-1289 -303 0
-1289 -304 0
-1289 -308 0
-1289 -305 482 0
-1289 -305 -329 -333 0
-1289 -305 -341 0
-1289 -305 -342 0
-1289 -305 -343 0
-1289 -305 -345 0
-1289 -305 -346 0
-1289 -305 -347 0
-1289 -305 -349 0
-1289 -305 -350 0
-1289 -305 -351 0
-1289 -305 -365 0
-1289 -305 -366 0
-1289 -305 -367 0
-1289 -305 -369 0
-1289 -305 -370 0
-1289 -305 -371 0
-1289 -305 -373 0
-1289 -305 -374 0
-1289 -305 -375 0
-1289 -305 -385 0
-1289 -305 -386 0
-1289 -305 -387 0
-1289 -305 -389 0
-1289 -305 -390 0
-1289 -305 -391 0
-1289 -305 -393 0
-1289 -305 -394 0
-1289 -305 -395 0
-1289 -305 -397 0
-1289 -305 -398 0
-1289 -305 -399 0
-1289 -306 483 0
-1289 -306 -329 -334 0
-1289 -306 -342 0
-1289 -306 -343 0
-1289 -306 -346 0
-1289 -306 -347 0
-1289 -306 -350 0
-1289 -306 -351 0
-1289 -306 -366 0
-1289 -306 -367 0
-1289 -306 -370 0
-1289 -306 -371 0
-1289 -306 -374 0
-1289 -306 -375 0
-1289 -306 -386 0
-1289 -306 -387 0
-1289 -306 -390 0
-1289 -306 -391 0
-1289 -306 -394 0
-1289 -306 -395 0
-1289 -306 -398 0
-1289 -306 -399 0
-1289 -307 484 0
-1289 -307 -329 -335 0
-1289 -307 -343 0
-1289 -307 -347 0
-1289 -307 -351 0
-1289 -307 -367 0
-1289 -307 -371 0
-1289 -307 -375 0
-1289 -307 -387 0
-1289 -307 -391 0
-1289 -307 -395 0
-1289 -307 -399 0
-1290 447 0
-1290 479 0
-1290 -299 0
-1290 -300 0
-1290 -304 0
-1290 -308 0
-1290 -305 482 0
-1290 -305 -330 -333 0
-1290 -305 -345 0
-1290 -305 -346 0
-1290 -305 -347 0
-1290 -305 -349 0
-1290 -305 -350 0
-1290 -305 -351 0
-1290 -305 -353 0
-1290 -305 -354 0
-1290 -305 -355 0
-1290 -305 -369 0
-1290 -305 -370 0
-1290 -305 -371 0
-1290 -305 -373 0
-1290 -305 -374 0
-1290 -305 -375 0
-1290 -305 -377 0
-1290 -305 -378 0
-1290 -305 -379 0
-1290 -305 -389 0
-1290 -305 -390 0
-1290 -305 -391 0
-1290 -305 -393 0
-1290 -305 -394 0
-1290 -305 -395 0
-1290 -305 -397 0
-1290 -305 -398 0
-1290 -305 -399 0
-1290 -305 -401 0
-1290 -305 -402 0
-1290 -305 -403 0
-1290 -306 483 0
-1290 -306 -330 -334 0
-1290 -306 -346 0
-1290 -306 -347 0
-1290 -306 -350 0
-1290 -306 -351 0
-1290 -306 -354 0
-1290 -306 -355 0
-1290 -306 -370 0
-1290 -306 -371 0
-1290 -306 -374 0
-1290 -306 -375 0
-1290 -306 -378 0
-1290 -306 -379 0
-1290 -306 -390 0
-1290 -306 -391 0
-1290 -306 -394 0
-1290 -306 -395 0
-1290 -306 -398 0
-1290 -306 -399 0
-1290 -306 -402 0
-1290 -306 -403 0
-1290 -307 484 0
-1290 -307 -330 -335 0
-1290 -307 -347 0
-1290 -307 -351 0
-1290 -307 -355 0
-1290 -307 -371 0
-1290 -307 -375 0
-1290 -307 -379 0
-1290 -307 -391 0
-1290 -307 -395 0
-1290 -307 -399 0
-1290 -307 -403 0
-1291 447 0
-1291 480 0
-1291 -299 0
-1291 -300 0
-1291 -301 0
-1291 -308 0
-1291 -305 482 0
-1291 -305 -331 -333 0
-1291 -305 -349 0
-1291 -305 -350 0
-1291 -305 -351 0
-1291 -305 -353 0
-1291 -305 -354 0
-1291 -305 -355 0
-1291 -305 -357 0
-1291 -305 -358 0
-1291 -305 -359 0
-1291 -305 -373 0
-1291 -305 -374 0
-1291 -305 -375 0
-1291 -305 -377 0
-1291 -305 -378 0
-1291 -305 -379 0
-1291 -305 -381 0
-1291 -305 -382 0
-1291 -305 -383 0
-1291 -305 -393 0
-1291 -305 -394 0
-1291 -305 -395 0
-1291 -305 -397 0
-1291 -305 -398 0
-1291 -305 -399 0
-1291 -305 -401 0
-1291 -305 -402 0
-1291 -305 -403 0
-1291 -306 483 0
-1291 -306 -331 -334 0
-1291 -306 -350 0
-1291 -306 -351 0
-1291 -306 -354 0
-1291 -306 -355 0
-1291 -306 -358 0
-1291 -306 -359 0
-1291 -306 -374 0
-1291 -306 -375 0
-1291 -306 -378 0
-1291 -306 -379 0
-1291 -306 -382 0
-1291 -306 -383 0
-1291 -306 -394 0
-1291 -306 -395 0
-1291 -306 -398 0
-1291 -306 -399 0
-1291 -306 -402 0
-1291 -306 -403 0
-1291 -307 484 0
-1291 -307 -331 -335 0
-1291 -307 -351 0
-1291 -307 -355 0
-1291 -307 -359 0
-1291 -307 -375 0
-1291 -307 -379 0
-1291 -307 -383 0
-1291 -307 -395 0
-1291 -307 -399 0
-1291 -307 -403 0
-1292 447 0
-1292 477 0
-1292 -312 0
-1292 -313 0
-1292 -314 0
-1292 -318 0
-1292 -315 482 0
-1292 -315 -328 -333 0
-1292 -315 -337 0
-1292 -315 -338 0
-1292 -315 -339 0
-1292 -315 -341 0
-1292 -315 -342 0
-1292 -315 -343 0
-1292 -315 -345 0
-1292 -315 -346 0
-1292 -315 -347 0
-1292 -315 -361 0
-1292 -315 -362 0
-1292 -315 -363 0
-1292 -315 -365 0
-1292 -315 -366 0
-1292 -315 -367 0
-1292 -315 -369 0
-1292 -315 -370 0
-1292 -315 -371 0
-1292 -315 -385 0
-1292 -315 -386 0
-1292 -315 -387 0
-1292 -315 -389 0
-1292 -315 -390 0
-1292 -315 -391 0
-1292 -315 -393 0
-1292 -315 -394 0
-1292 -315 -395 0
-1292 -316 483 0
-1292 -316 -328 -334 0
-1292 -316 -338 0
-1292 -316 -339 0
-1292 -316 -342 0
-1292 -316 -343 0
-1292 -316 -346 0
-1292 -316 -347 0
-1292 -316 -362 0
-1292 -316 -363 0
-1292 -316 -366 0
-1292 -316 -367 0
-1292 -316 -370 0
-1292 -316 -371 0
-1292 -316 -386 0
-1292 -316 -387 0
-1292 -316 -390 0
-1292 -316 -391 0
-1292 -316 -394 0
-1292 -316 -395 0
-1292 -317 484 0
-1292 -317 -328 -335 0
-1292 -317 -339 0
-1292 -317 -343 0
-1292 -317 -347 0
-1292 -317 -363 0
-1292 -317 -367 0
-1292 -317 -371 0
-1292 -317 -387 0
-1292 -317 -391 0
-1292 -317 -395 0
-1293 447 0
-1293 478 0
-1293 -309 0
-1293 -313 0
-1293 -314 0
-1293 -318 0
-1293 -315 482 0
-1293 -315 -329 -333 0
-1293 -315 -341 0
-1293 -315 -342 0
-1293 -315 -343 0
-1293 -315 -345 0
-1293 -315 -346 0
-1293 -315 -347 0
-1293 -315 -349 0
-1293 -315 -350 0
-1293 -315 -351 0
-1293 -315 -365 0
-1293 -315 -366 0
-1293 -315 -367 0
-1293 -315 -369 0
-1293 -315 -370 0
-1293 -315 -371 0
-1293 -315 -373 0
-1293 -315 -374 0
-1293 -315 -375 0
-1293 -315 -385 0
-1293 -315 -386 0
-1293 -315 -387 0
-1293 -315 -389 0
-1293 -315 -390 0
-1293 -315 -391 0
-1293 -315 -393 0
-1293 -315 -394 0
-1293 -315 -395 0
-1293 -315 -397 0
-1293 -315 -398 0
-1293 -315 -399 0
-1293 -316 483 0
-1293 -316 -329 -334 0
-1293 -316 -342 0
-1293 -316 -343 0
-1293 -316 -346 0
-1293 -316 -347 0
-1293 -316 -350 0
-1293 -316 -351 0
-1293 -316 -366 0
-1293 -316 -367 0
-1293 -316 -370 0
-1293 -316 -371 0
-1293 -316 -374 0
-1293 -316 -375 0
-1293 -316 -386 0
-1293 -316 -387 0
-1293 -316 -390 0
-1293 -316 -391 0
-1293 -316 -394 0
-1293 -316 -395 0
-1293 -316 -398 0
-1293 -316 -399 0
-1293 -317 484 0
-1293 -317 -329 -335 0
-1293 -317 -343 0
-1293 -317 -347 0
-1293 -317 -351 0
-1293 -317 -367 0
-1293 -317 -371 0
-1293 -317 -375 0
-1293 -317 -387 0
-1293 -317 -391 0
-1293 -317 -395 0
-1293 -317 -399 0
-1294 447 0
-1294 479 0
-1294 -309 0
-1294 -310 0
-1294 -314 0
-1294 -318 0
-1294 -315 482 0
-1294 -315 -330 -333 0
-1294 -315 -345 0
-1294 -315 -346 0
-1294 -315 -347 0
-1294 -315 -349 0
-1294 -315 -350 0
-1294 -315 -351 0
-1294 -315 -353 0
-1294 -315 -354 0
-1294 -315 -355 0
-1294 -315 -369 0
-1294 -315 -370 0
-1294 -315 -371 0
-1294 -315 -373 0
-1294 -315 -374 0
-1294 -315 -375 0
-1294 -315 -377 0
-1294 -315 -378 0
-1294 -315 -379 0
-1294 -315 -389 0
-1294 -315 -390 0
-1294 -315 -391 0
-1294 -315 -393 0
-1294 -315 -394 0
-1294 -315 -395 0
-1294 -315 -397 0
-1294 -315 -398 0
-1294 -315 -399 0
-1294 -315 -401 0
-1294 -315 -402 0
-1294 -315 -403 0
-1294 -316 483 0
-1294 -316 -330 -334 0
-1294 -316 -346 0
-1294 -316 -347 0
-1294 -316 -350 0
-1294 -316 -351 0
-1294 -316 -354 0
-1294 -316 -355 0
-1294 -316 -370 0
-1294 -316 -371 0
-1294 -316 -374 0
-1294 -316 -375 0
-1294 -316 -378 0
-1294 -316 -379 0
-1294 -316 -390 0
-1294 -316 -391 0
-1294 -316 -394 0
-1294 -316 -395 0
-1294 -316 -398 0
-1294 -316 -399 0
-1294 -316 -402 0
-1294 -316 -403 0
-1294 -317 484 0
-1294 -317 -330 -335 0
-1294 -317 -347 0
-1294 -317 -351 0
-1294 -317 -355 0
-1294 -317 -371 0
-1294 -317 -375 0
-1294 -317 -379 0
-1294 -317 -391 0
-1294 -317 -395 0
-1294 -317 -399 0
-1294 -317 -403 0
-1295 447 0
-1295 480 0
-1295 -309 0
-1295 -310 0
-1295 -311 0
-1295 -318 0
-1295 -315 482 0
-1295 -315 -331 -333 0
-1295 -315 -349 0
-1295 -315 -350 0
-1295 -315 -351 0
-1295 -315 -353 0
-1295 -315 -354 0
-1295 -315 -355 0
-1295 -315 -357 0
-1295 -315 -358 0
-1295 -315 -359 0
-1295 -315 -373 0
-1295 -315 -374 0
-1295 -315 -375 0
-1295 -315 -377 0
-1295 -315 -378 0
-1295 -315 -379 0
-1295 -315 -381 0
-1295 -315 -382 0
-1295 -315 -383 0
-1295 -315 -393 0
-1295 -315 -394 0
-1295 -315 -395 0
-1295 -315 -397 0
-1295 -315 -398 0
-1295 -315 -399 0
-1295 -315 -401 0
-1295 -315 -402 0
-1295 -315 -403 0
-1295 -316 483 0
-1295 -316 -331 -334 0
-1295 -316 -350 0
-1295 -316 -351 0
-1295 -316 -354 0
-1295 -316 -355 0
-1295 -316 -358 0
-1295 -316 -359 0
-1295 -316 -374 0
-1295 -316 -375 0
-1295 -316 -378 0
-1295 -316 -379 0
-1295 -316 -382 0
-1295 -316 -383 0
-1295 -316 -394 0
-1295 -316 -395 0
-1295 -316 -398 0
-1295 -316 -399 0
-1295 -316 -402 0
-1295 -316 -403 0
-1295 -317 484 0
-1295 -317 -331 -335 0
-1295 -317 -351 0
-1295 -317 -355 0
-1295 -317 -359 0
-1295 -317 -375 0
-1295 -317 -379 0
-1295 -317 -383 0
-1295 -317 -395 0
-1295 -317 -399 0
-1295 -317 -403 0
-1296 447 0
-1296 477 0
-1296 -322 0
-1296 -323 0
-1296 -327 0
-1296 -324 482 0
-1296 -324 -328 -333 0
-1296 -324 -337 0
-1296 -324 -338 0
-1296 -324 -339 0
-1296 -324 -341 0
-1296 -324 -342 0
-1296 -324 -343 0
-1296 -324 -345 0
-1296 -324 -346 0
-1296 -324 -347 0
-1296 -324 -361 0
-1296 -324 -362 0
-1296 -324 -363 0
-1296 -324 -365 0
-1296 -324 -366 0
-1296 -324 -367 0
-1296 -324 -369 0
-1296 -324 -370 0
-1296 -324 -371 0
-1296 -324 -385 0
-1296 -324 -386 0
-1296 -324 -387 0
-1296 -324 -389 0
-1296 -324 -390 0
-1296 -324 -391 0
-1296 -324 -393 0
-1296 -324 -394 0
-1296 -324 -395 0
-1296 -325 483 0
-1296 -325 -328 -334 0
-1296 -325 -338 0
-1296 -325 -339 0
-1296 -325 -342 0
-1296 -325 -343 0
-1296 -325 -346 0
-1296 -325 -347 0
-1296 -325 -362 0
-1296 -325 -363 0
-1296 -325 -366 0
-1296 -325 -367 0
-1296 -325 -370 0
-1296 -325 -371 0
-1296 -325 -386 0
-1296 -325 -387 0
-1296 -325 -390 0
-1296 -325 -391 0
-1296 -325 -394 0
-1296 -325 -395 0
-1296 -326 484 0
-1296 -326 -328 -335 0
-1296 -326 -339 0
-1296 -326 -343 0
-1296 -326 -347 0
-1296 -326 -363 0
-1296 -326 -367 0
-1296 -326 -371 0
-1296 -326 -387 0
-1296 -326 -391 0
-1296 -326 -395 0
-1297 447 0
-1297 478 0
-1297 -323 0
-1297 -327 0
-1297 -324 482 0
-1297 -324 -329 -333 0
-1297 -324 -341 0
-1297 -324 -342 0
-1297 -324 -343 0
-1297 -324 -345 0
-1297 -324 -346 0
-1297 -324 -347 0
-1297 -324 -349 0
-1297 -324 -350 0
-1297 -324 -351 0
-1297 -324 -365 0
-1297 -324 -366 0
-1297 -324 -367 0
-1297 -324 -369 0
-1297 -324 -370 0
-1297 -324 -371 0
-1297 -324 -373 0
-1297 -324 -374 0
-1297 -324 -375 0
-1297 -324 -385 0
-1297 -324 -386 0
-1297 -324 -387 0
-1297 -324 -389 0
-1297 -324 -390 0
-1297 -324 -391 0
-1297 -324 -393 0
-1297 -324 -394 0
-1297 -324 -395 0
-1297 -324 -397 0
-1297 -324 -398 0
-1297 -324 -399 0
-1297 -325 483 0
-1297 -325 -329 -334 0
-1297 -325 -342 0
-1297 -325 -343 0
-1297 -325 -346 0
-1297 -325 -347 0
-1297 -325 -350 0
-1297 -325 -351 0
-1297 -325 -366 0
-1297 -325 -367 0
-1297 -325 -370 0
-1297 -325 -371 0
-1297 -325 -374 0
-1297 -325 -375 0
-1297 -325 -386 0
-1297 -325 -387 0
-1297 -325 -390 0
-1297 -325 -391 0
-1297 -325 -394 0
-1297 -325 -395 0
-1297 -325 -398 0
-1297 -325 -399 0
-1297 -326 484 0
-1297 -326 -329 -335 0
-1297 -326 -343 0
-1297 -326 -347 0
-1297 -326 -351 0
-1297 -326 -367 0
-1297 -326 -371 0
-1297 -326 -375 0
-1297 -326 -387 0
-1297 -326 -391 0
-1297 -326 -395 0
-1297 -326 -399 0
-1298 447 0
-1298 479 0
-1298 -319 0
-1298 -327 0
-1298 -324 482 0
-1298 -324 -330 -333 0
-1298 -324 -345 0
-1298 -324 -346 0
-1298 -324 -347 0
-1298 -324 -349 0
-1298 -324 -350 0
-1298 -324 -351 0
-1298 -324 -353 0
-1298 -324 -354 0
-1298 -324 -355 0
-1298 -324 -369 0
-1298 -324 -370 0
-1298 -324 -371 0
-1298 -324 -373 0
-1298 -324 -374 0
-1298 -324 -375 0
-1298 -324 -377 0
-1298 -324 -378 0
-1298 -324 -379 0
-1298 -324 -389 0
-1298 -324 -390 0
-1298 -324 -391 0
-1298 -324 -393 0
-1298 -324 -394 0
-1298 -324 -395 0
-1298 -324 -397 0
-1298 -324 -398 0
-1298 -324 -399 0
-1298 -324 -401 0
-1298 -324 -402 0
-1298 -324 -403 0
-1298 -325 483 0
-1298 -325 -330 -334 0
-1298 -325 -346 0
-1298 -325 -347 0
-1298 -325 -350 0
-1298 -325 -351 0
-1298 -325 -354 0
-1298 -325 -355 0
-1298 -325 -370 0
-1298 -325 -371 0
-1298 -325 -374 0
-1298 -325 -375 0
-1298 -325 -378 0
-1298 -325 -379 0
-1298 -325 -390 0
-1298 -325 -391 0
-1298 -325 -394 0
-1298 -325 -395 0
-1298 -325 -398 0
-1298 -325 -399 0
-1298 -325 -402 0
-1298 -325 -403 0
-1298 -326 484 0
-1298 -326 -330 -335 0
-1298 -326 -347 0
-1298 -326 -351 0
-1298 -326 -355 0
-1298 -326 -371 0
-1298 -326 -375 0
-1298 -326 -379 0
-1298 -326 -391 0
-1298 -326 -395 0
-1298 -326 -399 0
-1298 -326 -403 0
-1299 447 0
-1299 480 0
-1299 -319 0
-1299 -320 0
-1299 -327 0
-1299 -324 482 0
-1299 -324 -331 -333 0
-1299 -324 -349 0
-1299 -324 -350 0
-1299 -324 -351 0
-1299 -324 -353 0
-1299 -324 -354 0
-1299 -324 -355 0
-1299 -324 -357 0
-1299 -324 -358 0
-1299 -324 -359 0
-1299 -324 -373 0
-1299 -324 -374 0
-1299 -324 -375 0
-1299 -324 -377 0
-1299 -324 -378 0
-1299 -324 -379 0
-1299 -324 -381 0
-1299 -324 -382 0
-1299 -324 -383 0
-1299 -324 -393 0
-1299 -324 -394 0
-1299 -324 -395 0
-1299 -324 -397 0
-1299 -324 -398 0
-1299 -324 -399 0
-1299 -324 -401 0
-1299 -324 -402 0
-1299 -324 -403 0
-1299 -325 483 0
-1299 -325 -331 -334 0
-1299 -325 -350 0
-1299 -325 -351 0
-1299 -325 -354 0
-1299 -325 -355 0
-1299 -325 -358 0
-1299 -325 -359 0
-1299 -325 -374 0
-1299 -325 -375 0
-1299 -325 -378 0
-1299 -325 -379 0
-1299 -325 -382 0
-1299 -325 -383 0
-1299 -325 -394 0
-1299 -325 -395 0
-1299 -325 -398 0
-1299 -325 -399 0
-1299 -325 -402 0
-1299 -325 -403 0
-1299 -326 484 0
-1299 -326 -331 -335 0
-1299 -326 -351 0
-1299 -326 -355 0
-1299 -326 -359 0
-1299 -326 -375 0
-1299 -326 -379 0
-1299 -326 -383 0
-1299 -326 -395 0
-1299 -326 -399 0
-1299 -326 -403 0
-1300 447 0
-1300 477 0
-1300 481 0
-1300 -328 -332 0
-1300 -336 0
-1300 -337 0
-1300 -338 0
-1300 -339 0
-1300 -340 0
-1300 -341 0
-1300 -342 0
-1300 -343 0
-1300 -344 0
-1300 -345 0
-1300 -346 0
-1300 -347 0
-1300 -360 0
-1300 -361 0
-1300 -362 0
-1300 -363 0
-1300 -364 0
-1300 -365 0
-1300 -366 0
-1300 -367 0
-1300 -368 0
-1300 -369 0
-1300 -370 0
-1300 -371 0
-1300 -384 0
-1300 -385 0
-1300 -386 0
-1300 -387 0
-1300 -388 0
-1300 -389 0
-1300 -390 0
-1300 -391 0
-1300 -392 0
-1300 -393 0
-1300 -394 0
-1300 -395 0
-1301 447 0
-1301 478 0
-1301 481 0
-1301 -329 -332 0
-1301 -340 0
-1301 -341 0
-1301 -342 0
-1301 -343 0
-1301 -344 0
-1301 -345 0
-1301 -346 0
-1301 -347 0
-1301 -348 0
-1301 -349 0
-1301 -350 0
-1301 -351 0
-1301 -364 0
-1301 -365 0
-1301 -366 0
-1301 -367 0
-1301 -368 0
-1301 -369 0
-1301 -370 0
-1301 -371 0
-1301 -372 0
-1301 -373 0
-1301 -374 0
-1301 -375 0
-1301 -384 0
-1301 -385 0
-1301 -386 0
-1301 -387 0
-1301 -388 0
-1301 -389 0
-1301 -390 0
-1301 -391 0
-1301 -392 0
-1301 -393 0
-1301 -394 0
-1301 -395 0
-1301 -396 0
-1301 -397 0
-1301 -398 0
-1301 -399 0
-1302 447 0
-1302 479 0
-1302 481 0
-1302 -330 -332 0
-1302 -344 0
-1302 -345 0
-1302 -346 0
-1302 -347 0
-1302 -348 0
-1302 -349 0
-1302 -350 0
-1302 -351 0
-1302 -352 0
-1302 -353 0
-1302 -354 0
-1302 -355 0
-1302 -368 0
-1302 -369 0
-1302 -370 0
-1302 -371 0
-1302 -372 0
-1302 -373 0
-1302 -374 0
-1302 -375 0
-1302 -376 0
-1302 -377 0
-1302 -378 0
-1302 -379 0
-1302 -388 0
-1302 -389 0
-1302 -390 0
-1302 -391 0
-1302 -392 0
-1302 -393 0
-1302 -394 0
-1302 -395 0
-1302 -396 0
-1302 -397 0
-1302 -398 0
-1302 -399 0
-1302 -400 0
-1302 -401 0
-1302 -402 0
-1302 -403 0
-1303 447 0
-1303 480 0
-1303 481 0
-1303 -331 -332 0
-1303 -348 0
-1303 -349 0
-1303 -350 0
-1303 -351 0
-1303 -352 0
-1303 -353 0
-1303 -354 0
-1303 -355 0
-1303 -356 0
-1303 -357 0
-1303 -358 0
-1303 -359 0
-1303 -372 0
-1303 -373 0
-1303 -374 0
-1303 -375 0
-1303 -376 0
-1303 -377 0
-1303 -378 0
-1303 -379 0
-1303 -380 0
-1303 -381 0
-1303 -382 0
-1303 -383 0
-1303 -392 0
-1303 -393 0
-1303 -394 0
-1303 -395 0
-1303 -396 0
-1303 -397 0
-1303 -398 0
-1303 -399 0
-1303 -400 0
-1303 -401 0
-1303 -402 0
-1303 -403 0
1308 1309 1310 1311 1312 1313 1314 1315 1316 1317 1318 1319 1320 1321 1322 1323 1324 1325 1326 1327 1328 1329 1330 1331 1332 1333 1334 1335 1336 1337 1338 1339 1340 1341 1342 1343 1344 1345 1346 1347 1348 1349 1350 1351 1352 1353 1354 1355 1356 1357 1358 1359 1360 1361 1362 1363 1364 1365 1366 1367 1368 1369 1370 1371 1372 1373 1374 1375 1376 1377 1378 1379 1380 1381 1382 1383 1384 1385 1386 1387 1388 1389 1390 1391 0
-1308 -1309 0
-1308 -1310 0
-1308 -1311 0
-1308 -1312 0
-1308 -1313 0
-1308 -1314 0
-1308 -1315 0
-1308 -1316 0
-1308 -1317 0
-1308 -1318 0
-1308 -1319 0
-1308 -1320 0
-1308 -1321 0
-1308 -1322 0
-1308 -1323 0
-1308 -1324 0
-1308 -1325 0
-1308 -1326 0
-1308 -1327 0
-1308 -1328 0
-1308 -1329 0
-1308 -1330 0
-1308 -1331 0
-1308 -1332 0
-1308 -1333 0
-1308 -1334 0
-1308 -1335 0
-1308 -1336 0
-1308 -1337 0
-1308 -1338 0
-1308 -1339 0
-1308 -1340 0
-1308 -1341 0
-1308 -1342 0
-1308 -1343 0
-1308 -1344 0
-1308 -1345 0
-1308 -1346 0
-1308 -1347 0
-1308 -1348 0
-1308 -1349 0
-1308 -1350 0
-1308 -1351 0
-1308 -1352 0
-1308 -1353 0
-1308 -1354 0
-1308 -1355 0
-1308 -1356 0
-1308 -1357 0
-1308 -1358 0
-1308 -1359 0
-1308 -1360 0
-1308 -1361 0
-1308 -1362 0
-1308 -1363 0
-1308 -1364 0
-1308 -1365 0
-1308 -1366 0
-1308 -1367 0
-1308 -1368 0
-1308 -1369 0
-1308 -1370 0
-1308 -1371 0
-1308 -1372 0
-1308 -1373 0
-1308 -1374 0
-1308 -1375 0
-1308 -1376 0
-1308 -1377 0
-1308 -1378 0
-1308 -1379 0
-1308 -1380 0
-1308 -1381 0
-1308 -1382 0
-1308 -1383 0
-1308 -1384 0
-1308 -1385 0
-1308 -1386 0
-1308 -1387 0
-1308 -1388 0
-1308 -1389 0
-1308 -1390 0
-1308 -1391 0
-1309 -1310 0
-1309 -1311 0
-1309 -1312 0
-1309 -1313 0
-1309 -1314 0
-1309 -1315 0
-1309 -1316 0
-1309 -1317 0
-1309 -1318 0
-1309 -1319 0
-1309 -1320 0
-1309 -1321 0
-1309 -1322 0
-1309 -1323 0
-1309 -1324 0
-1309 -1325 0
-1309 -1326 0
-1309 -1327 0
-1309 -1328 0
-1309 -1329 0
-1309 -1330 0
-1309 -1331 0
-1309 -1332 0
-1309 -1333 0
-1309 -1334 0
-1309 -1335 0
-1309 -1336 0
-1309 -1337 0
-1309 -1338 0
-1309 -1339 0
-1309 -1340 0
-1309 -1341 0
-1309 -1342 0
-1309 -1343 0
-1309 -1344 0
-1309 -1345 0
-1309 -1346 0
-1309 -1347 0
-1309 -1348 0
-1309 -1349 0
-1309 -1350 0
-1309 -1351 0
-1309 -1352 0
-1309 -1353 0
-1309 -1354 0
-1309 -1355 0
-1309 -1356 0
-1309 -1357 0
-1309 -1358 0
-1309 -1359 0
-1309 -1360 0
-1309 -1361 0
-1309 -1362 0
-1309 -1363 0
-1309 -1364 0
-1309 -1365 0
-1309 -1366 0
-1309 -1367 0
-1309 -1368 0
-1309 -1369 0
-1309 -1370 0
-1309 -1371 0
-1309 -1372 0
-1309 -1373 0
-1309 -1374 0
-1309 -1375 0
-1309 -1376 0
-1309 -1377 0
-1309 -1378 0
-1309 -1379 0
-1309 -1380 0
-1309 -1381 0
-1309 -1382 0
-1309 -1383 0
-1309 -1384 0
-1309 -1385 0
-1309 -1386 0
-1309 -1387 0
-1309 -1388 0
-1309 -1389 0
-1309 -1390 0
-1309 -1391 0
-1310 -1311 0
-1310 -1312 0
-1310 -1313 0
-1310 -1314 0
-1310 -1315 0
-1310 -1316 0
-1310 -1317 0
-1310 -1318 0
-1310 -1319 0
-1310 -1320 0
-1310 -1321 0
-1310 -1322 0
-1310 -1323 0
-1310 -1324 0
-1310 -1325 0
-1310 -1326 0
-1310 -1327 0
-1310 -1328 0
-1310 -1329 0
-1310 -1330 0
-1310 -1331 0
-1310 -1332 0
-1310 -1333 0
-1310 -1334 0
-1310 -1335 0
-1310 -1336 0
-1310 -1337 0
-1310 -1338 0
-1310 -1339 0
-1310 -1340 0
-1310 -1341 0
-1310 -1342 0
-1310 -1343 0
-1310 -1344 0
-1310 -1345 0
-1310 -1346 0
-1310 -1347 0
-1310 -1348 0
-1310 -1349 0
-1310 -1350 0
-1310 -1351 0
-1310 -1352 0
-1310 -1353 0
-1310 -1354 0
-1310 -1355 0
-1310 -1356 0
-1310 -1357 0
-1310 -1358 0
-1310 -1359 0
-1310 -1360 0
-1310 -1361 0
-1310 -1362 0
-1310 -1363 0
-1310 -1364 0
-1310 -1365 0
-1310 -1366 0
-1310 -1367 0
-1310 -1368 0
-1310 -1369 0
-1310 -1370 0
-1310 -1371 0
-1310 -1372 0
-1310 -1373 0
-1310 -1374 0
-1310 -1375 0
-1310 -1376 0
-1310 -1377 0
-1310 -1378 0
-1310 -1379 0
-1310 -1380 0
-1310 -1381 0
-1310 -1382 0
-1310 -1383 0
-1310 -1384 0
-1310 -1385 0
-1310 -1386 0
-1310 -1387 0
-1310 -1388 0
-1310 -1389 0
-1310 -1390 0
-1310 -1391 0
-1311 -1312 0
-1311 -1313 0
-1311 -1314 0
-1311 -1315 0
-1311 -1316 0
-1311 -1317 0
-1311 -1318 0
-1311 -1319 0
-1311 -1320 0
-1311 -1321 0
-1311 -1322 0
-1311 -1323 0
-1311 -1324 0
-1311 -1325 0
-1311 -1326 0
-1311 -1327 0
-1311 -1328 0
-1311 -1329 0
-1311 -1330 0
-1311 -1331 0
-1311 -1332 0
-1311 -1333 0
-1311 -1334 0
-1311 -1335 0
-1311 -1336 0
-1311 -1337 0
-1311 -1338 0
-1311 -1339 0
-1311 -1340 0
-1311 -1341 0
-1311 -1342 0
-1311 -1343 0
-1311 -1344 0
-1311 -1345 0
-1311 -1346 0
-1311 -1347 0
-1311 -1348 0
-1311 -1349 0
-1311 -1350 0
-1311 -1351 0
-1311 -1352 0
-1311 -1353 0
-1311 -1354 0
-1311 -1355 0
-1311 -1356 0
-1311 -1357 0
-1311 -1358 0
-1311 -1359 0
-1311 -1360 0
-1311 -1361 0
-1311 -1362 0
-1311 -1363 0
-1311 -1364 0
-1311 -1365 0
-1311 -1366 0
-1311 -1367 0
-1311 -1368 0
-1311 -1369 0
-1311 -1370 0
-1311 -1371 0
-1311 -1372 0
-1311 -1373 0
-1311 -1374 0
-1311 -1375 0
-1311 -1376 0
-1311 -1377 0
-1311 -1378 0
-1311 -1379 0
-1311 -1380 0
-1311 -1381 0
-1311 -1382 0
-1311 -1383 0
-1311 -1384 0
-1311 -1385 0
-1311 -1386 0
-1311 -1387 0
-1311 -1388 0
-1311 -1389 0
-1311 -1390 0
-1311 -1391 0
-1312 -1313 0
-1312 -1314 0
-1312 -1315 0
-1312 -1316 0
-1312 -1317 0
-1312 -1318 0
-1312 -1319 0
-1312 -1320 0
-1312 -1321 0
-1312 -1322 0
-1312 -1323 0
-1312 -1324 0
-1312 -1325 0
-1312 -1326 0
-1312 -1327 0
-1312 -1328 0
-1312 -1329 0
-1312 -1330 0
-1312 -1331 0
-1312 -1332 0
-1312 -1333 0
-1312 -1334 0
-1312 -1335 0
-1312 -1336 0
-1312 -1337 0
-1312 -1338 0
-1312 -1339 0
-1312 -1340 0
-1312 -1341 0
-1312 -1342 0
-1312 -1343 0
-1312 -1344 0
-1312 -1345 0
-1312 -1346 0
-1312 -1347 0
-1312 -1348 0
-1312 -1349 0
-1312 -1350 0
-1312 -1351 0
-1312 -1352 0
-1312 -1353 0
-1312 -1354 0
-1312 -1355 0
-1312 -1356 0
-1312 -1357 0
-1312 -1358 0
-1312 -1359 0
-1312 -1360 0
-1312 -1361 0
-1312 -1362 0
-1312 -1363 0
-1312 -1364 0
-1312 -1365 0
-1312 -1366 0
-1312 -1367 0
-1312 -1368 0
-1312 -1369 0
-1312 -1370 0
-1312 -1371 0
-1312 -1372 0
-1312 -1373 0
-1312 -1374 0
-1312 -1375 0
-1312 -1376 0
-1312 -1377 0
-1312 -1378 0
-1312 -1379 0
-1312 -1380 0
-1312 -1381 0
-1312 -1382 0
-1312 -1383 0
-1312 -1384 0
-1312 -1385 0
-1312 -1386 0
-1312 -1387 0
-1312 -1388 0
-1312 -1389 0
-1312 -1390 0
-1312 -1391 0
-1313 -1314 0
-1313 -1315 0
-1313 -1316 0
-1313 -1317 0
-1313 -1318 0
-1313 -1319 0
-1313 -1320 0
-1313 -1321 0
-1313 -1322 0
-1313 -1323 0
-1313 -1324 0
-1313 -1325 0
-1313 -1326 0
-1313 -1327 0
-1313 -1328 0
-1313 -1329 0
-1313 -1330 0
-1313 -1331 0
-1313 -1332 0
-1313 -1333 0
-1313 -1334 0
-1313 -1335 0
-1313 -1336 0
-1313 -1337 0
-1313 -1338 0
-1313 -1339 0
-1313 -1340 0
-1313 -1341 0
-1313 -1342 0
-1313 -1343 0
-1313 -1344 0
-1313 -1345 0
-1313 -1346 0
-1313 -1347 0
-1313 -1348 0
-1313 -1349 0
-1313 -1350 0
-1313 -1351 0
-1313 -1352 0
-1313 -1353 0
-1313 -1354 0
-1313 -1355 0
-1313 -1356 0
-1313 -1357 0
-1313 -1358 0
-1313 -1359 0
-1313 -1360 0
-1313 -1361 0
-1313 -1362 0
-1313 -1363 0
-1313 -1364 0
-1313 -1365 0
-1313 -1366 0
-1313 -1367 0
-1313 -1368 0
-1313 -1369 0
-1313 -1370 0
-1313 -1371 0
-1313 -1372 0
-1313 -1373 0
-1313 -1374 0
-1313 -1375 0
-1313 -1376 0
-1313 -1377 0
-1313 -1378 0
-1313 -1379 0
-1313 -1380 0
-1313 -1381 0
-1313 -1382 0
-1313 -1383 0
-1313 -1384 0
-1313 -1385 0
-1313 -1386 0
-1313 -1387 0
-1313 -1388 0
-1313 -1389 0
-1313 -1390 0
-1313 -1391 0
-1314 -1315 0
-1314 -1316 0
-1314 -1317 0
-1314 -1318 0
-1314 -1319 0
-1314 -1320 0
-1314 -1321 0
-1314 -1322 0
-1314 -1323 0
-1314 -1324 0
-1314 -1325 0
-1314 -1326 0
-1314 -1327 0
-1314 -1328 0
-1314 -1329 0
-1314 -1330 0
-1314 -1331 0
-1314 -1332 0
-1314 -1333 0
-1314 -1334 0
-1314 -1335 0
-1314 -1336 0
-1314 -1337 0
-1314 -1338 0
-1314 -1339 0
-1314 -1340 0
-1314 -1341 0
-1314 -1342 0
-1314 -1343 0
-1314 -1344 0
-1314 -1345 0
-1314 -1346 0
-1314 -1347 0
-1314 -1348 0
-1314 -1349 0
-1314 -1350 0
-1314 -1351 0
-1314 -1352 0
-1314 -1353 0
-1314 -1354 0
-1314 -1355 0
-1314 -1356 0
-1314 -1357 0
-1314 -1358 0
-1314 -1359 0
-1314 -1360 0
-1314 -1361 0
-1314 -1362 0
-1314 -1363 0
-1314 -1364 0
-1314 -1365 0
-1314 -1366 0
-1314 -1367 0
-1314 -1368 0
-1314 -1369 0
-1314 -1370 0
-1314 -1371 0
-1314 -1372 0
-1314 -1373 0
-1314 -1374 0
-1314 -1375 0
-1314 -1376 0
-1314 -1377 0
-1314 -1378 0
-1314 -1379 0
-1314 -1380 0
-1314 -1381 0
-1314 -1382 0
-1314 -1383 0
-1314 -1384 0
-1314 -1385 0
-1314 -1386 0
-1314 -1387 0
-1314 -1388 0
-1314 -1389 0
-1314 -1390 0
-1314 -1391 0
-1315 -1316 0
-1315 -1317 0
-1315 -1318 0
-1315 -1319 0
-1315 -1320 0
-1315 -1321 0
-1315 -1322 0
-1315 -1323 0
-1315 -1324 0
-1315 -1325 0
-1315 -1326 0
-1315 -1327 0
-1315 -1328 0
-1315 -1329 0
-1315 -1330 0
-1315 -1331 0
-1315 -1332 0
-1315 -1333 0
-1315 -1334 0
-1315 -1335 0
-1315 -1336 0
-1315 -1337 0
-1315 -1338 0
-1315 -1339 0
-1315 -1340 0
-1315 -1341 0
-1315 -1342 0
-1315 -1343 0
-1315 -1344 0
-1315 -1345 0
-1315 -1346 0
-1315 -1347 0
-1315 -1348 0
-1315 -1349 0
-1315 -1350 0
-1315 -1351 0
-1315 -1352 0
-1315 -1353 0
-1315 -1354 0
-1315 -1355 0
-1315 -1356 0
-1315 -1357 0
-1315 -1358 0
-1315 -1359 0
-1315 -1360 0
-1315 -1361 0
-1315 -1362 0
-1315 -1363 0
-1315 -1364 0
-1315 -1365 0
-1315 -1366 0
-1315 -1367 0
-1315 -1368 0
-1315 -1369 0
-1315 -1370 0
-1315 -1371 0
-1315 -1372 0
-1315 -1373 0
-1315 -1374 0
-1315 -1375 0
-1315 -1376 0
-1315 -1377 0
-1315 -1378 0
-1315 -1379 0
-1315 -1380 0
-1315 -1381 0
-1315 -1382 0
-1315 -1383 0
-1315 -1384 0
-1315 -1385 0
-1315 -1386 0
-1315 -1387 0
-1315 -1388 0
-1315 -1389 0
-1315 -1390 0
-1315 -1391 0
-1316 -1317 0
-1316 -1318 0
-1316 -1319 0
-1316 -1320 0
-1316 -1321 0
-1316 -1322 0
-1316 -1323 0
-1316 -1324 0
-1316 -1325 0
-1316 -1326 0
-1316 -1327 0
-1316 -1328 0
-1316 -1329 0
-1316 -1330 0
-1316 -1331 0
-1316 -1332 0
-1316 -1333 0
-1316 -1334 0
-1316 -1335 0
-1316 -1336 0
-1316 -1337 0
-1316 -1338 0
-1316 -1339 0
-1316 -1340 0
-1316 -1341 0
-1316 -1342 0
-1316 -1343 0
-1316 -1344 0
-1316 -1345 0
-1316 -1346 0
-1316 -1347 0
-1316 -1348 0
-1316 -1349 0
-1316 -1350 0
-1316 -1351 0
-1316 -1352 0
-1316 -1353 0
-1316 -1354 0
-1316 -1355 0
-1316 -1356 0
-1316 -1357 0
-1316 -1358 0
-1316 -1359 0
-1316 -1360 0
-1316 -1361 0
-1316 -1362 0
-1316 -1363 0
-1316 -1364 0
-1316 -1365 0
-1316 -1366 0
-1316 -1367 0
-1316 -1368 0
-1316 -1369 0
-1316 -1370 0
-1316 -1371 0
-1316 -1372 0
-1316 -1373 0
-1316 -1374 0
-1316 -1375 0
-1316 -1376 0
-1316 -1377 0
-1316 -1378 0
-1316 -1379 0
-1316 -1380 0
-1316 -1381 0
-1316 -1382 0
-1316 -1383 0
-1316 -1384 0
-1316 -1385 0
-1316 -1386 0
-1316 -1387 0
-1316 -1388 0
-1316 -1389 0
-1316 -1390 0
-1316 -1391 0
-1317 -1318 0
-1317 -1319 0
-1317 -1320 0
-1317 -1321 0
-1317 -1322 0
-1317 -1323 0
-1317 -1324 0
-1317 -1325 0
-1317 -1326 0
-1317 -1327 0
-1317 -1328 0
-1317 -1329 0
-1317 -1330 0
-1317 -1331 0
-1317 -1332 0
-1317 -1333 0
-1317 -1334 0
-1317 -1335 0
-1317 -1336 0
-1317 -1337 0
-1317 -1338 0
-1317 -1339 0
-1317 -1340 0
-1317 -1341 0
-1317 -1342 0
-1317 -1343 0
-1317 -1344 0
-1317 -1345 0
-1317 -1346 0
-1317 -1347 0
-1317 -1348 0
-1317 -1349 0
-1317 -1350 0
-1317 -1351 0
-1317 -1352 0
-1317 -1353 0
-1317 -1354 0
-1317 -1355 0
-1317 -1356 0
-1317 -1357 0
-1317 -1358 0
-1317 -1359 0
-1317 -1360 0
-1317 -1361 0
-1317 -1362 0
-1317 -1363 0
-1317 -1364 0
-1317 -1365 0
-1317 -1366 0
-1317 -1367 0
-1317 -1368 0
-1317 -1369 0
-1317 -1370 0
-1317 -1371 0
-1317 -1372 0
-1317 -1373 0
-1317 -1374 0
-1317 -1375 0
-1317 -1376 0
-1317 -1377 0
-1317 -1378 0
-1317 -1379 0
-1317 -1380 0
-1317 -1381 0
-1317 -1382 0
-1317 -1383 0
-1317 -1384 0
-1317 -1385 0
-1317 -1386 0
-1317 -1387 0
-1317 -1388 0
-1317 -1389 0
-1317 -1390 0
-1317 -1391 0
-1318 -1319 0
-1318 -1320 0
-1318 -1321 0
-1318 -1322 0
-1318 -1323 0
-1318 -1324 0
-1318 -1325 0
-1318 -1326 0
-1318 -1327 0
-1318 -1328 0
-1318 -1329 0
-1318 -1330 0
-1318 -1331 0
-1318 -1332 0
-1318 -1333 0
-1318 -1334 0
-1318 -1335 0
-1318 -1336 0
-1318 -1337 0
-1318 -1338 0
-1318 -1339 0
-1318 -1340 0
-1318 -1341 0
-1318 -1342 0
-1318 -1343 0
-1318 -1344 0
-1318 -1345 0
-1318 -1346 0
-1318 -1347 0
-1318 -1348 0
-1318 -1349 0
-1318 -1350 0
-1318 -1351 0
-1318 -1352 0
-1318 -1353 0
-1318 -1354 0
-1318 -1355 0
-1318 -1356 0
-1318 -1357 0
-1318 -1358 0
-1318 -1359 0
-1318 -1360 0
-1318 -1361 0
-1318 -1362 0
-1318 -1363 0
-1318 -1364 0
-1318 -1365 0
-1318 -1366 0
-1318 -1367 0
-1318 -1368 0
-1318 -1369 0
-1318 -1370 0
-1318 -1371 0
-1318 -1372 0
-1318 -1373 0
-1318 -1374 0
-1318 -1375 0
-1318 -1376 0
-1318 -1377 0
-1318 -1378 0
-1318 -1379 0
-1318 -1380 0
-1318 -1381 0
-1318 -1382 0
-1318 -1383 0
-1318 -1384 0
-1318 -1385 0
-1318 -1386 0
-1318 -1387 0
-1318 -1388 0
-1318 -1389 0
-1318 -1390 0
-1318 -1391 0
-1319 -1320 0
-1319 -1321 0
-1319 -1322 0
-1319 -1323 0
-1319 -1324 0
-1319 -1325 0
-1319 -1326 0
-1319 -1327 0
-1319 -1328 0
-1319 -1329 0
-1319 -1330 0
-1319 -1331 0
-1319 -1332 0
-1319 -1333 0
-1319 -1334 0
-1319 -1335 0
-1319 -1336 0
-1319 -1337 0
-1319 -1338 0
-1319 -1339 0
-1319 -1340 0
-1319 -1341 0
-1319 -1342 0
-1319 -1343 0
-1319 -1344 0
-1319 -1345 0
-1319 -1346 0
-1319 -1347 0
-1319 -1348 0
-1319 -1349 0
-1319 -1350 0
-1319 -1351 0
-1319 -1352 0
-1319 -1353 0
-1319 -1354 0
-1319 -1355 0
-1319 -1356 0
-1319 -1357 0
-1319 -1358 0
-1319 -1359 0
-1319 -1360 0
-1319 -1361 0
-1319 -1362 0
-1319 -1363 0
-1319 -1364 0
-1319 -1365 0
-1319 -1366 0
-1319 -1367 0
-1319 -1368 0
-1319 -1369 0
-1319 -1370 0
-1319 -1371 0
-1319 -1372 0
-1319 -1373 0
-1319 -1374 0
-1319 -1375 0
-1319 -1376 0
-1319 -1377 0
-1319 -1378 0
-1319 -1379 0
-1319 -1380 0
-1319 -1381 0
-1319 -1382 0
-1319 -1383 0
-1319 -1384 0
-1319 -1385 0
-1319 -1386 0
-1319 -1387 0
-1319 -1388 0
-1319 -1389 0
-1319 -1390 0
-1319 -1391 0
-1320 -1321 0
-1320 -1322 0
-1320 -1323 0
-1320 -1324 0
-1320 -1325 0
-1320 -1326 0
-1320 -1327 0
-1320 -1328 0
-1320 -1329 0
-1320 -1330 0
-1320 -1331 0
-1320 -1332 0
-1320 -1333 0
-1320 -1334 0
-1320 -1335 0
-1320 -1336 0
-1320 -1337 0
-1320 -1338 0
-1320 -1339 0
-1320 -1340 0
-1320 -1341 0
-1320 -1342 0
-1320 -1343 0
-1320 -1344 0
-1320 -1345 0
-1320 -1346 0
-1320 -1347 0
-1320 -1348 0
-1320 -1349 0
-1320 -1350 0
-1320 -1351 0
-1320 -1352 0
-1320 -1353 0
-1320 -1354 0
-1320 -1355 0
-1320 -1356 0
-1320 -1357 0
-1320 -1358 0
-1320 -1359 0
-1320 -1360 0
-1320 -1361 0
-1320 -1362 0
-1320 -1363 0
-1320 -1364 0
-1320 -1365 0
-1320 -1366 0
-1320 -1367 0
-1320 -1368 0
-1320 -1369 0
-1320 -1370 0
-1320 -1371 0
-1320 -1372 0
-1320 -1373 0
-1320 -1374 0
-1320 -1375 0
-1320 -1376 0
-1320 -1377 0
-1320 -1378 0
-1320 -1379 0
-1320 -1380 0
-1320 -1381 0
-1320 -1382 0
-1320 -1383 0
-1320 -1384 0
-1320 -1385 0
-1320 -1386 0
-1320 -1387 0
-1320 -1388 0
-1320 -1389 0
-1320 -1390 0
-1320 -1391 0
-1321 -1322 0
-1321 -1323 0
-1321 -1324 0
-1321 -1325 0
-1321 -1326 0
-1321 -1327 0
-1321 -1328 0
-1321 -1329 0
-1321 -1330 0
-1321 -1331 0
-1321 -1332 0
-1321 -1333 0
-1321 -1334 0
-1321 -1335 0
-1321 -1336 0
-1321 -1337 0
-1321 -1338 0
-1321 -1339 0
-1321 -1340 0
-1321 -1341 0
-1321 -1342 0
-1321 -1343 0
-1321 -1344 0
-1321 -1345 0
-1321 -1346 0
-1321 -1347 0
-1321 -1348 0
-1321 -1349 0
-1321 -1350 0
-1321 -1351 0
-1321 -1352 0
-1321 -1353 0
-1321 -1354 0
-1321 -1355 0
-1321 -1356 0
-1321 -1357 0
-1321 -1358 0
-1321 -1359 0
-1321 -1360 0
-1321 -1361 0
-1321 -1362 0
-1321 -1363 0
-1321 -1364 0
-1321 -1365 0
-1321 -1366 0
-1321 -1367 0
-1321 -1368 0
-1321 -1369 0
-1321 -1370 0
-1321 -1371 0
-1321 -1372 0
-1321 -1373 0
-1321 -1374 0
-1321 -1375 0
-1321 -1376 0
-1321 -1377 0
-1321 -1378 0
-1321 -1379 0
-1321 -1380 0
-1321 -1381 0
-1321 -1382 0
-1321 -1383 0
-1321 -1384 0
-1321 -1385 0
-1321 -1386 0
-1321 -1387 0
-1321 -1388 0
-1321 -1389 0
-1321 -1390 0
-1321 -1391 0
-1322 -1323 0
-1322 -1324 0
-1322 -1325 0
-1322 -1326 0
-1322 -1327 0
-1322 -1328 0
-1322 -1329 0
-1322 -1330 0
-1322 -1331 0
-1322 -1332 0
-1322 -1333 0
-1322 -1334 0
-1322 -1335 0
-1322 -1336 0
-1322 -1337 0
-1322 -1338 0
-1322 -1339 0
-1322 -1340 0
-1322 -1341 0
-1322 -1342 0
-1322 -1343 0
-1322 -1344 0
-1322 -1345 0
-1322 -1346 0
-1322 -1347 0
-1322 -1348 0
-1322 -1349 0
-1322 -1350 0
-1322 -1351 0
-1322 -1352 0
-1322 -1353 0
-1322 -1354 0
-1322 -1355 0
-1322 -1356 0
-1322 -1357 0
-1322 -1358 0
-1322 -1359 0
-1322 -1360 0
-1322 -1361 0
-1322 -1362 0
-1322 -1363 0
-1322 -1364 0
-1322 -1365 0
-1322 -1366 0
-1322 -1367 0
-1322 -1368 0
-1322 -1369 0
-1322 -1370 0
-1322 -1371 0
-1322 -1372 0
-1322 -1373 0
-1322 -1374 0
-1322 -1375 0
-1322 -1376 0
-1322 -1377 0
-1322 -1378 0
-1322 -1379 0
-1322 -1380 0
-1322 -1381 0
-1322 -1382 0
-1322 -1383 0
-1322 -1384 0
-1322 -1385 0
-1322 -1386 0
-1322 -1387 0
-1322 -1388 0
-1322 -1389 0
-1322 -1390 0
-1322 -1391 0
-1323 -1324 0
-1323 -1325 0
-1323 -1326 0
-1323 -1327 0
-1323 -1328 0
-1323 -1329 0
-1323 -1330 0
-1323 -1331 0
-1323 -1332 0
-1323 -1333 0
-1323 -1334 0
-1323 -1335 0
-1323 -1336 0
-1323 -1337 0
-1323 -1338 0
-1323 -1339 0
-1323 -1340 0
-1323 -1341 0
-1323 -1342 0
-1323 -1343 0
-1323 -1344 0
-1323 -1345 0
-1323 -1346 0
-1323 -1347 0
-1323 -1348 0
-1323 -1349 0
-1323 -1350 0
-1323 -1351 0
-1323 -1352 0
-1323 -1353 0
-1323 -1354 0
-1323 -1355 0
-1323 -1356 0
-1323 -1357 0
-1323 -1358 0
-1323 -1359 0
-1323 -1360 0
-1323 -1361 0
-1323 -1362 0
-1323 -1363 0
-1323 -1364 0
-1323 -1365 0
-1323 -1366 0
-1323 -1367 0
-1323 -1368 0
-1323 -1369 0
-1323 -1370 0
-1323 -1371 0
-1323 -1372 0
-1323 -1373 0
-1323 -1374 0
-1323 -1375 0
-1323 -1376 0
-1323 -1377 0
-1323 -1378 0
-1323 -1379 0
-1323 -1380 0
-1323 -1381 0
-1323 -1382 0
-1323 -1383 0
-1323 -1384 0
-1323 -1385 0
-1323 -1386 0
-1323 -1387 0
-1323 -1388 0
-1323 -1389 0
-1323 -1390 0
-1323 -1391 0
-1324 -1325 0
-1324 -1326 0
-1324 -1327 0
-1324 -1328 0
-1324 -1329 0
-1324 -1330 0
-1324 -1331 0
-1324 -1332 0
-1324 -1333 0
-1324 -1334 0
-1324 -1335 0
-1324 -1336 0
-1324 -1337 0
-1324 -1338 0
-1324 -1339 0
-1324 -1340 0
-1324 -1341 0
-1324 -1342 0
-1324 -1343 0
-1324 -1344 0
-1324 -1345 0
-1324 -1346 0
-1324 -1347 0
-1324 -1348 0
-1324 -1349 0
-1324 -1350 0
-1324 -1351 0
-1324 -1352 0
-1324 -1353 0
-1324 -1354 0
-1324 -1355 0
-1324 -1356 0
-1324 -1357 0
-1324 -1358 0
-1324 -1359 0
-1324 -1360 0
-1324 -1361 0
-1324 -1362 0
-1324 -1363 0
-1324 -1364 0
-1324 -1365 0
-1324 -1366 0
-1324 -1367 0
-1324 -1368 0
-1324 -1369 0
-1324 -1370 0
-1324 -1371 0
-1324 -1372 0
-1324 -1373 0
-1324 -1374 0
-1324 -1375 0
-1324 -1376 0
-1324 -1377 0
-1324 -1378 0
-1324 -1379 0
-1324 -1380 0
-1324 -1381 0
-1324 -1382 0
-1324 -1383 0
-1324 -1384 0
-1324 -1385 0
-1324 -1386 0
-1324 -1387 0
-1324 -1388 0
-1324 -1389 0
-1324 -1390 0
-1324 -1391 0
-1325 -1326 0
-1325 -1327 0
-1325 -1328 0
-1325 -1329 0
-1325 -1330 0
-1325 -1331 0
-1325 -1332 0
-1325 -1333 0
-1325 -1334 0
-1325 -1335 0
-1325 -1336 0
-1325 -1337 0
-1325 -1338 0
-1325 -1339 0
-1325 -1340 0
-1325 -1341 0
-1325 -1342 0
-1325 -1343 0
-1325 -1344 0
-1325 -1345 0
-1325 -1346 0
-1325 -1347 0
-1325 -1348 0
-1325 -1349 0
-1325 -1350 0
-1325 -1351 0
-1325 -1352 0
-1325 -1353 0
-1325 -1354 0
-1325 -1355 0
-1325 -1356 0
-1325 -1357 0
-1325 -1358 0
-1325 -1359 0
-1325 -1360 0
-1325 -1361 0
-1325 -1362 0
-1325 -1363 0
-1325 -1364 0
-1325 -1365 0
-1325 -1366 0
-1325 -1367 0
-1325 -1368 0
-1325 -1369 0
-1325 -1370 0
-1325 -1371 0
-1325 -1372 0
-1325 -1373 0
-1325 -1374 0
-1325 -1375 0
-1325 -1376 0
-1325 -1377 0
-1325 -1378 0
-1325 -1379 0
-1325 -1380 0
-1325 -1381 0
-1325 -1382 0
-1325 -1383 0
-1325 -1384 0
-1325 -1385 0
-1325 -1386 0
-1325 -1387 0
-1325 -1388 0
-1325 -1389 0
-1325 -1390 0
-1325 -1391 0
-1326 -1327 0
-1326 -1328 0
-1326 -1329 0
-1326 -1330 0
-1326 -1331 0
-1326 -1332 0
-1326 -1333 0
-1326 -1334 0
-1326 -1335 0
-1326 -1336 0
-1326 -1337 0
-1326 -1338 0
-1326 -1339 0
-1326 -1340 0
-1326 -1341 0
-1326 -1342 0
-1326 -1343 0
-1326 -1344 0
-1326 -1345 0
-1326 -1346 0
-1326 -1347 0
-1326 -1348 0
-1326 -1349 0
-1326 -1350 0
-1326 -1351 0
-1326 -1352 0
-1326 -1353 0
-1326 -1354 0
-1326 -1355 0
-1326 -1356 0
-1326 -1357 0
-1326 -1358 0
-1326 -1359 0
-1326 -1360 0
-1326 -1361 0
-1326 -1362 0
-1326 -1363 0
-1326 -1364 0
-1326 -1365 0
-1326 -1366 0
-1326 -1367 0
-1326 -1368 0
-1326 -1369 0
-1326 -1370 0
-1326 -1371 0
-1326 -1372 0
-1326 -1373 0
-1326 -1374 0
-1326 -1375 0
-1326 -1376 0
-1326 -1377 0
-1326 -1378 0
-1326 -1379 0
-1326 -1380 0
-1326 -1381 0
-1326 -1382 0
-1326 -1383 0
-1326 -1384 0
-1326 -1385 0
-1326 -1386 0
-1326 -1387 0
-1326 -1388 0
-1326 -1389 0
-1326 -1390 0
-1326 -1391 0
-1327 -1328 0
-1327 -1329 0
-1327 -1330 0
-1327 -1331 0
-1327 -1332 0
-1327 -1333 0
-1327 -1334 0
-1327 -1335 0
-1327 -1336 0
-1327 -1337 0
-1327 -1338 0
-1327 -1339 0
-1327 -1340 0
-1327 -1341 0
-1327 -1342 0
-1327 -1343 0
-1327 -1344 0
-1327 -1345 0
-1327 -1346 0
-1327 -1347 0
-1327 -1348 0
-1327 -1349 0
-1327 -1350 0
-1327 -1351 0
-1327 -1352 0
-1327 -1353 0
-1327 -1354 0
-1327 -1355 0
-1327 -1356 0
-1327 -1357 0
-1327 -1358 0
-1327 -1359 0
-1327 -1360 0
-1327 -1361 0
-1327 -1362 0
-1327 -1363 0
-1327 -1364 0
-1327 -1365 0
-1327 -1366 0
-1327 -1367 0
-1327 -1368 0
-1327 -1369 0
-1327 -1370 0
-1327 -1371 0
-1327 -1372 0
-1327 -1373 0
-1327 -1374 0
-1327 -1375 0
-1327 -1376 0
-1327 -1377 0
-1327 -1378 0
-1327 -1379 0
-1327 -1380 0
-1327 -1381 0
-1327 -1382 0
-1327 -1383 0
-1327 -1384 0
-1327 -1385 0
-1327 -1386 0
-1327 -1387 0
-1327 -1388 0
-1327 -1389 0
-1327 -1390 0
-1327 -1391 0
-1328 -1329 0
-1328 -1330 0
-1328 -1331 0
-1328 -1332 0
-1328 -1333 0
-1328 -1334 0
-1328 -1335 0
-1328 -1336 0
-1328 -1337 0
-1328 -1338 0
-1328 -1339 0
-1328 -1340 0
-1328 -1341 0
-1328 -1342 0
-1328 -1343 0
-1328 -1344 0
-1328 -1345 0
-1328 -1346 0
-1328 -1347 0
-1328 -1348 0
-1328 -1349 0
-1328 -1350 0
-1328 -1351 0
-1328 -1352 0
-1328 -1353 0
-1328 -1354 0
-1328 -1355 0
-1328 -1356 0
-1328 -1357 0
-1328 -1358 0
-1328 -1359 0
-1328 -1360 0
-1328 -1361 0
-1328 -1362 0
-1328 -1363 0
-1328 -1364 0
-1328 -1365 0
-1328 -1366 0
-1328 -1367 0
-1328 -1368 0
-1328 -1369 0
-1328 -1370 0
-1328 -1371 0
-1328 -1372 0
-1328 -1373 0
-1328 -1374 0
-1328 -1375 0
-1328 -1376 0
-1328 -1377 0
-1328 -1378 0
-1328 -1379 0
-1328 -1380 0
-1328 -1381 0
-1328 -1382 0
-1328 -1383 0
-1328 -1384 0
-1328 -1385 0
-1328 -1386 0
-1328 -1387 0
-1328 -1388 0
-1328 -1389 0
-1328 -1390 0
-1328 -1391 0
-1329 -1330 0
-1329 -1331 0
-1329 -1332 0
-1329 -1333 0
-1329 -1334 0
-1329 -1335 0
-1329 -1336 0
-1329 -1337 0
-1329 -1338 0
-1329 -1339 0
-1329 -1340 0
-1329 -1341 0
-1329 -1342 0
-1329 -1343 0
-1329 -1344 0
-1329 -1345 0
-1329 -1346 0
-1329 -1347 0
-1329 -1348 0
-1329 -1349 0
-1329 -1350 0
-1329 -1351 0
-1329 -1352 0
-1329 -1353 0
-1329 -1354 0
-1329 -1355 0
-1329 -1356 0
-1329 -1357 0
-1329 -1358 0
-1329 -1359 0
-1329 -1360 0
-1329 -1361 0
-1329 -1362 0
-1329 -1363 0
-1329 -1364 0
-1329 -1365 0
-1329 -1366 0
-1329 -1367 0
-1329 -1368 0
-1329 -1369 0
-1329 -1370 0
-1329 -1371 0
-1329 -1372 0
-1329 -1373 0
-1329 -1374 0
-1329 -1375 0
-1329 -1376 0
-1329 -1377 0
-1329 -1378 0
-1329 -1379 0
-1329 -1380 0
-1329 -1381 0
-1329 -1382 0
-1329 -1383 0
-1329 -1384 0
-1329 -1385 0
-1329 -1386 0
-1329 -1387 0
-1329 -1388 0
-1329 -1389 0
-1329 -1390 0
-1329 -1391 0
-1330 -1331 0
-1330 -1332 0
-1330 -1333 0
-1330 -1334 0
-1330 -1335 0
-1330 -1336 0
-1330 -1337 0
-1330 -1338 0
-1330 -1339 0
-1330 -1340 0
-1330 -1341 0
-1330 -1342 0
-1330 -1343 0
-1330 -1344 0
-1330 -1345 0
-1330 -1346 0
-1330 -1347 0
-1330 -1348 0
-1330 -1349 0
-1330 -1350 0
-1330 -1351 0
-1330 -1352 0
-1330 -1353 0
-1330 -1354 0
-1330 -1355 0
-1330 -1356 0
-1330 -1357 0
-1330 -1358 0
-1330 -1359 0
-1330 -1360 0
-1330 -1361 0
-1330 -1362 0
-1330 -1363 0
-1330 -1364 0
-1330 -1365 0
-1330 -1366 0
-1330 -1367 0
-1330 -1368 0
-1330 -1369 0
-1330 -1370 0
-1330 -1371 0
-1330 -1372 0
-1330 -1373 0
-1330 -1374 0
-1330 -1375 0
-1330 -1376 0
-1330 -1377 0
-1330 -1378 0
-1330 -1379 0
-1330 -1380 0
-1330 -1381 0
-1330 -1382 0
-1330 -1383 0
-1330 -1384 0
-1330 -1385 0
-1330 -1386 0
-1330 -1387 0
-1330 -1388 0
-1330 -1389 0
-1330 -1390 0
-1330 -1391 0
-1331 -1332 0
-1331 -1333 0
-1331 -1334 0
-1331 -1335 0
-1331 -1336 0
-1331 -1337 0
-1331 -1338 0
-1331 -1339 0
-1331 -1340 0
-1331 -1341 0
-1331 -1342 0
-1331 -1343 0
-1331 -1344 0
-1331 -1345 0
-1331 -1346 0
-1331 -1347 0
-1331 -1348 0
-1331 -1349 0
-1331 -1350 0
-1331 -1351 0
-1331 -1352 0
-1331 -1353 0
-1331 -1354 0
-1331 -1355 0
-1331 -1356 0
-1331 -1357 0
-1331 -1358 0
-1331 -1359 0
-1331 -1360 0
-1331 -1361 0
-1331 -1362 0
-1331 -1363 0
-1331 -1364 0
-1331 -1365 0
-1331 -1366 0
-1331 -1367 0
-1331 -1368 0
-1331 -1369 0
-1331 -1370 0
-1331 -1371 0
-1331 -1372 0
-1331 -1373 0
-1331 -1374 0
-1331 -1375 0
-1331 -1376 0
-1331 -1377 0
-1331 -1378 0
-1331 -1379 0
-1331 -1380 0
-1331 -1381 0
-1331 -1382 0
-1331 -1383 0
-1331 -1384 0
-1331 -1385 0
-1331 -1386 0
-1331 -1387 0
-1331 -1388 0
-1331 -1389 0
-1331 -1390 0
-1331 -1391 0
-1332 -1333 0
-1332 -1334 0
-1332 -1335 0
-1332 -1336 0
-1332 -1337 0
-1332 -1338 0
-1332 -1339 0
-1332 -1340 0
-1332 -1341 0
-1332 -1342 0
-1332 -1343 0
-1332 -1344 0
-1332 -1345 0
-1332 -1346 0
-1332 -1347 0
-1332 -1348 0
-1332 -1349 0
-1332 -1350 0
-1332 -1351 0
-1332 -1352 0
-1332 -1353 0
-1332 -1354 0
-1332 -1355 0
-1332 -1356 0
-1332 -1357 0
-1332 -1358 0
-1332 -1359 0
-1332 -1360 0
-1332 -1361 0
-1332 -1362 0
-1332 -1363 0
-1332 -1364 0
-1332 -1365 0
-1332 -1366 0
-1332 -1367 0
-1332 -1368 0
-1332 -1369 0
-1332 -1370 0
-1332 -1371 0
-1332 -1372 0
-1332 -1373 0
-1332 -1374 0
-1332 -1375 0
-1332 -1376 0
-1332 -1377 0
-1332 -1378 0
-1332 -1379 0
-1332 -1380 0
-1332 -1381 0
-1332 -1382 0
-1332 -1383 0
-1332 -1384 0
-1332 -1385 0
-1332 -1386 0
-1332 -1387 0
-1332 -1388 0
-1332 -1389 0
-1332 -1390 0
-1332 -1391 0
-1333 -1334 0
-1333 -1335 0
-1333 -1336 0
-1333 -1337 0
-1333 -1338 0
-1333 -1339 0
-1333 -1340 0
-1333 -1341 0
-1333 -1342 0
-1333 -1343 0
-1333 -1344 0
-1333 -1345 0
-1333 -1346 0
-1333 -1347 0
-1333 -1348 0
-1333 -1349 0
-1333 -1350 0
-1333 -1351 0
-1333 -1352 0
-1333 -1353 0
-1333 -1354 0
-1333 -1355 0
-1333 -1356 0
-1333 -1357 0
-1333 -1358 0
-1333 -1359 0
-1333 -1360 0
-1333 -1361 0
-1333 -1362 0
-1333 -1363 0
-1333 -1364 0
-1333 -1365 0
-1333 -1366 0
-1333 -1367 0
-1333 -1368 0
-1333 -1369 0
-1333 -1370 0
-1333 -1371 0
-1333 -1372 0
-1333 -1373 0
-1333 -1374 0
-1333 -1375 0
-1333 -1376 0
-1333 -1377 0
-1333 -1378 0
-1333 -1379 0
-1333 -1380 0
-1333 -1381 0
-1333 -1382 0
-1333 -1383 0
-1333 -1384 0
-1333 -1385 0
-1333 -1386 0
-1333 -1387 0
-1333 -1388 0
-1333 -1389 0
-1333 -1390 0
-1333 -1391 0
-1334 -1335 0
-1334 -1336 0
-1334 -1337 0
-1334 -1338 0
-1334 -1339 0
-1334 -1340 0
-1334 -1341 0
-1334 -1342 0
-1334 -1343 0
-1334 -1344 0
-1334 -1345 0
-1334 -1346 0
-1334 -1347 0
-1334 -1348 0
-1334 -1349 0
-1334 -1350 0
-1334 -1351 0
-1334 -1352 0
-1334 -1353 0
-1334 -1354 0
-1334 -1355 0
-1334 -1356 0
-1334 -1357 0
-1334 -1358 0
-1334 -1359 0
-1334 -1360 0
-1334 -1361 0
-1334 -1362 0
-1334 -1363 0
-1334 -1364 0
-1334 -1365 0
-1334 -1366 0
-1334 -1367 0
-1334 -1368 0
-1334 -1369 0
-1334 -1370 0
-1334 -1371 0
-1334 -1372 0
-1334 -1373 0
-1334 -1374 0
-1334 -1375 0
-1334 -1376 0
-1334 -1377 0
-1334 -1378 0
-1334 -1379 0
-1334 -1380 0
-1334 -1381 0
-1334 -1382 0
-1334 -1383 0
-1334 -1384 0
-1334 -1385 0
-1334 -1386 0
-1334 -1387 0
-1334 -1388 0
-1334 -1389 0
-1334 -1390 0
-1334 -1391 0
-1335 -1336 0
-1335 -1337 0
-1335 -1338 0
-1335 -1339 0
-1335 -1340 0
-1335 -1341 0
-1335 -1342 0
-1335 -1343 0
-1335 -1344 0
-1335 -1345 0
-1335 -1346 0
-1335 -1347 0
-1335 -1348 0
-1335 -1349 0
-1335 -1350 0
-1335 -1351 0
-1335 -1352 0
-1335 -1353 0
-1335 -1354 0
-1335 -1355 0
-1335 -1356 0
-1335 -1357 0
-1335 -1358 0
-1335 -1359 0
-1335 -1360 0
-1335 -1361 0
-1335 -1362 0
-1335 -1363 0
-1335 -1364 0
-1335 -1365 0
-1335 -1366 0
-1335 -1367 0
-1335 -1368 0
-1335 -1369 0
-1335 -1370 0
-1335 -1371 0
-1335 -1372 0
-1335 -1373 0
-1335 -1374 0
-1335 -1375 0
-1335 -1376 0
-1335 -1377 0
-1335 -1378 0
-1335 -1379 0
-1335 -1380 0
-1335 -1381 0
-1335 -1382 0
-1335 -1383 0
-1335 -1384 0
-1335 -1385 0
-1335 -1386 0
-1335 -1387 0
-1335 -1388 0
-1335 -1389 0
-1335 -1390 0
-1335 -1391 0
-1336 -1337 0
-1336 -1338 0
-1336 -1339 0
-1336 -1340 0
-1336 -1341 0
-1336 -1342 0
-1336 -1343 0
-1336 -1344 0
-1336 -1345 0
-1336 -1346 0
-1336 -1347 0
-1336 -1348 0
-1336 -1349 0
-1336 -1350 0
-1336 -1351 0
-1336 -1352 0
-1336 -1353 0
-1336 -1354 0
-1336 -1355 0
-1336 -1356 0
-1336 -1357 0
-1336 -1358 0
-1336 -1359 0
-1336 -1360 0
-1336 -1361 0
-1336 -1362 0
-1336 -1363 0
-1336 -1364 0
-1336 -1365 0
-1336 -1366 0
-1336 -1367 0
-1336 -1368 0
-1336 -1369 0
-1336 -1370 0
-1336 -1371 0
-1336 -1372 0
-1336 -1373 0
-1336 -1374 0
-1336 -1375 0
-1336 -1376 0
-1336 -1377 0
-1336 -1378 0
-1336 -1379 0
-1336 -1380 0
-1336 -1381 0
-1336 -1382 0
-1336 -1383 0
-1336 -1384 0
-1336 -1385 0
-1336 -1386 0
-1336 -1387 0
-1336 -1388 0
-1336 -1389 0
-1336 -1390 0
-1336 -1391 0
-1337 -1338 0
-1337 -1339 0
-1337 -1340 0
-1337 -1341 0
-1337 -1342 0
-1337 -1343 0
-1337 -1344 0
-1337 -1345 0
-1337 -1346 0
-1337 -1347 0
-1337 -1348 0
-1337 -1349 0
-1337 -1350 0
-1337 -1351 0
-1337 -1352 0
-1337 -1353 0
-1337 -1354 0
-1337 -1355 0
-1337 -1356 0
-1337 -1357 0
-1337 -1358 0
-1337 -1359 0
-1337 -1360 0
-1337 -1361 0
-1337 -1362 0
-1337 -1363 0
-1337 -1364 0
-1337 -1365 0
-1337 -1366 0
-1337 -1367 0
-1337 -1368 0
-1337 -1369 0
-1337 -1370 0
-1337 -1371 0
-1337 -1372 0
-1337 -1373 0
-1337 -1374 0
-1337 -1375 0
-1337 -1376 0
-1337 -1377 0
-1337 -1378 0
-1337 -1379 0
-1337 -1380 0
-1337 -1381 0
-1337 -1382 0
-1337 -1383 0
-1337 -1384 0
-1337 -1385 0
-1337 -1386 0
-1337 -1387 0
-1337 -1388 0
-1337 -1389 0
-1337 -1390 0
-1337 -1391 0
-1338 -1339 0
-1338 -1340 0
-1338 -1341 0
-1338 -1342 0
-1338 -1343 0
-1338 -1344 0
-1338 -1345 0
-1338 -1346 0
-1338 -1347 0
-1338 -1348 0
-1338 -1349 0
-1338 -1350 0
-1338 -1351 0
-1338 -1352 0
-1338 -1353 0
-1338 -1354 0
-1338 -1355 0
-1338 -1356 0
-1338 -1357 0
-1338 -1358 0
-1338 -1359 0
-1338 -1360 0
-1338 -1361 0
-1338 -1362 0
-1338 -1363 0
-1338 -1364 0
-1338 -1365 0
-1338 -1366 0
-1338 -1367 0
-1338 -1368 0
-1338 -1369 0
-1338 -1370 0
-1338 -1371 0
-1338 -1372 0
-1338 -1373 0
-1338 -1374 0
-1338 -1375 0
-1338 -1376 0
-1338 -1377 0
-1338 -1378 0
-1338 -1379 0
-1338 -1380 0
-1338 -1381 0
-1338 -1382 0
-1338 -1383 0
-1338 -1384 0
-1338 -1385 0
-1338 -1386 0
-1338 -1387 0
-1338 -1388 0
-1338 -1389 0
-1338 -1390 0
-1338 -1391 0
-1339 -1340 0
-1339 -1341 0
-1339 -1342 0
-1339 -1343 0
-1339 -1344 0
-1339 -1345 0
-1339 -1346 0
-1339 -1347 0
-1339 -1348 0
-1339 -1349 0
-1339 -1350 0
-1339 -1351 0
-1339 -1352 0
-1339 -1353 0
-1339 -1354 0
-1339 -1355 0
-1339 -1356 0
-1339 -1357 0
-1339 -1358 0
-1339 -1359 0
-1339 -1360 0
-1339 -1361 0
-1339 -1362 0
-1339 -1363 0
-1339 -1364 0
-1339 -1365 0
-1339 -1366 0
-1339 -1367 0
-1339 -1368 0
-1339 -1369 0
-1339 -1370 0
-1339 -1371 0
-1339 -1372 0
-1339 -1373 0
-1339 -1374 0
-1339 -1375 0
-1339 -1376 0
-1339 -1377 0
-1339 -1378 0
-1339 -1379 0
-1339 -1380 0
-1339 -1381 0
-1339 -1382 0
-1339 -1383 0
-1339 -1384 0
-1339 -1385 0
-1339 -1386 0
-1339 -1387 0
-1339 -1388 0
-1339 -1389 0
-1339 -1390 0
-1339 -1391 0
-1340 -1341 0
-1340 -1342 0
-1340 -1343 0
-1340 -1344 0
-1340 -1345 0
-1340 -1346 0
-1340 -1347 0
-1340 -1348 0
-1340 -1349 0
-1340 -1350 0
-1340 -1351 0
-1340 -1352 0
-1340 -1353 0
-1340 -1354 0
-1340 -1355 0
-1340 -1356 0
-1340 -1357 0
-1340 -1358 0
-1340 -1359 0
-1340 -1360 0
-1340 -1361 0
-1340 -1362 0
-1340 -1363 0
-1340 -1364 0
-1340 -1365 0
-1340 -1366 0
-1340 -1367 0
-1340 -1368 0
-1340 -1369 0
-1340 -1370 0
-1340 -1371 0
-1340 -1372 0
-1340 -1373 0
-1340 -1374 0
-1340 -1375 0
-1340 -1376 0
-1340 -1377 0
-1340 -1378 0
-1340 -1379 0
-1340 -1380 0
-1340 -1381 0
-1340 -1382 0
-1340 -1383 0
-1340 -1384 0
-1340 -1385 0
-1340 -1386 0
-1340 -1387 0
-1340 -1388 0
-1340 -1389 0
-1340 -1390 0
-1340 -1391 0
-1341 -1342 0
-1341 -1343 0
-1341 -1344 0
-1341 -1345 0
-1341 -1346 0
-1341 -1347 0
-1341 -1348 0
-1341 -1349 0
-1341 -1350 0
-1341 -1351 0
-1341 -1352 0
-1341 -1353 0
-1341 -1354 0
-1341 -1355 0
-1341 -1356 0
-1341 -1357 0
-1341 -1358 0
-1341 -1359 0
-1341 -1360 0
-1341 -1361 0
-1341 -1362 0
-1341 -1363 0
-1341 -1364 0
-1341 -1365 0
-1341 -1366 0
-1341 -1367 0
-1341 -1368 0
-1341 -1369 0
-1341 -1370 0
-1341 -1371 0
-1341 -1372 0
-1341 -1373 0
-1341 -1374 0
-1341 -1375 0
-1341 -1376 0
-1341 -1377 0
-1341 -1378 0
-1341 -1379 0
-1341 -1380 0
-1341 -1381 0
-1341 -1382 0
-1341 -1383 0
-1341 -1384 0
-1341 -1385 0
-1341 -1386 0
-1341 -1387 0
-1341 -1388 0
-1341 -1389 0
-1341 -1390 0
-1341 -1391 0
-1342 -1343 0
-1342 -1344 0
-1342 -1345 0
-1342 -1346 0
-1342 -1347 0
-1342 -1348 0
-1342 -1349 0
-1342 -1350 0
-1342 -1351 0
-1342 -1352 0
-1342 -1353 0
-1342 -1354 0
-1342 -1355 0
-1342 -1356 0
-1342 -1357 0
-1342 -1358 0
-1342 -1359 0
-1342 -1360 0
-1342 -1361 0
-1342 -1362 0
-1342 -1363 0
-1342 -1364 0
-1342 -1365 0
-1342 -1366 0
-1342 -1367 0
-1342 -1368 0
-1342 -1369 0
-1342 -1370 0
-1342 -1371 0
-1342 -1372 0
-1342 -1373 0
-1342 -1374 0
-1342 -1375 0
-1342 -1376 0
-1342 -1377 0
-1342 -1378 0
-1342 -1379 0
-1342 -1380 0
-1342 -1381 0
-1342 -1382 0
-1342 -1383 0
-1342 -1384 0
-1342 -1385 0
-1342 -1386 0
-1342 -1387 0
-1342 -1388 0
-1342 -1389 0
-1342 -1390 0
-1342 -1391 0
-1343 -1344 0
-1343 -1345 0
-1343 -1346 0
-1343 -1347 0
-1343 -1348 0
-1343 -1349 0
-1343 -1350 0
-1343 -1351 0
-1343 -1352 0
-1343 -1353 0
-1343 -1354 0
-1343 -1355 0
-1343 -1356 0
-1343 -1357 0
-1343 -1358 0
-1343 -1359 0
-1343 -1360 0
-1343 -1361 0
-1343 -1362 0
-1343 -1363 0
-1343 -1364 0
-1343 -1365 0
-1343 -1366 0
-1343 -1367 0
-1343 -1368 0
-1343 -1369 0
-1343 -1370 0
-1343 -1371 0
-1343 -1372 0
-1343 -1373 0
-1343 -1374 0
-1343 -1375 0
-1343 -1376 0
-1343 -1377 0
-1343 -1378 0
-1343 -1379 0
-1343 -1380 0
-1343 -1381 0
-1343 -1382 0
-1343 -1383 0
-1343 -1384 0
-1343 -1385 0
-1343 -1386 0
-1343 -1387 0
-1343 -1388 0
-1343 -1389 0
-1343 -1390 0
-1343 -1391 0
-1344 -1345 0
-1344 -1346 0
-1344 -1347 0
-1344 -1348 0
-1344 -1349 0
-1344 -1350 0
-1344 -1351 0
-1344 -1352 0
-1344 -1353 0
-1344 -1354 0
-1344 -1355 0
-1344 -1356 0
-1344 -1357 0
-1344 -1358 0
-1344 -1359 0
-1344 -1360 0
-1344 -1361 0
-1344 -1362 0
-1344 -1363 0
-1344 -1364 0
-1344 -1365 0
-1344 -1366 0
-1344 -1367 0
-1344 -1368 0
-1344 -1369 0
-1344 -1370 0
-1344 -1371 0
-1344 -1372 0
-1344 -1373 0
-1344 -1374 0
-1344 -1375 0
-1344 -1376 0
-1344 -1377 0
-1344 -1378 0
-1344 -1379 0
-1344 -1380 0
-1344 -1381 0
-1344 -1382 0
-1344 -1383 0
-1344 -1384 0
-1344 -1385 0
-1344 -1386 0
-1344 -1387 0
-1344 -1388 0
-1344 -1389 0
-1344 -1390 0
-1344 -1391 0
-1345 -1346 0
-1345 -1347 0
-1345 -1348 0
-1345 -1349 0
-1345 -1350 0
-1345 -1351 0
-1345 -1352 0
-1345 -1353 0
-1345 -1354 0
-1345 -1355 0
-1345 -1356 0
-1345 -1357 0
-1345 -1358 0
-1345 -1359 0
-1345 -1360 0
-1345 -1361 0
-1345 -1362 0
-1345 -1363 0
-1345 -1364 0
-1345 -1365 0
-1345 -1366 0
-1345 -1367 0
-1345 -1368 0
-1345 -1369 0
-1345 -1370 0
-1345 -1371 0
-1345 -1372 0
-1345 -1373 0
-1345 -1374 0
-1345 -1375 0
-1345 -1376 0
-1345 -1377 0
-1345 -1378 0
-1345 -1379 0
-1345 -1380 0
-1345 -1381 0
-1345 -1382 0
-1345 -1383 0
-1345 -1384 0
-1345 -1385 0
-1345 -1386 0
-1345 -1387 0
-1345 -1388 0
-1345 -1389 0
-1345 -1390 0
-1345 -1391 0
-1346 -1347 0
-1346 -1348 0
-1346 -1349 0
-1346 -1350 0
-1346 -1351 0
-1346 -1352 0
-1346 -1353 0
-1346 -1354 0
-1346 -1355 0
-1346 -1356 0
-1346 -1357 0
-1346 -1358 0
-1346 -1359 0
-1346 -1360 0
-1346 -1361 0
-1346 -1362 0
-1346 -1363 0
-1346 -1364 0
-1346 -1365 0
-1346 -1366 0
-1346 -1367 0
-1346 -1368 0
-1346 -1369 0
-1346 -1370 0
-1346 -1371 0
-1346 -1372 0
-1346 -1373 0
-1346 -1374 0
-1346 -1375 0
-1346 -1376 0
-1346 -1377 0
-1346 -1378 0
-1346 -1379 0
-1346 -1380 0
-1346 -1381 0
-1346 -1382 0
-1346 -1383 0
-1346 -1384 0
-1346 -1385 0
-1346 -1386 0
-1346 -1387 0
-1346 -1388 0
-1346 -1389 0
-1346 -1390 0
-1346 -1391 0
-1347 -1348 0
-1347 -1349 0
-1347 -1350 0
-1347 -1351 0
-1347 -1352 0
-1347 -1353 0
-1347 -1354 0
-1347 -1355 0
-1347 -1356 0
-1347 -1357 0
-1347 -1358 0
-1347 -1359 0
-1347 -1360 0
-1347 -1361 0
-1347 -1362 0
-1347 -1363 0
-1347 -1364 0
-1347 -1365 0
-1347 -1366 0
-1347 -1367 0
-1347 -1368 0
-1347 -1369 0
-1347 -1370 0
-1347 -1371 0
-1347 -1372 0
-1347 -1373 0
-1347 -1374 0
-1347 -1375 0
-1347 -1376 0
-1347 -1377 0
-1347 -1378 0
-1347 -1379 0
-1347 -1380 0
-1347 -1381 0
-1347 -1382 0
-1347 -1383 0
-1347 -1384 0
-1347 -1385 0
-1347 -1386 0
-1347 -1387 0
-1347 -1388 0
-1347 -1389 0
-1347 -1390 0
-1347 -1391 0
-1348 -1349 0
-1348 -1350 0
-1348 -1351 0
-1348 -1352 0
-1348 -1353 0
-1348 -1354 0
-1348 -1355 0
-1348 -1356 0
-1348 -1357 0
-1348 -1358 0
-1348 -1359 0
-1348 -1360 0
-1348 -1361 0
-1348 -1362 0
-1348 -1363 0
-1348 -1364 0
-1348 -1365 0
-1348 -1366 0
-1348 -1367 0
-1348 -1368 0
-1348 -1369 0
-1348 -1370 0
-1348 -1371 0
-1348 -1372 0
-1348 -1373 0
-1348 -1374 0
-1348 -1375 0
-1348 -1376 0
-1348 -1377 0
-1348 -1378 0
-1348 -1379 0
-1348 -1380 0
-1348 -1381 0
-1348 -1382 0
-1348 -1383 0
-1348 -1384 0
-1348 -1385 0
-1348 -1386 0
-1348 -1387 0
-1348 -1388 0
-1348 -1389 0
-1348 -1390 0
-1348 -1391 0
-1349 -1350 0
-1349 -1351 0
-1349 -1352 0
-1349 -1353 0
-1349 -1354 0
-1349 -1355 0
-1349 -1356 0
-1349 -1357 0
-1349 -1358 0
-1349 -1359 0
-1349 -1360 0
-1349 -1361 0
-1349 -1362 0
-1349 -1363 0
-1349 -1364 0
-1349 -1365 0
-1349 -1366 0
-1349 -1367 0
-1349 -1368 0
-1349 -1369 0
-1349 -1370 0
-1349 -1371 0
-1349 -1372 0
-1349 -1373 0
-1349 -1374 0
-1349 -1375 0
-1349 -1376 0
-1349 -1377 0
-1349 -1378 0
-1349 -1379 0
-1349 -1380 0
-1349 -1381 0
-1349 -1382 0
-1349 -1383 0
-1349 -1384 0
-1349 -1385 0
-1349 -1386 0
-1349 -1387 0
-1349 -1388 0
-1349 -1389 0
-1349 -1390 0
-1349 -1391 0
-1350 -1351 0
-1350 -1352 0
-1350 -1353 0
-1350 -1354 0
-1350 -1355 0
-1350 -1356 0
-1350 -1357 0
-1350 -1358 0
-1350 -1359 0
-1350 -1360 0
-1350 -1361 0
-1350 -1362 0
-1350 -1363 0
-1350 -1364 0
-1350 -1365 0
-1350 -1366 0
-1350 -1367 0
-1350 -1368 0
-1350 -1369 0
-1350 -1370 0
-1350 -1371 0
-1350 -1372 0
-1350 -1373 0
-1350 -1374 0
-1350 -1375 0
-1350 -1376 0
-1350 -1377 0
-1350 -1378 0
-1350 -1379 0
-1350 -1380 0
-1350 -1381 0
-1350 -1382 0
-1350 -1383 0
-1350 -1384 0
-1350 -1385 0
-1350 -1386 0
-1350 -1387 0
-1350 -1388 0
-1350 -1389 0
-1350 -1390 0
-1350 -1391 0
-1351 -1352 0
-1351 -1353 0
-1351 -1354 0
-1351 -1355 0
-1351 -1356 0
-1351 -1357 0
-1351 -1358 0
-1351 -1359 0
-1351 -1360 0
-1351 -1361 0
-1351 -1362 0
-1351 -1363 0
-1351 -1364 0
-1351 -1365 0
-1351 -1366 0
-1351 -1367 0
-1351 -1368 0
-1351 -1369 0
-1351 -1370 0
-1351 -1371 0
-1351 -1372 0
-1351 -1373 0
-1351 -1374 0
-1351 -1375 0
-1351 -1376 0
-1351 -1377 0
-1351 -1378 0
-1351 -1379 0
-1351 -1380 0
-1351 -1381 0
-1351 -1382 0
-1351 -1383 0
-1351 -1384 0
-1351 -1385 0
-1351 -1386 0
-1351 -1387 0
-1351 -1388 0
-1351 -1389 0
-1351 -1390 0
-1351 -1391 0
-1352 -1353 0
-1352 -1354 0
-1352 -1355 0
-1352 -1356 0
-1352 -1357 0
-1352 -1358 0
-1352 -1359 0
-1352 -1360 0
-1352 -1361 0
-1352 -1362 0
-1352 -1363 0
-1352 -1364 0
-1352 -1365 0
-1352 -1366 0
-1352 -1367 0
-1352 -1368 0
-1352 -1369 0
-1352 -1370 0
-1352 -1371 0
-1352 -1372 0
-1352 -1373 0
-1352 -1374 0
-1352 -1375 0
-1352 -1376 0
-1352 -1377 0
-1352 -1378 0
-1352 -1379 0
-1352 -1380 0
-1352 -1381 0
-1352 -1382 0
-1352 -1383 0
-1352 -1384 0
-1352 -1385 0
-1352 -1386 0
-1352 -1387 0
-1352 -1388 0
-1352 -1389 0
-1352 -1390 0
-1352 -1391 0
-1353 -1354 0
-1353 -1355 0
-1353 -1356 0
-1353 -1357 0
-1353 -1358 0
-1353 -1359 0
-1353 -1360 0
-1353 -1361 0
-1353 -1362 0
-1353 -1363 0
-1353 -1364 0
-1353 -1365 0
-1353 -1366 0
-1353 -1367 0
-1353 -1368 0
-1353 -1369 0
-1353 -1370 0
-1353 -1371 0
-1353 -1372 0
-1353 -1373 0
-1353 -1374 0
-1353 -1375 0
-1353 -1376 0
-1353 -1377 0
-1353 -1378 0
-1353 -1379 0
-1353 -1380 0
-1353 -1381 0
-1353 -1382 0
-1353 -1383 0
-1353 -1384 0
-1353 -1385 0
-1353 -1386 0
-1353 -1387 0
-1353 -1388 0
-1353 -1389 0
-1353 -1390 0
-1353 -1391 0
-1354 -1355 0
-1354 -1356 0
-1354 -1357 0
-1354 -1358 0
-1354 -1359 0
-1354 -1360 0
-1354 -1361 0
-1354 -1362 0
-1354 -1363 0
-1354 -1364 0
-1354 -1365 0
-1354 -1366 0
-1354 -1367 0
-1354 -1368 0
-1354 -1369 0
-1354 -1370 0
-1354 -1371 0
-1354 -1372 0
-1354 -1373 0
-1354 -1374 0
-1354 -1375 0
-1354 -1376 0
-1354 -1377 0
-1354 -1378 0
-1354 -1379 0
-1354 -1380 0
-1354 -1381 0
-1354 -1382 0
-1354 -1383 0
-1354 -1384 0
-1354 -1385 0
-1354 -1386 0
-1354 -1387 0
-1354 -1388 0
-1354 -1389 0
-1354 -1390 0
-1354 -1391 0
-1355 -1356 0
-1355 -1357 0
-1355 -1358 0
-1355 -1359 0
-1355 -1360 0
-1355 -1361 0
-1355 -1362 0
-1355 -1363 0
-1355 -1364 0
-1355 -1365 0
-1355 -1366 0
-1355 -1367 0
-1355 -1368 0
-1355 -1369 0
-1355 -1370 0
-1355 -1371 0
-1355 -1372 0
-1355 -1373 0
-1355 -1374 0
-1355 -1375 0
-1355 -1376 0
-1355 -1377 0
-1355 -1378 0
-1355 -1379 0
-1355 -1380 0
-1355 -1381 0
-1355 -1382 0
-1355 -1383 0
-1355 -1384 0
-1355 -1385 0
-1355 -1386 0
-1355 -1387 0
-1355 -1388 0
-1355 -1389 0
-1355 -1390 0
-1355 -1391 0
-1356 -1357 0
-1356 -1358 0
-1356 -1359 0
-1356 -1360 0
-1356 -1361 0
-1356 -1362 0
-1356 -1363 0
-1356 -1364 0
-1356 -1365 0
-1356 -1366 0
-1356 -1367 0
-1356 -1368 0
-1356 -1369 0
-1356 -1370 0
-1356 -1371 0
-1356 -1372 0
-1356 -1373 0
-1356 -1374 0
-1356 -1375 0
-1356 -1376 0
-1356 -1377 0
-1356 -1378 0
-1356 -1379 0
-1356 -1380 0
-1356 -1381 0
-1356 -1382 0
-1356 -1383 0
-1356 -1384 0
-1356 -1385 0
-1356 -1386 0
-1356 -1387 0
-1356 -1388 0
-1356 -1389 0
-1356 -1390 0
-1356 -1391 0
-1357 -1358 0
-1357 -1359 0
-1357 -1360 0
-1357 -1361 0
-1357 -1362 0
-1357 -1363 0
-1357 -1364 0
-1357 -1365 0
-1357 -1366 0
-1357 -1367 0
-1357 -1368 0
-1357 -1369 0
-1357 -1370 0
-1357 -1371 0
-1357 -1372 0
-1357 -1373 0
-1357 -1374 0
-1357 -1375 0
-1357 -1376 0
-1357 -1377 0
-1357 -1378 0
-1357 -1379 0
-1357 -1380 0
-1357 -1381 0
-1357 -1382 0
-1357 -1383 0
-1357 -1384 0
-1357 -1385 0
-1357 -1386 0
-1357 -1387 0
-1357 -1388 0
-1357 -1389 0
-1357 -1390 0
-1357 -1391 0
-1358 -1359 0
-1358 -1360 0
-1358 -1361 0
-1358 -1362 0
-1358 -1363 0
-1358 -1364 0
-1358 -1365 0
-1358 -1366 0
-1358 -1367 0
-1358 -1368 0
-1358 -1369 0
-1358 -1370 0
-1358 -1371 0
-1358 -1372 0
-1358 -1373 0
-1358 -1374 0
-1358 -1375 0
-1358 -1376 0
-1358 -1377 0
-1358 -1378 0
-1358 -1379 0
-1358 -1380 0
-1358 -1381 0
-1358 -1382 0
-1358 -1383 0
-1358 -1384 0
-1358 -1385 0
-1358 -1386 0
-1358 -1387 0
-1358 -1388 0
-1358 -1389 0
-1358 -1390 0
-1358 -1391 0
-1359 -1360 0
-1359 -1361 0
-1359 -1362 0
-1359 -1363 0
-1359 -1364 0
-1359 -1365 0
-1359 -1366 0
-1359 -1367 0
-1359 -1368 0
-1359 -1369 0
-1359 -1370 0
-1359 -1371 0
-1359 -1372 0
-1359 -1373 0
-1359 -1374 0
-1359 -1375 0
-1359 -1376 0
-1359 -1377 0
-1359 -1378 0
-1359 -1379 0
-1359 -1380 0
-1359 -1381 0
-1359 -1382 0
-1359 -1383 0
-1359 -1384 0
-1359 -1385 0
-1359 -1386 0
-1359 -1387 0
-1359 -1388 0
-1359 -1389 0
-1359 -1390 0
-1359 -1391 0
-1360 -1361 0
-1360 -1362 0
-1360 -1363 0
-1360 -1364 0
-1360 -1365 0
-1360 -1366 0
-1360 -1367 0
-1360 -1368 0
-1360 -1369 0
-1360 -1370 0
-1360 -1371 0
-1360 -1372 0
-1360 -1373 0
-1360 -1374 0
-1360 -1375 0
-1360 -1376 0
-1360 -1377 0
-1360 -1378 0
-1360 -1379 0
-1360 -1380 0
-1360 -1381 0
-1360 -1382 0
-1360 -1383 0
-1360 -1384 0
-1360 -1385 0
-1360 -1386 0
-1360 -1387 0
-1360 -1388 0
-1360 -1389 0
-1360 -1390 0
-1360 -1391 0
-1361 -1362 0
-1361 -1363 0
-1361 -1364 0
-1361 -1365 0
-1361 -1366 0
-1361 -1367 0
-1361 -1368 0
-1361 -1369 0
-1361 -1370 0
-1361 -1371 0
-1361 -1372 0
-1361 -1373 0
-1361 -1374 0
-1361 -1375 0
-1361 -1376 0
-1361 -1377 0
-1361 -1378 0
-1361 -1379 0
-1361 -1380 0
-1361 -1381 0
-1361 -1382 0
-1361 -1383 0
-1361 -1384 0
-1361 -1385 0
-1361 -1386 0
-1361 -1387 0
-1361 -1388 0
-1361 -1389 0
-1361 -1390 0
-1361 -1391 0
-1362 -1363 0
-1362 -1364 0
-1362 -1365 0
-1362 -1366 0
-1362 -1367 0
-1362 -1368 0
-1362 -1369 0
-1362 -1370 0
-1362 -1371 0
-1362 -1372 0
-1362 -1373 0
-1362 -1374 0
-1362 -1375 0
-1362 -1376 0
-1362 -1377 0
-1362 -1378 0
-1362 -1379 0
-1362 -1380 0
-1362 -1381 0
-1362 -1382 0
-1362 -1383 0
-1362 -1384 0
-1362 -1385 0
-1362 -1386 0
-1362 -1387 0
-1362 -1388 0
-1362 -1389 0
-1362 -1390 0
-1362 -1391 0
-1363 -1364 0
-1363 -1365 0
-1363 -1366 0
-1363 -1367 0
-1363 -1368 0
-1363 -1369 0
-1363 -1370 0
-1363 -1371 0
-1363 -1372 0
-1363 -1373 0
-1363 -1374 0
-1363 -1375 0
-1363 -1376 0
-1363 -1377 0
-1363 -1378 0
-1363 -1379 0
-1363 -1380 0
-1363 -1381 0
-1363 -1382 0
-1363 -1383 0
-1363 -1384 0
-1363 -1385 0
-1363 -1386 0
-1363 -1387 0
-1363 -1388 0
-1363 -1389 0
-1363 -1390 0
-1363 -1391 0
-1364 -1365 0
-1364 -1366 0
-1364 -1367 0
-1364 -1368 0
-1364 -1369 0
-1364 -1370 0
-1364 -1371 0
-1364 -1372 0
-1364 -1373 0
-1364 -1374 0
-1364 -1375 0
-1364 -1376 0
-1364 -1377 0
-1364 -1378 0
-1364 -1379 0
-1364 -1380 0
-1364 -1381 0
-1364 -1382 0
-1364 -1383 0
-1364 -1384 0
-1364 -1385 0
-1364 -1386 0
-1364 -1387 0
-1364 -1388 0
-1364 -1389 0
-1364 -1390 0
-1364 -1391 0
-1365 -1366 0
-1365 -1367 0
-1365 -1368 0
-1365 -1369 0
-1365 -1370 0
-1365 -1371 0
-1365 -1372 0
-1365 -1373 0
-1365 -1374 0
-1365 -1375 0
-1365 -1376 0
-1365 -1377 0
-1365 -1378 0
-1365 -1379 0
-1365 -1380 0
-1365 -1381 0
-1365 -1382 0
-1365 -1383 0
-1365 -1384 0
-1365 -1385 0
-1365 -1386 0
-1365 -1387 0
-1365 -1388 0
-1365 -1389 0
-1365 -1390 0
-1365 -1391 0
-1366 -1367 0
-1366 -1368 0
-1366 -1369 0
-1366 -1370 0
-1366 -1371 0
-1366 -1372 0
-1366 -1373 0
-1366 -1374 0
-1366 -1375 0
-1366 -1376 0
-1366 -1377 0
-1366 -1378 0
-1366 -1379 0
-1366 -1380 0
-1366 -1381 0
-1366 -1382 0
-1366 -1383 0
-1366 -1384 0
-1366 -1385 0
-1366 -1386 0
-1366 -1387 0
-1366 -1388 0
-1366 -1389 0
-1366 -1390 0
-1366 -1391 0
-1367 -1368 0
-1367 -1369 0
-1367 -1370 0
-1367 -1371 0
-1367 -1372 0
-1367 -1373 0
-1367 -1374 0
-1367 -1375 0
-1367 -1376 0
-1367 -1377 0
-1367 -1378 0
-1367 -1379 0
-1367 -1380 0
-1367 -1381 0
-1367 -1382 0
-1367 -1383 0
-1367 -1384 0
-1367 -1385 0
-1367 -1386 0
-1367 -1387 0
-1367 -1388 0
-1367 -1389 0
-1367 -1390 0
-1367 -1391 0
-1368 -1369 0
-1368 -1370 0
-1368 -1371 0
-1368 -1372 0
-1368 -1373 0
-1368 -1374 0
-1368 -1375 0
-1368 -1376 0
-1368 -1377 0
-1368 -1378 0
-1368 -1379 0
-1368 -1380 0
-1368 -1381 0
-1368 -1382 0
-1368 -1383 0
-1368 -1384 0
-1368 -1385 0
-1368 -1386 0
-1368 -1387 0
-1368 -1388 0
-1368 -1389 0
-1368 -1390 0
-1368 -1391 0
-1369 -1370 0
-1369 -1371 0
-1369 -1372 0
-1369 -1373 0
-1369 -1374 0
-1369 -1375 0
-1369 -1376 0
-1369 -1377 0
-1369 -1378 0
-1369 -1379 0
-1369 -1380 0
-1369 -1381 0
-1369 -1382 0
-1369 -1383 0
-1369 -1384 0
-1369 -1385 0
-1369 -1386 0
-1369 -1387 0
-1369 -1388 0
-1369 -1389 0
-1369 -1390 0
-1369 -1391 0
-1370 -1371 0
-1370 -1372 0
-1370 -1373 0
-1370 -1374 0
-1370 -1375 0
-1370 -1376 0
-1370 -1377 0
-1370 -1378 0
-1370 -1379 0
-1370 -1380 0
-1370 -1381 0
-1370 -1382 0
-1370 -1383 0
-1370 -1384 0
-1370 -1385 0
-1370 -1386 0
-1370 -1387 0
-1370 -1388 0
-1370 -1389 0
-1370 -1390 0
-1370 -1391 0
-1371 -1372 0
-1371 -1373 0
-1371 -1374 0
-1371 -1375 0
-1371 -1376 0
-1371 -1377 0
-1371 -1378 0
-1371 -1379 0
-1371 -1380 0
-1371 -1381 0
-1371 -1382 0
-1371 -1383 0
-1371 -1384 0
-1371 -1385 0
-1371 -1386 0
-1371 -1387 0
-1371 -1388 0
-1371 -1389 0
-1371 -1390 0
-1371 -1391 0
-1372 -1373 0
-1372 -1374 0
-1372 -1375 0
-1372 -1376 0
-1372 -1377 0
-1372 -1378 0
-1372 -1379 0
-1372 -1380 0
-1372 -1381 0
-1372 -1382 0
-1372 -1383 0
-1372 -1384 0
-1372 -1385 0
-1372 -1386 0
-1372 -1387 0
-1372 -1388 0
-1372 -1389 0
-1372 -1390 0
-1372 -1391 0
-1373 -1374 0
-1373 -1375 0
-1373 -1376 0
-1373 -1377 0
-1373 -1378 0
-1373 -1379 0
-1373 -1380 0
-1373 -1381 0
-1373 -1382 0
-1373 -1383 0
-1373 -1384 0
-1373 -1385 0
-1373 -1386 0
-1373 -1387 0
-1373 -1388 0
-1373 -1389 0
-1373 -1390 0
-1373 -1391 0
-1374 -1375 0
-1374 -1376 0
-1374 -1377 0
-1374 -1378 0
-1374 -1379 0
-1374 -1380 0
-1374 -1381 0
-1374 -1382 0
-1374 -1383 0
-1374 -1384 0
-1374 -1385 0
-1374 -1386 0
-1374 -1387 0
-1374 -1388 0
-1374 -1389 0
-1374 -1390 0
-1374 -1391 0
-1375 -1376 0
-1375 -1377 0
-1375 -1378 0
-1375 -1379 0
-1375 -1380 0
-1375 -1381 0
-1375 -1382 0
-1375 -1383 0
-1375 -1384 0
-1375 -1385 0
-1375 -1386 0
-1375 -1387 0
-1375 -1388 0
-1375 -1389 0
-1375 -1390 0
-1375 -1391 0
-1376 -1377 0
-1376 -1378 0
-1376 -1379 0
-1376 -1380 0
-1376 -1381 0
-1376 -1382 0
-1376 -1383 0
-1376 -1384 0
-1376 -1385 0
-1376 -1386 0
-1376 -1387 0
-1376 -1388 0
-1376 -1389 0
-1376 -1390 0
-1376 -1391 0
-1377 -1378 0
-1377 -1379 0
-1377 -1380 0
-1377 -1381 0
-1377 -1382 0
-1377 -1383 0
-1377 -1384 0
-1377 -1385 0
-1377 -1386 0
-1377 -1387 0
-1377 -1388 0
-1377 -1389 0
-1377 -1390 0
-1377 -1391 0
-1378 -1379 0
-1378 -1380 0
-1378 -1381 0
-1378 -1382 0
-1378 -1383 0
-1378 -1384 0
-1378 -1385 0
-1378 -1386 0
-1378 -1387 0
-1378 -1388 0
-1378 -1389 0
-1378 -1390 0
-1378 -1391 0
-1379 -1380 0
-1379 -1381 0
-1379 -1382 0
-1379 -1383 0
-1379 -1384 0
-1379 -1385 0
-1379 -1386 0
-1379 -1387 0
-1379 -1388 0
-1379 -1389 0
-1379 -1390 0
-1379 -1391 0
-1380 -1381 0
-1380 -1382 0
-1380 -1383 0
-1380 -1384 0
-1380 -1385 0
-1380 -1386 0
-1380 -1387 0
-1380 -1388 0
-1380 -1389 0
-1380 -1390 0
-1380 -1391 0
-1381 -1382 0
-1381 -1383 0
-1381 -1384 0
-1381 -1385 0
-1381 -1386 0
-1381 -1387 0
-1381 -1388 0
-1381 -1389 0
-1381 -1390 0
-1381 -1391 0
-1382 -1383 0
-1382 -1384 0
-1382 -1385 0
-1382 -1386 0
-1382 -1387 0
-1382 -1388 0
-1382 -1389 0
-1382 -1390 0
-1382 -1391 0
-1383 -1384 0
-1383 -1385 0
-1383 -1386 0
-1383 -1387 0
-1383 -1388 0
-1383 -1389 0
-1383 -1390 0
-1383 -1391 0
-1384 -1385 0
-1384 -1386 0
-1384 -1387 0
-1384 -1388 0
-1384 -1389 0
-1384 -1390 0
-1384 -1391 0
-1385 -1386 0
-1385 -1387 0
-1385 -1388 0
-1385 -1389 0
-1385 -1390 0
-1385 -1391 0
-1386 -1387 0
-1386 -1388 0
-1386 -1389 0
-1386 -1390 0
-1386 -1391 0
-1387 -1388 0
-1387 -1389 0
-1387 -1390 0
-1387 -1391 0
-1388 -1389 0
-1388 -1390 0
-1388 -1391 0
-1389 -1390 0
-1389 -1391 0
-1390 -1391 0
-1392 1308 1309 1310 1311 1312 1313 1314 1315 1316 1317 1318 1319 1320 1321 1322 1323 1324 1325 1326 1327 1328 1329 1330 1331 0
-1308 1392 0
-1309 1392 0
-1310 1392 0
-1311 1392 0
-1312 1392 0
-1313 1392 0
-1314 1392 0
-1315 1392 0
-1316 1392 0
-1317 1392 0
-1318 1392 0
-1319 1392 0
-1320 1392 0
-1321 1392 0
-1322 1392 0
-1323 1392 0
-1324 1392 0
-1325 1392 0
-1326 1392 0
-1327 1392 0
-1328 1392 0
-1329 1392 0
-1330 1392 0
-1331 1392 0
1392 -448 597 0
1392 448 -597 0
1392 -449 598 0
1392 449 -598 0
1392 -450 599 0
1392 450 -599 0
1392 -451 600 0
1392 451 -600 0
1392 -452 601 0
1392 452 -601 0
1392 -453 602 0
1392 453 -602 0
1392 -454 603 0
1392 454 -603 0
1392 -455 604 0
1392 455 -604 0
1392 -456 605 0
1392 456 -605 0
1392 -457 606 0
1392 457 -606 0
-1393 1332 1333 1334 1335 1336 1337 1338 1339 1340 1341 1342 1343 1344 1345 1346 1347 1348 1349 1350 1351 1352 1353 1354 1355 0
-1332 1393 0
-1333 1393 0
-1334 1393 0
-1335 1393 0
-1336 1393 0
-1337 1393 0
-1338 1393 0
-1339 1393 0
-1340 1393 0
-1341 1393 0
-1342 1393 0
-1343 1393 0
-1344 1393 0
-1345 1393 0
-1346 1393 0
-1347 1393 0
-1348 1393 0
-1349 1393 0
-1350 1393 0
-1351 1393 0
-1352 1393 0
-1353 1393 0
-1354 1393 0
-1355 1393 0
1393 -458 607 0
1393 458 -607 0
1393 -459 608 0
1393 459 -608 0
1393 -460 609 0
1393 460 -609 0
1393 -461 610 0
1393 461 -610 0
1393 -462 611 0
1393 462 -611 0
1393 -463 612 0
1393 463 -612 0
1393 -464 613 0
1393 464 -613 0
1393 -465 614 0
1393 465 -614 0
1393 -466 615 0
1393 466 -615 0
1393 -467 616 0
1393 467 -616 0
-1394 1356 1357 1358 1359 1360 1361 1362 1363 1364 1365 1366 1367 1368 1369 1370 1371 1372 1373 1374 1375 0
-1356 1394 0
-1357 1394 0
-1358 1394 0
-1359 1394 0
-1360 1394 0
-1361 1394 0
-1362 1394 0
-1363 1394 0
-1364 1394 0
-1365 1394 0
-1366 1394 0
-1367 1394 0
-1368 1394 0
-1369 1394 0
-1370 1394 0
-1371 1394 0
-1372 1394 0
-1373 1394 0
-1374 1394 0
-1375 1394 0
1394 -468 617 0
1394 468 -617 0
1394 -469 618 0
1394 469 -618 0
1394 -470 619 0
1394 470 -619 0
1394 -471 620 0
1394 471 -620 0
1394 -472 621 0
1394 472 -621 0
1394 -473 622 0
1394 473 -622 0
1394 -474 623 0
1394 474 -623 0
1394 -475 624 0
1394 475 -624 0
1394 -476 625 0
1394 476 -625 0
-1395 1376 1377 1378 1379 1380 1381 1382 1383 1384 1385 1386 1387 1388 1389 1390 1391 0
-1376 1395 0
-1377 1395 0
-1378 1395 0
-1379 1395 0
-1380 1395 0
-1381 1395 0
-1382 1395 0
-1383 1395 0
-1384 1395 0
-1385 1395 0
-1386 1395 0
-1387 1395 0
-1388 1395 0
-1389 1395 0
-1390 1395 0
-1391 1395 0
1395 -477 626 0
1395 477 -626 0
1395 -478 627 0
1395 478 -627 0
1395 -479 628 0
1395 479 -628 0
1395 -480 629 0
1395 480 -629 0
1395 -481 630 0
1395 481 -630 0
1395 -482 631 0
1395 482 -631 0
1395 -483 632 0
1395 483 -632 0
1395 -484 633 0
1395 484 -633 0
-1308 593 0
-1308 597 0
-1308 -459 0
-1308 -460 0
-1308 -461 0
-1308 -462 0
-1308 -463 0
-1308 -467 0
-1308 -464 604 0
-1308 -464 -448 -455 0
-1308 -464 -510 0
-1308 -464 -511 0
-1308 -464 -512 0
-1308 -464 -534 0
-1308 -464 -535 0
-1308 -464 -536 0
-1308 -464 -554 0
-1308 -464 -555 0
-1308 -464 -556 0
-1308 -465 605 0
-1308 -465 -448 -456 0
-1308 -465 -511 0
-1308 -465 -512 0
-1308 -465 -535 0
-1308 -465 -536 0
-1308 -465 -555 0
-1308 -465 -556 0
-1308 -466 606 0
-1308 -466 -448 -457 0
-1308 -466 -512 0
-1308 -466 -536 0
-1308 -466 -556 0
-1309 593 0
-1309 598 0
-1309 -458 0
-1309 -460 0
-1309 -461 0
-1309 -462 0
-1309 -463 0
-1309 -467 0
-1309 -464 604 0
-1309 -464 -449 -455 0
-1309 -464 -514 0
-1309 -464 -515 0
-1309 -464 -516 0
-1309 -464 -534 0
-1309 -464 -535 0
-1309 -464 -536 0
-1309 -464 -538 0
-1309 -464 -539 0
-1309 -464 -540 0
-1309 -464 -554 0
-1309 -464 -555 0
-1309 -464 -556 0
-1309 -464 -558 0
-1309 -464 -559 0
-1309 -464 -560 0
-1309 -465 605 0
-1309 -465 -449 -456 0
-1309 -465 -515 0
-1309 -465 -516 0
-1309 -465 -535 0
-1309 -465 -536 0
-1309 -465 -539 0
-1309 -465 -540 0
-1309 -465 -555 0
-1309 -465 -556 0
-1309 -465 -559 0
-1309 -465 -560 0
-1309 -466 606 0
-1309 -466 -449 -457 0
-1309 -466 -516 0
-1309 -466 -536 0
-1309 -466 -540 0
-1309 -466 -556 0
-1309 -466 -560 0
-1310 593 0
-1310 599 0
-1310 -458 0
-1310 -459 0
-1310 -461 0
-1310 -462 0
-1310 -463 0
-1310 -467 0
-1310 -464 604 0
-1310 -464 -450 -455 0
-1310 -464 -518 0
-1310 -464 -519 0
-1310 -464 -520 0
-1310 -464 -538 0
-1310 -464 -539 0
-1310 -464 -540 0
-1310 -464 -542 0
-1310 -464 -543 0
-1310 -464 -544 0
-1310 -464 -554 0
-1310 -464 -555 0
-1310 -464 -556 0
-1310 -464 -558 0
-1310 -464 -559 0
-1310 -464 -560 0
-1310 -464 -562 0
-1310 -464 -563 0
-1310 -464 -564 0
-1310 -465 605 0
-1310 -465 -450 -456 0
-1310 -465 -519 0
-1310 -465 -520 0
-1310 -465 -539 0
-1310 -465 -540 0
-1310 -465 -543 0
-1310 -465 -544 0
-1310 -465 -555 0
-1310 -465 -556 0
-1310 -465 -559 0
-1310 -465 -560 0
-1310 -465 -563 0
-1310 -465 -564 0
-1310 -466 606 0
-1310 -466 -450 -457 0
-1310 -466 -520 0
-1310 -466 -540 0
-1310 -466 -544 0
-1310 -466 -556 0
-1310 -466 -560 0
-1310 -466 -564 0
-1311 593 0
-1311 600 0
-1311 -458 0
-1311 -459 0
-1311 -460 0
-1311 -462 0
-1311 -463 0
-1311 -467 0
-1311 -464 604 0
-1311 -464 -451 -455 0
-1311 -464 -522 0
-1311 -464 -523 0
-1311 -464 -524 0
-1311 -464 -542 0
-1311 -464 -543 0
-1311 -464 -544 0
-1311 -464 -546 0
-1311 -464 -547 0
-1311 -464 -548 0
-1311 -464 -558 0
-1311 -464 -559 0
-1311 -464 -560 0
-1311 -464 -562 0
-1311 -464 -563 0
-1311 -464 -564 0
-1311 -464 -566 0
-1311 -464 -567 0
-1311 -464 -568 0
-1311 -465 605 0
-1311 -465 -451 -456 0
-1311 -465 -523 0
-1311 -465 -524 0
-1311 -465 -543 0
-1311 -465 -544 0
-1311 -465 -547 0
-1311 -465 -548 0
-1311 -465 -559 0
-1311 -465 -560 0
-1311 -465 -563 0
-1311 -465 -564 0
-1311 -465 -567 0
-1311 -465 -568 0
-1311 -466 606 0
-1311 -466 -451 -457 0
-1311 -466 -524 0
-1311 -466 -544 0
-1311 -466 -548 0
-1311 -466 -560 0
-1311 -466 -564 0
-1311 -466 -568 0
-1312 593 0
-1312 601 0
-1312 -458 0
-1312 -459 0
-1312 -460 0
-1312 -461 0
-1312 -463 0
-1312 -467 0
-1312 -464 604 0
-1312 -464 -452 -455 0
-1312 -464 -526 0
-1312 -464 -527 0
-1312 -464 -528 0
-1312 -464 -546 0
-1312 -464 -547 0
-1312 -464 -548 0
-1312 -464 -550 0
-1312 -464 -551 0
-1312 -464 -552 0
-1312 -464 -562 0
-1312 -464 -563 0
-1312 -464 -564 0
-1312 -464 -566 0
-1312 -464 -567 0
-1312 -464 -568 0
-1312 -465 605 0
-1312 -465 -452 -456 0
-1312 -465 -527 0
-1312 -465 -528 0
-1312 -465 -547 0
-1312 -465 -548 0
-1312 -465 -551 0
-1312 -465 -552 0
-1312 -465 -563 0
-1312 -465 -564 0
-1312 -465 -567 0
-1312 -465 -568 0
-1312 -466 606 0
-1312 -466 -452 -457 0
-1312 -466 -528 0
-1312 -466 -548 0
-1312 -466 -552 0
-1312 -466 -564 0
-1312 -466 -568 0
-1313 593 0
-1313 602 0
-1313 -458 0
-1313 -459 0
-1313 -460 0
-1313 -461 0
-1313 -462 0
-1313 -467 0
-1313 -464 604 0
-1313 -464 -453 -455 0
-1313 -464 -530 0
-1313 -464 -531 0
-1313 -464 -532 0
-1313 -464 -550 0
-1313 -464 -551 0
-1313 -464 -552 0
-1313 -464 -566 0
-1313 -464 -567 0
-1313 -464 -568 0
-1313 -465 605 0
-1313 -465 -453 -456 0
-1313 -465 -531 0
-1313 -465 -532 0
-1313 -465 -551 0
-1313 -465 -552 0
-1313 -465 -567 0
-1313 -465 -568 0
-1313 -466 606 0
-1313 -466 -453 -457 0
-1313 -466 -532 0
-1313 -466 -552 0
-1313 -466 -568 0
-1314 593 0
-1314 597 0
-1314 -469 0
-1314 -470 0
-1314 -471 0
-1314 -472 0
-1314 -476 0
-1314 -473 604 0
-1314 -473 -448 -455 0
-1314 -473 -510 0
-1314 -473 -511 0
-1314 -473 -512 0
-1314 -473 -534 0
-1314 -473 -535 0
-1314 -473 -536 0
-1314 -473 -554 0
-1314 -473 -555 0
-1314 -473 -556 0
-1314 -474 605 0
-1314 -474 -448 -456 0
-1314 -474 -511 0
-1314 -474 -512 0
-1314 -474 -535 0
-1314 -474 -536 0
-1314 -474 -555 0
-1314 -474 -556 0
-1314 -475 606 0
-1314 -475 -448 -457 0
-1314 -475 -512 0
-1314 -475 -536 0
-1314 -475 -556 0
-1315 593 0
-1315 598 0
-1315 -470 0
-1315 -471 0
-1315 -472 0
-1315 -476 0
-1315 -473 604 0
-1315 -473 -449 -455 0
-1315 -473 -514 0
-1315 -473 -515 0
-1315 -473 -516 0
-1315 -473 -534 0
-1315 -473 -535 0
-1315 -473 -536 0
-1315 -473 -538 0
-1315 -473 -539 0
-1315 -473 -540 0
-1315 -473 -554 0
-1315 -473 -555 0
-1315 -473 -556 0
-1315 -473 -558 0
-1315 -473 -559 0
-1315 -473 -560 0
-1315 -474 605 0
-1315 -474 -449 -456 0
-1315 -474 -515 0
-1315 -474 -516 0
-1315 -474 -535 0
-1315 -474 -536 0
-1315 -474 -539 0
-1315 -474 -540 0
-1315 -474 -555 0
-1315 -474 -556 0
-1315 -474 -559 0
-1315 -474 -560 0
-1315 -475 606 0
-1315 -475 -449 -457 0
-1315 -475 -516 0
-1315 -475 -536 0
-1315 -475 -540 0
-1315 -475 -556 0
-1315 -475 -560 0
-1316 593 0
-1316 599 0
-1316 -468 0
-1316 -471 0
-1316 -472 0
-1316 -476 0
-1316 -473 604 0
-1316 -473 -450 -455 0
-1316 -473 -518 0
-1316 -473 -519 0
-1316 -473 -520 0
-1316 -473 -538 0
-1316 -473 -539 0
-1316 -473 -540 0
-1316 -473 -542 0
-1316 -473 -543 0
-1316 -473 -544 0
-1316 -473 -554 0
-1316 -473 -555 0
-1316 -473 -556 0
-1316 -473 -558 0
-1316 -473 -559 0
-1316 -473 -560 0
-1316 -473 -562 0
-1316 -473 -563 0
-1316 -473 -564 0
-1316 -474 605 0
-1316 -474 -450 -456 0
-1316 -474 -519 0
-1316 -474 -520 0
-1316 -474 -539 0
-1316 -474 -540 0
-1316 -474 -543 0
-1316 -474 -544 0
-1316 -474 -555 0
-1316 -474 -556 0
-1316 -474 -559 0
-1316 -474 -560 0
-1316 -474 -563 0
-1316 -474 -564 0
-1316 -475 606 0
-1316 -475 -450 -457 0
-1316 -475 -520 0
-1316 -475 -540 0
-1316 -475 -544 0
-1316 -475 -556 0
-1316 -475 -560 0
-1316 -475 -564 0
-1317 593 0
-1317 600 0
-1317 -468 0
-1317 -469 0
-1317 -472 0
-1317 -476 0
-1317 -473 604 0
-1317 -473 -451 -455 0
-1317 -473 -522 0
-1317 -473 -523 0
-1317 -473 -524 0
-1317 -473 -542 0
-1317 -473 -543 0
-1317 -473 -544 0
-1317 -473 -546 0
-1317 -473 -547 0
-1317 -473 -548 0
-1317 -473 -558 0
-1317 -473 -559 0
-1317 -473 -560 0
-1317 -473 -562 0
-1317 -473 -563 0
-1317 -473 -564 0
-1317 -473 -566 0
-1317 -473 -567 0
-1317 -473 -568 0
-1317 -474 605 0
-1317 -474 -451 -456 0
-1317 -474 -523 0
-1317 -474 -524 0
-1317 -474 -543 0
-1317 -474 -544 0
-1317 -474 -547 0
-1317 -474 -548 0
-1317 -474 -559 0
-1317 -474 -560 0
-1317 -474 -563 0
-1317 -474 -564 0
-1317 -474 -567 0
-1317 -474 -568 0
-1317 -475 606 0
-1317 -475 -451 -457 0
-1317 -475 -524 0
-1317 -475 -544 0
-1317 -475 -548 0
-1317 -475 -560 0
-1317 -475 -564 0
-1317 -475 -568 0
-1318 593 0
-1318 601 0
-1318 -468 0
-1318 -469 0
-1318 -470 0
-1318 -476 0
-1318 -473 604 0
-1318 -473 -452 -455 0
-1318 -473 -526 0
-1318 -473 -527 0
-1318 -473 -528 0
-1318 -473 -546 0
-1318 -473 -547 0
-1318 -473 -548 0
-1318 -473 -550 0
-1318 -473 -551 0
-1318 -473 -552 0
-1318 -473 -562 0
-1318 -473 -563 0
-1318 -473 -564 0
-1318 -473 -566 0
-1318 -473 -567 0
-1318 -473 -568 0
-1318 -474 605 0
-1318 -474 -452 -456 0
-1318 -474 -527 0
-1318 -474 -528 0
-1318 -474 -547 0
-1318 -474 -548 0
-1318 -474 -551 0
-1318 -474 -552 0
-1318 -474 -563 0
-1318 -474 -564 0
-1318 -474 -567 0
-1318 -474 -568 0
-1318 -475 606 0
-1318 -475 -452 -457 0
-1318 -475 -528 0
-1318 -475 -548 0
-1318 -475 -552 0
-1318 -475 -564 0
-1318 -475 -568 0
-1319 593 0
-1319 602 0
-1319 -468 0
-1319 -469 0
-1319 -470 0
-1319 -471 0
-1319 -476 0
-1319 -473 604 0
-1319 -473 -453 -455 0
-1319 -473 -530 0
-1319 -473 -531 0
-1319 -473 -532 0
-1319 -473 -550 0
-1319 -473 -551 0
-1319 -473 -552 0
-1319 -473 -566 0
-1319 -473 -567 0
-1319 -473 -568 0
-1319 -474 605 0
-1319 -474 -453 -456 0
-1319 -474 -531 0
-1319 -474 -532 0
-1319 -474 -551 0
-1319 -474 -552 0
-1319 -474 -567 0
-1319 -474 -568 0
-1319 -475 606 0
-1319 -475 -453 -457 0
-1319 -475 -532 0
-1319 -475 -552 0
-1319 -475 -568 0
-1320 593 0
-1320 597 0
-1320 -478 0
-1320 -479 0
-1320 -480 0
-1320 -484 0
-1320 -481 604 0
-1320 -481 -448 -455 0
-1320 -481 -510 0
-1320 -481 -511 0
-1320 -481 -512 0
-1320 -481 -534 0
-1320 -481 -535 0
-1320 -481 -536 0
-1320 -481 -554 0
-1320 -481 -555 0
-1320 -481 -556 0
-1320 -482 605 0
-1320 -482 -448 -456 0
-1320 -482 -511 0
-1320 -482 -512 0
-1320 -482 -535 0
-1320 -482 -536 0
-1320 -482 -555 0
-1320 -482 -556 0
-1320 -483 606 0
-1320 -483 -448 -457 0
-1320 -483 -512 0
-1320 -483 -536 0
-1320 -483 -556 0
-1321 593 0
-1321 598 0
-1321 -479 0
-1321 -480 0
-1321 -484 0
-1321 -481 604 0
-1321 -481 -449 -455 0
-1321 -481 -514 0
-1321 -481 -515 0
-1321 -481 -516 0
-1321 -481 -534 0
-1321 -481 -535 0
-1321 -481 -536 0
-1321 -481 -538 0
-1321 -481 -539 0
-1321 -481 -540 0
-1321 -481 -554 0
-1321 -481 -555 0
-1321 -481 -556 0
-1321 -481 -558 0
-1321 -481 -559 0
-1321 -481 -560 0
-1321 -482 605 0
-1321 -482 -449 -456 0
-1321 -482 -515 0
-1321 -482 -516 0
-1321 -482 -535 0
-1321 -482 -536 0
-1321 -482 -539 0
-1321 -482 -540 0
-1321 -482 -555 0
-1321 -482 -556 0
-1321 -482 -559 0
-1321 -482 -560 0
-1321 -483 606 0
-1321 -483 -449 -457 0
-1321 -483 -516 0
-1321 -483 -536 0
-1321 -483 -540 0
-1321 -483 -556 0
-1321 -483 -560 0
-1322 593 0
-1322 599 0
-1322 -480 0
-1322 -484 0
-1322 -481 604 0
-1322 -481 -450 -455 0
-1322 -481 -518 0
-1322 -481 -519 0
-1322 -481 -520 0
-1322 -481 -538 0
-1322 -481 -539 0
-1322 -481 -540 0
-1322 -481 -542 0
-1322 -481 -543 0
-1322 -481 -544 0
-1322 -481 -554 0
-1322 -481 -555 0
-1322 -481 -556 0
-1322 -481 -558 0
-1322 -481 -559 0
-1322 -481 -560 0
-1322 -481 -562 0
-1322 -481 -563 0
-1322 -481 -564 0
-1322 -482 605 0
-1322 -482 -450 -456 0
-1322 -482 -519 0
-1322 -482 -520 0
-1322 -482 -539 0
-1322 -482 -540 0
-1322 -482 -543 0
-1322 -482 -544 0
-1322 -482 -555 0
-1322 -482 -556 0
-1322 -482 -559 0
-1322 -482 -560 0
-1322 -482 -563 0
-1322 -482 -564 0
-1322 -483 606 0
-1322 -483 -450 -457 0
-1322 -483 -520 0
-1322 -483 -540 0
-1322 -483 -544 0
-1322 -483 -556 0
-1322 -483 -560 0
-1322 -483 -564 0
-1323 593 0
-1323 600 0
-1323 -477 0
-1323 -484 0
-1323 -481 604 0
-1323 -481 -451 -455 0
-1323 -481 -522 0
-1323 -481 -523 0
-1323 -481 -524 0
-1323 -481 -542 0
-1323 -481 -543 0
-1323 -481 -544 0
-1323 -481 -546 0
-1323 -481 -547 0
-1323 -481 -548 0
-1323 -481 -558 0
-1323 -481 -559 0
-1323 -481 -560 0
-1323 -481 -562 0
-1323 -481 -563 0
-1323 -481 -564 0
-1323 -481 -566 0
-1323 -481 -567 0
-1323 -481 -568 0
-1323 -482 605 0
-1323 -482 -451 -456 0
-1323 -482 -523 0
-1323 -482 -524 0
-1323 -482 -543 0
-1323 -482 -544 0
-1323 -482 -547 0
-1323 -482 -548 0
-1323 -482 -559 0
-1323 -482 -560 0
-1323 -482 -563 0
-1323 -482 -564 0
-1323 -482 -567 0
-1323 -482 -568 0
-1323 -483 606 0
-1323 -483 -451 -457 0
-1323 -483 -524 0
-1323 -483 -544 0
-1323 -483 -548 0
-1323 -483 -560 0
-1323 -483 -564 0
-1323 -483 -568 0
-1324 593 0
-1324 601 0
-1324 -477 0
-1324 -478 0
-1324 -484 0
-1324 -481 604 0
-1324 -481 -452 -455 0
-1324 -481 -526 0
-1324 -481 -527 0
-1324 -481 -528 0
-1324 -481 -546 0
-1324 -481 -547 0
-1324 -481 -548 0
-1324 -481 -550 0
-1324 -481 -551 0
-1324 -481 -552 0
-1324 -481 -562 0
-1324 -481 -563 0
-1324 -481 -564 0
-1324 -481 -566 0
-1324 -481 -567 0
-1324 -481 -568 0
-1324 -482 605 0
-1324 -482 -452 -456 0
-1324 -482 -527 0
-1324 -482 -528 0
-1324 -482 -547 0
-1324 -482 -548 0
-1324 -482 -551 0
-1324 -482 -552 0
-1324 -482 -563 0
-1324 -482 -564 0
-1324 -482 -567 0
-1324 -482 -568 0
-1324 -483 606 0
-1324 -483 -452 -457 0
-1324 -483 -528 0
-1324 -483 -548 0
-1324 -483 -552 0
-1324 -483 -564 0
-1324 -483 -568 0
-1325 593 0
-1325 602 0
-1325 -477 0
-1325 -478 0
-1325 -479 0
-1325 -484 0
-1325 -481 604 0
-1325 -481 -453 -455 0
-1325 -481 -530 0
-1325 -481 -531 0
-1325 -481 -532 0
-1325 -481 -550 0
-1325 -481 -551 0
-1325 -481 -552 0
-1325 -481 -566 0
-1325 -481 -567 0
-1325 -481 -568 0
-1325 -482 605 0
-1325 -482 -453 -456 0
-1325 -482 -531 0
-1325 -482 -532 0
-1325 -482 -551 0
-1325 -482 -552 0
-1325 -482 -567 0
-1325 -482 -568 0
-1325 -483 606 0
-1325 -483 -453 -457 0
-1325 -483 -532 0
-1325 -483 -552 0
-1325 -483 -568 0
-1326 593 0
-1326 597 0
-1326 603 0
-1326 -448 -454 0
-1326 -509 0
-1326 -510 0
-1326 -511 0
-1326 -512 0
-1326 -533 0
-1326 -534 0
-1326 -535 0
-1326 -536 0
-1326 -553 0
-1326 -554 0
-1326 -555 0
-1326 -556 0
-1327 593 0
-1327 598 0
-1327 603 0
-1327 -449 -454 0
-1327 -513 0
-1327 -514 0
-1327 -515 0
-1327 -516 0
-1327 -533 0
-1327 -534 0
-1327 -535 0
-1327 -536 0
-1327 -537 0
-1327 -538 0
-1327 -539 0
-1327 -540 0
-1327 -553 0
-1327 -554 0
-1327 -555 0
-1327 -556 0
-1327 -557 0
-1327 -558 0
-1327 -559 0
-1327 -560 0
-1328 593 0
-1328 599 0
-1328 603 0
-1328 -450 -454 0
-1328 -517 0
-1328 -518 0
-1328 -519 0
-1328 -520 0
-1328 -537 0
-1328 -538 0
-1328 -539 0
-1328 -540 0
-1328 -541 0
-1328 -542 0
-1328 -543 0
-1328 -544 0
-1328 -553 0
-1328 -554 0
-1328 -555 0
-1328 -556 0
-1328 -557 0
-1328 -558 0
-1328 -559 0
-1328 -560 0
-1328 -561 0
-1328 -562 0
-1328 -563 0
-1328 -564 0
-1329 593 0
-1329 600 0
-1329 603 0
-1329 -451 -454 0
-1329 -521 0
-1329 -522 0
-1329 -523 0
-1329 -524 0
-1329 -541 0
-1329 -542 0
-1329 -543 0
-1329 -544 0
-1329 -545 0
-1329 -546 0
-1329 -547 0
-1329 -548 0
-1329 -557 0
-1329 -558 0
-1329 -559 0
-1329 -560 0
-1329 -561 0
-1329 -562 0
-1329 -563 0
-1329 -564 0
-1329 -565 0
-1329 -566 0
-1329 -567 0
-1329 -568 0
-1330 593 0
-1330 601 0
-1330 603 0
-1330 -452 -454 0
-1330 -525 0
-1330 -526 0
-1330 -527 0
-1330 -528 0
-1330 -545 0
-1330 -546 0
-1330 -547 0
-1330 -548 0
-1330 -549 0
-1330 -550 0
-1330 -551 0
-1330 -552 0
-1330 -561 0
-1330 -562 0
-1330 -563 0
-1330 -564 0
-1330 -565 0
-1330 -566 0
-1330 -567 0
-1330 -568 0
-1331 593 0
-1331 602 0
-1331 603 0
-1331 -453 -454 0
-1331 -529 0
-1331 -530 0
-1331 -531 0
-1331 -532 0
-1331 -549 0
-1331 -550 0
-1331 -551 0
-1331 -552 0
-1331 -565 0
-1331 -566 0
-1331 -567 0
-1331 -568 0
-1332 594 0
-1332 607 0
-1332 -449 0
-1332 -450 0
-1332 -451 0
-1332 -452 0
-1332 -453 0
-1332 -457 0
-1332 -454 614 0
-1332 -454 -458 -465 0
-1332 -454 -486 0
-1332 -454 -487 0
-1332 -454 -488 0
-1332 -454 -534 0
-1332 -454 -535 0
-1332 -454 -536 0
-1332 -454 -554 0
-1332 -454 -555 0
-1332 -454 -556 0
-1332 -455 615 0
-1332 -455 -458 -466 0
-1332 -455 -487 0
-1332 -455 -488 0
-1332 -455 -535 0
-1332 -455 -536 0
-1332 -455 -555 0
-1332 -455 -556 0
-1332 -456 616 0
-1332 -456 -458 -467 0
-1332 -456 -488 0
-1332 -456 -536 0
-1332 -456 -556 0
-1333 594 0
-1333 608 0
-1333 -448 0
-1333 -450 0
-1333 -451 0
-1333 -452 0
-1333 -453 0
-1333 -457 0
-1333 -454 614 0
-1333 -454 -459 -465 0
-1333 -454 -490 0
-1333 -454 -491 0
-1333 -454 -492 0
-1333 -454 -534 0
-1333 -454 -535 0
-1333 -454 -536 0
-1333 -454 -538 0
-1333 -454 -539 0
-1333 -454 -540 0
-1333 -454 -554 0
-1333 -454 -555 0
-1333 -454 -556 0
-1333 -454 -558 0
-1333 -454 -559 0
-1333 -454 -560 0
-1333 -455 615 0
-1333 -455 -459 -466 0
-1333 -455 -491 0
-1333 -455 -492 0
-1333 -455 -535 0
-1333 -455 -536 0
-1333 -455 -539 0
-1333 -455 -540 0
-1333 -455 -555 0
-1333 -455 -556 0
-1333 -455 -559 0
-1333 -455 -560 0
-1333 -456 616 0
-1333 -456 -459 -467 0
-1333 -456 -492 0
-1333 -456 -536 0
-1333 -456 -540 0
-1333 -456 -556 0
-1333 -456 -560 0
-1334 594 0
-1334 609 0
-1334 -448 0
-1334 -449 0
-1334 -451 0
-1334 -452 0
-1334 -453 0
-1334 -457 0
-1334 -454 614 0
-1334 -454 -460 -465 0
-1334 -454 -494 0
-1334 -454 -495 0
-1334 -454 -496 0
-1334 -454 -538 0
-1334 -454 -539 0
-1334 -454 -540 0
-1334 -454 -542 0
-1334 -454 -543 0
-1334 -454 -544 0
-1334 -454 -554 0
-1334 -454 -555 0
-1334 -454 -556 0
-1334 -454 -558 0
-1334 -454 -559 0
-1334 -454 -560 0
-1334 -454 -562 0
-1334 -454 -563 0
-1334 -454 -564 0
-1334 -455 615 0
-1334 -455 -460 -466 0
-1334 -455 -495 0
-1334 -455 -496 0
-1334 -455 -539 0
-1334 -455 -540 0
-1334 -455 -543 0
-1334 -455 -544 0
-1334 -455 -555 0
-1334 -455 -556 0
-1334 -455 -559 0
-1334 -455 -560 0
-1334 -455 -563 0
-1334 -455 -564 0
-1334 -456 616 0
-1334 -456 -460 -467 0
-1334 -456 -496 0
-1334 -456 -540 0
-1334 -456 -544 0
-1334 -456 -556 0
-1334 -456 -560 0
-1334 -456 -564 0
-1335 594 0
-1335 610 0
-1335 -448 0
-1335 -449 0
-1335 -450 0
-1335 -452 0
-1335 -453 0
-1335 -457 0
-1335 -454 614 0
-1335 -454 -461 -465 0
-1335 -454 -498 0
-1335 -454 -499 0
-1335 -454 -500 0
-1335 -454 -542 0
-1335 -454 -543 0
-1335 -454 -544 0
-1335 -454 -546 0
-1335 -454 -547 0
-1335 -454 -548 0
-1335 -454 -558 0
-1335 -454 -559 0
-1335 -454 -560 0
-1335 -454 -562 0
-1335 -454 -563 0
-1335 -454 -564 0
-1335 -454 -566 0
-1335 -454 -567 0
-1335 -454 -568 0
-1335 -455 615 0
-1335 -455 -461 -466 0
-1335 -455 -499 0
-1335 -455 -500 0
-1335 -455 -543 0
-1335 -455 -544 0
-1335 -455 -547 0
-1335 -455 -548 0
-1335 -455 -559 0
-1335 -455 -560 0
-1335 -455 -563 0
-1335 -455 -564 0
-1335 -455 -567 0
-1335 -455 -568 0
-1335 -456 616 0
-1335 -456 -461 -467 0
-1335 -456 -500 0
-1335 -456 -544 0
-1335 -456 -548 0
-1335 -456 -560 0
-1335 -456 -564 0
-1335 -456 -568 0
-1336 594 0
-1336 611 0
-1336 -448 0
-1336 -449 0
-1336 -450 0
-1336 -451 0
-1336 -453 0
-1336 -457 0
-1336 -454 614 0
-1336 -454 -462 -465 0
-1336 -454 -502 0
-1336 -454 -503 0
-1336 -454 -504 0
-1336 -454 -546 0
-1336 -454 -547 0
-1336 -454 -548 0
-1336 -454 -550 0
-1336 -454 -551 0
-1336 -454 -552 0
-1336 -454 -562 0
-1336 -454 -563 0
-1336 -454 -564 0
-1336 -454 -566 0
-1336 -454 -567 0
-1336 -454 -568 0
-1336 -455 615 0
-1336 -455 -462 -466 0
-1336 -455 -503 0
-1336 -455 -504 0
-1336 -455 -547 0
-1336 -455 -548 0
-1336 -455 -551 0
-1336 -455 -552 0
-1336 -455 -563 0
-1336 -455 -564 0
-1336 -455 -567 0
-1336 -455 -568 0
-1336 -456 616 0
-1336 -456 -462 -467 0
-1336 -456 -504 0
-1336 -456 -548 0
-1336 -456 -552 0
-1336 -456 -564 0
-1336 -456 -568 0
-1337 594 0
-1337 612 0
-1337 -448 0
-1337 -449 0
-1337 -450 0
-1337 -451 0
-1337 -452 0
-1337 -457 0
-1337 -454 614 0
-1337 -454 -463 -465 0
-1337 -454 -506 0
-1337 -454 -507 0
-1337 -454 -508 0
-1337 -454 -550 0
-1337 -454 -551 0
-1337 -454 -552 0
-1337 -454 -566 0
-1337 -454 -567 0
-1337 -454 -568 0
-1337 -455 615 0
-1337 -455 -463 -466 0
-1337 -455 -507 0
-1337 -455 -508 0
-1337 -455 -551 0
-1337 -455 -552 0
-1337 -455 -567 0
-1337 -455 -568 0
-1337 -456 616 0
-1337 -456 -463 -467 0
-1337 -456 -508 0
-1337 -456 -552 0
-1337 -456 -568 0
-1338 594 0
-1338 607 0
-1338 -469 0
-1338 -470 0
-1338 -471 0
-1338 -472 0
-1338 -476 0
-1338 -473 614 0
-1338 -473 -458 -465 0
-1338 -473 -486 0
-1338 -473 -487 0
-1338 -473 -488 0
-1338 -473 -534 0
-1338 -473 -535 0
-1338 -473 -536 0
-1338 -473 -554 0
-1338 -473 -555 0
-1338 -473 -556 0
-1338 -474 615 0
-1338 -474 -458 -466 0
-1338 -474 -487 0
-1338 -474 -488 0
-1338 -474 -535 0
-1338 -474 -536 0
-1338 -474 -555 0
-1338 -474 -556 0
-1338 -475 616 0
-1338 -475 -458 -467 0
-1338 -475 -488 0
-1338 -475 -536 0
-1338 -475 -556 0
-1339 594 0
-1339 608 0
-1339 -470 0
-1339 -471 0
-1339 -472 0
-1339 -476 0
-1339 -473 614 0
-1339 -473 -459 -465 0
-1339 -473 -490 0
-1339 -473 -491 0
-1339 -473 -492 0
-1339 -473 -534 0
-1339 -473 -535 0
-1339 -473 -536 0
-1339 -473 -538 0
-1339 -473 -539 0
-1339 -473 -540 0
-1339 -473 -554 0
-1339 -473 -555 0
-1339 -473 -556 0
-1339 -473 -558 0
-1339 -473 -559 0
-1339 -473 -560 0
-1339 -474 615 0
-1339 -474 -459 -466 0
-1339 -474 -491 0
-1339 -474 -492 0
-1339 -474 -535 0
-1339 -474 -536 0
-1339 -474 -539 0
-1339 -474 -540 0
-1339 -474 -555 0
-1339 -474 -556 0
-1339 -474 -559 0
-1339 -474 -560 0
-1339 -475 616 0
-1339 -475 -459 -467 0
-1339 -475 -492 0
-1339 -475 -536 0
-1339 -475 -540 0
-1339 -475 -556 0
-1339 -475 -560 0
-1340 594 0
-1340 609 0
-1340 -468 0
-1340 -471 0
-1340 -472 0
-1340 -476 0
-1340 -473 614 0
-1340 -473 -460 -465 0
-1340 -473 -494 0
-1340 -473 -495 0
-1340 -473 -496 0
-1340 -473 -538 0
-1340 -473 -539 0
-1340 -473 -540 0
-1340 -473 -542 0
-1340 -473 -543 0
-1340 -473 -544 0
-1340 -473 -554 0
-1340 -473 -555 0
-1340 -473 -556 0
-1340 -473 -558 0
-1340 -473 -559 0
-1340 -473 -560 0
-1340 -473 -562 0
-1340 -473 -563 0
-1340 -473 -564 0
-1340 -474 615 0
-1340 -474 -460 -466 0
-1340 -474 -495 0
-1340 -474 -496 0
-1340 -474 -539 0
-1340 -474 -540 0
-1340 -474 -543 0
-1340 -474 -544 0
-1340 -474 -555 0
-1340 -474 -556 0
-1340 -474 -559 0
-1340 -474 -560 0
-1340 -474 -563 0
-1340 -474 -564 0
-1340 -475 616 0
-1340 -475 -460 -467 0
-1340 -475 -496 0
-1340 -475 -540 0
-1340 -475 -544 0
-1340 -475 -556 0
-1340 -475 -560 0
-1340 -475 -564 0
-1341 594 0
-1341 610 0
-1341 -468 0
-1341 -469 0
-1341 -472 0
-1341 -476 0
-1341 -473 614 0
-1341 -473 -461 -465 0
-1341 -473 -498 0
-1341 -473 -499 0
-1341 -473 -500 0
-1341 -473 -542 0
-1341 -473 -543 0
-1341 -473 -544 0
-1341 -473 -546 0
-1341 -473 -547 0
-1341 -473 -548 0
-1341 -473 -558 0
-1341 -473 -559 0
-1341 -473 -560 0
-1341 -473 -562 0
-1341 -473 -563 0
-1341 -473 -564 0
-1341 -473 -566 0
-1341 -473 -567 0
-1341 -473 -568 0
-1341 -474 615 0
-1341 -474 -461 -466 0
-1341 -474 -499 0
-1341 -474 -500 0
-1341 -474 -543 0
-1341 -474 -544 0
-1341 -474 -547 0
-1341 -474 -548 0
-1341 -474 -559 0
-1341 -474 -560 0
-1341 -474 -563 0
-1341 -474 -564 0
-1341 -474 -567 0
-1341 -474 -568 0
-1341 -475 616 0
-1341 -475 -461 -467 0
-1341 -475 -500 0
-1341 -475 -544 0
-1341 -475 -548 0
-1341 -475 -560 0
-1341 -475 -564 0
-1341 -475 -568 0
-1342 594 0
-1342 611 0
-1342 -468 0
-1342 -469 0
-1342 -470 0
-1342 -476 0
-1342 -473 614 0
-1342 -473 -462 -465 0
-1342 -473 -502 0
-1342 -473 -503 0
-1342 -473 -504 0
-1342 -473 -546 0
-1342 -473 -547 0
-1342 -473 -548 0
-1342 -473 -550 0
-1342 -473 -551 0
-1342 -473 -552 0
-1342 -473 -562 0
-1342 -473 -563 0
-1342 -473 -564 0
-1342 -473 -566 0
-1342 -473 -567 0
-1342 -473 -568 0
-1342 -474 615 0
-1342 -474 -462 -466 0
-1342 -474 -503 0
-1342 -474 -504 0
-1342 -474 -547 0
-1342 -474 -548 0
-1342 -474 -551 0
-1342 -474 -552 0
-1342 -474 -563 0
-1342 -474 -564 0
-1342 -474 -567 0
-1342 -474 -568 0
-1342 -475 616 0
-1342 -475 -462 -467 0
-1342 -475 -504 0
-1342 -475 -548 0
-1342 -475 -552 0
-1342 -475 -564 0
-1342 -475 -568 0
-1343 594 0
-1343 612 0
-1343 -468 0
-1343 -469 0
-1343 -470 0
-1343 -471 0
-1343 -476 0
-1343 -473 614 0
-1343 -473 -463 -465 0
-1343 -473 -506 0
-1343 -473 -507 0
-1343 -473 -508 0
-1343 -473 -550 0
-1343 -473 -551 0
-1343 -473 -552 0
-1343 -473 -566 0
-1343 -473 -567 0
-1343 -473 -568 0
-1343 -474 615 0
-1343 -474 -463 -466 0
-1343 -474 -507 0
-1343 -474 -508 0
-1343 -474 -551 0
-1343 -474 -552 0
-1343 -474 -567 0
-1343 -474 -568 0
-1343 -475 616 0
-1343 -475 -463 -467 0
-1343 -475 -508 0
-1343 -475 -552 0
-1343 -475 -568 0
-1344 594 0
-1344 607 0
-1344 -478 0
-1344 -479 0
-1344 -480 0
-1344 -484 0
-1344 -481 614 0
-1344 -481 -458 -465 0
-1344 -481 -486 0
-1344 -481 -487 0
-1344 -481 -488 0
-1344 -481 -534 0
-1344 -481 -535 0
-1344 -481 -536 0
-1344 -481 -554 0
-1344 -481 -555 0
-1344 -481 -556 0
-1344 -482 615 0
-1344 -482 -458 -466 0
-1344 -482 -487 0
-1344 -482 -488 0
-1344 -482 -535 0
-1344 -482 -536 0
-1344 -482 -555 0
-1344 -482 -556 0
-1344 -483 616 0
-1344 -483 -458 -467 0
-1344 -483 -488 0
-1344 -483 -536 0
-1344 -483 -556 0
-1345 594 0
-1345 608 0
-1345 -479 0
-1345 -480 0
-1345 -484 0
-1345 -481 614 0
-1345 -481 -459 -465 0
-1345 -481 -490 0
-1345 -481 -491 0
-1345 -481 -492 0
-1345 -481 -534 0
-1345 -481 -535 0
-1345 -481 -536 0
-1345 -481 -538 0
-1345 -481 -539 0
-1345 -481 -540 0
-1345 -481 -554 0
-1345 -481 -555 0
-1345 -481 -556 0
-1345 -481 -558 0
-1345 -481 -559 0
-1345 -481 -560 0
-1345 -482 615 0
-1345 -482 -459 -466 0
-1345 -482 -491 0
-1345 -482 -492 0
-1345 -482 -535 0
-1345 -482 -536 0
-1345 -482 -539 0
-1345 -482 -540 0
-1345 -482 -555 0
-1345 -482 -556 0
-1345 -482 -559 0
-1345 -482 -560 0
-1345 -483 616 0
-1345 -483 -459 -467 0
-1345 -483 -492 0
-1345 -483 -536 0
-1345 -483 -540 0
-1345 -483 -556 0
-1345 -483 -560 0
-1346 594 0
-1346 609 0
-1346 -480 0
-1346 -484 0
-1346 -481 614 0
-1346 -481 -460 -465 0
-1346 -481 -494 0
-1346 -481 -495 0
-1346 -481 -496 0
-1346 -481 -538 0
-1346 -481 -539 0
-1346 -481 -540 0
-1346 -481 -542 0
-1346 -481 -543 0
-1346 -481 -544 0
-1346 -481 -554 0
-1346 -481 -555 0
-1346 -481 -556 0
-1346 -481 -558 0
-1346 -481 -559 0
-1346 -481 -560 0
-1346 -481 -562 0
-1346 -481 -563 0
-1346 -481 -564 0
-1346 -482 615 0
-1346 -482 -460 -466 0
-1346 -482 -495 0
-1346 -482 -496 0
-1346 -482 -539 0
-1346 -482 -540 0
-1346 -482 -543 0
-1346 -482 -544 0
-1346 -482 -555 0
-1346 -482 -556 0
-1346 -482 -559 0
-1346 -482 -560 0
-1346 -482 -563 0
-1346 -482 -564 0
-1346 -483 616 0
-1346 -483 -460 -467 0
-1346 -483 -496 0
-1346 -483 -540 0
-1346 -483 -544 0
-1346 -483 -556 0
-1346 -483 -560 0
-1346 -483 -564 0
-1347 594 0
-1347 610 0
-1347 -477 0
-1347 -484 0
-1347 -481 614 0
-1347 -481 -461 -465 0
-1347 -481 -498 0
-1347 -481 -499 0
-1347 -481 -500 0
-1347 -481 -542 0
-1347 -481 -543 0
-1347 -481 -544 0
-1347 -481 -546 0
-1347 -481 -547 0
-1347 -481 -548 0
-1347 -481 -558 0
-1347 -481 -559 0
-1347 -481 -560 0
-1347 -481 -562 0
-1347 -481 -563 0
-1347 -481 -564 0
-1347 -481 -566 0
-1347 -481 -567 0
-1347 -481 -568 0
-1347 -482 615 0
-1347 -482 -461 -466 0
-1347 -482 -499 0
-1347 -482 -500 0
-1347 -482 -543 0
-1347 -482 -544 0
-1347 -482 -547 0
-1347 -482 -548 0
-1347 -482 -559 0
-1347 -482 -560 0
-1347 -482 -563 0
-1347 -482 -564 0
-1347 -482 -567 0
-1347 -482 -568 0
-1347 -483 616 0
-1347 -483 -461 -467 0
-1347 -483 -500 0
-1347 -483 -544 0
-1347 -483 -548 0
-1347 -483 -560 0
-1347 -483 -564 0
-1347 -483 -568 0
-1348 594 0
-1348 611 0
-1348 -477 0
-1348 -478 0
-1348 -484 0
-1348 -481 614 0
-1348 -481 -462 -465 0
-1348 -481 -502 0
-1348 -481 -503 0
-1348 -481 -504 0
-1348 -481 -546 0
-1348 -481 -547 0
-1348 -481 -548 0
-1348 -481 -550 0
-1348 -481 -551 0
-1348 -481 -552 0
-1348 -481 -562 0
-1348 -481 -563 0
-1348 -481 -564 0
-1348 -481 -566 0
-1348 -481 -567 0
-1348 -481 -568 0
-1348 -482 615 0
-1348 -482 -462 -466 0
-1348 -482 -503 0
-1348 -482 -504 0
-1348 -482 -547 0
-1348 -482 -548 0
-1348 -482 -551 0
-1348 -482 -552 0
-1348 -482 -563 0
-1348 -482 -564 0
-1348 -482 -567 0
-1348 -482 -568 0
-1348 -483 616 0
-1348 -483 -462 -467 0
-1348 -483 -504 0
-1348 -483 -548 0
-1348 -483 -552 0
-1348 -483 -564 0
-1348 -483 -568 0
-1349 594 0
-1349 612 0
-1349 -477 0
-1349 -478 0
-1349 -479 0
-1349 -484 0
-1349 -481 614 0
-1349 -481 -463 -465 0
-1349 -481 -506 0
-1349 -481 -507 0
-1349 -481 -508 0
-1349 -481 -550 0
-1349 -481 -551 0
-1349 -481 -552 0
-1349 -481 -566 0
-1349 -481 -567 0
-1349 -481 -568 0
-1349 -482 615 0
-1349 -482 -463 -466 0
-1349 -482 -507 0
-1349 -482 -508 0
-1349 -482 -551 0
-1349 -482 -552 0
-1349 -482 -567 0
-1349 -482 -568 0
-1349 -483 616 0
-1349 -483 -463 -467 0
-1349 -483 -508 0
-1349 -483 -552 0
-1349 -483 -568 0
-1350 594 0
-1350 607 0
-1350 613 0
-1350 -458 -464 0
-1350 -485 0
-1350 -486 0
-1350 -487 0
-1350 -488 0
-1350 -533 0
-1350 -534 0
-1350 -535 0
-1350 -536 0
-1350 -553 0
-1350 -554 0
-1350 -555 0
-1350 -556 0
-1351 594 0
-1351 608 0
-1351 613 0
-1351 -459 -464 0
-1351 -489 0
-1351 -490 0
-1351 -491 0
-1351 -492 0
-1351 -533 0
-1351 -534 0
-1351 -535 0
-1351 -536 0
-1351 -537 0
-1351 -538 0
-1351 -539 0
-1351 -540 0
-1351 -553 0
-1351 -554 0
-1351 -555 0
-1351 -556 0
-1351 -557 0
-1351 -558 0
-1351 -559 0
-1351 -560 0
-1352 594 0
-1352 609 0
-1352 613 0
-1352 -460 -464 0
-1352 -493 0
-1352 -494 0
-1352 -495 0
-1352 -496 0
-1352 -537 0
-1352 -538 0
-1352 -539 0
-1352 -540 0
-1352 -541 0
-1352 -542 0
-1352 -543 0
-1352 -544 0
-1352 -553 0
-1352 -554 0
-1352 -555 0
-1352 -556 0
-1352 -557 0
-1352 -558 0
-1352 -559 0
-1352 -560 0
-1352 -561 0
-1352 -562 0
-1352 -563 0
-1352 -564 0
-1353 594 0
-1353 610 0
-1353 613 0
-1353 -461 -464 0
-1353 -497 0
-1353 -498 0
-1353 -499 0
-1353 -500 0
-1353 -541 0
-1353 -542 0
-1353 -543 0
-1353 -544 0
-1353 -545 0
-1353 -546 0
-1353 -547 0
-1353 -548 0
-1353 -557 0
-1353 -558 0
-1353 -559 0
-1353 -560 0
-1353 -561 0
-1353 -562 0
-1353 -563 0
-1353 -564 0
-1353 -565 0
-1353 -566 0
-1353 -567 0
-1353 -568 0
-1354 594 0
-1354 611 0
-1354 613 0
-1354 -462 -464 0
-1354 -501 0
-1354 -502 0
-1354 -503 0
-1354 -504 0
-1354 -545 0
-1354 -546 0
-1354 -547 0
-1354 -548 0
-1354 -549 0
-1354 -550 0
-1354 -551 0
-1354 -552 0
-1354 -561 0
-1354 -562 0
-1354 -563 0
-1354 -564 0
-1354 -565 0
-1354 -566 0
-1354 -567 0
-1354 -568 0
-1355 594 0
-1355 612 0
-1355 613 0
-1355 -463 -464 0
-1355 -505 0
-1355 -506 0
-1355 -507 0
-1355 -508 0
-1355 -549 0
-1355 -550 0
-1355 -551 0
-1355 -552 0
-1355 -565 0
-1355 -566 0
-1355 -567 0
-1355 -568 0
-1356 595 0
-1356 617 0
-1356 -450 0
-1356 -451 0
-1356 -452 0
-1356 -453 0
-1356 -457 0
-1356 -454 623 0
-1356 -454 -468 -474 0
-1356 -454 -486 0
-1356 -454 -487 0
-1356 -454 -488 0
-1356 -454 -490 0
-1356 -454 -491 0
-1356 -454 -492 0
-1356 -454 -510 0
-1356 -454 -511 0
-1356 -454 -512 0
-1356 -454 -514 0
-1356 -454 -515 0
-1356 -454 -516 0
-1356 -454 -554 0
-1356 -454 -555 0
-1356 -454 -556 0
-1356 -454 -558 0
-1356 -454 -559 0
-1356 -454 -560 0
-1356 -455 624 0
-1356 -455 -468 -475 0
-1356 -455 -487 0
-1356 -455 -488 0
-1356 -455 -491 0
-1356 -455 -492 0
-1356 -455 -511 0
-1356 -455 -512 0
-1356 -455 -515 0
-1356 -455 -516 0
-1356 -455 -555 0
-1356 -455 -556 0
-1356 -455 -559 0
-1356 -455 -560 0
-1356 -456 625 0
-1356 -456 -468 -476 0
-1356 -456 -488 0
-1356 -456 -492 0
-1356 -456 -512 0
-1356 -456 -516 0
-1356 -456 -556 0
-1356 -456 -560 0
-1357 595 0
-1357 618 0
-1357 -448 0
-1357 -451 0
-1357 -452 0
-1357 -453 0
-1357 -457 0
-1357 -454 623 0
-1357 -454 -469 -474 0
-1357 -454 -490 0
-1357 -454 -491 0
-1357 -454 -492 0
-1357 -454 -494 0
-1357 -454 -495 0
-1357 -454 -496 0
-1357 -454 -514 0
-1357 -454 -515 0
-1357 -454 -516 0
-1357 -454 -518 0
-1357 -454 -519 0
-1357 -454 -520 0
-1357 -454 -554 0
-1357 -454 -555 0
-1357 -454 -556 0
-1357 -454 -558 0
-1357 -454 -559 0
-1357 -454 -560 0
-1357 -454 -562 0
-1357 -454 -563 0
-1357 -454 -564 0
-1357 -455 624 0
-1357 -455 -469 -475 0
-1357 -455 -491 0
-1357 -455 -492 0
-1357 -455 -495 0
-1357 -455 -496 0
-1357 -455 -515 0
-1357 -455 -516 0
-1357 -455 -519 0
-1357 -455 -520 0
-1357 -455 -555 0
-1357 -455 -556 0
-1357 -455 -559 0
-1357 -455 -560 0
-1357 -455 -563 0
-1357 -455 -564 0
-1357 -456 625 0
-1357 -456 -469 -476 0
-1357 -456 -492 0
-1357 -456 -496 0
-1357 -456 -516 0
-1357 -456 -520 0
-1357 -456 -556 0
-1357 -456 -560 0
-1357 -456 -564 0
-1358 595 0
-1358 619 0
-1358 -448 0
-1358 -449 0
-1358 -452 0
-1358 -453 0
-1358 -457 0
-1358 -454 623 0
-1358 -454 -470 -474 0
-1358 -454 -494 0
-1358 -454 -495 0
-1358 -454 -496 0
-1358 -454 -498 0
-1358 -454 -499 0
-1358 -454 -500 0
-1358 -454 -518 0
-1358 -454 -519 0
-1358 -454 -520 0
-1358 -454 -522 0
-1358 -454 -523 0
-1358 -454 -524 0
-1358 -454 -554 0
-1358 -454 -555 0
-1358 -454 -556 0
-1358 -454 -558 0
-1358 -454 -559 0
-1358 -454 -560 0
-1358 -454 -562 0
-1358 -454 -563 0
-1358 -454 -564 0
-1358 -454 -566 0
-1358 -454 -567 0
-1358 -454 -568 0
-1358 -455 624 0
-1358 -455 -470 -475 0
-1358 -455 -495 0
-1358 -455 -496 0
-1358 -455 -499 0
-1358 -455 -500 0
-1358 -455 -519 0
-1358 -455 -520 0
-1358 -455 -523 0
-1358 -455 -524 0
-1358 -455 -555 0
-1358 -455 -556 0
-1358 -455 -559 0
-1358 -455 -560 0
-1358 -455 -563 0
-1358 -455 -564 0
-1358 -455 -567 0
-1358 -455 -568 0
-1358 -456 625 0
-1358 -456 -470 -476 0
-1358 -456 -496 0
-1358 -456 -500 0
-1358 -456 -520 0
-1358 -456 -524 0
-1358 -456 -556 0
-1358 -456 -560 0
-1358 -456 -564 0
-1358 -456 -568 0
-1359 595 0
-1359 620 0
-1359 -448 0
-1359 -449 0
-1359 -450 0
-1359 -453 0
-1359 -457 0
-1359 -454 623 0
-1359 -454 -471 -474 0
-1359 -454 -498 0
-1359 -454 -499 0
-1359 -454 -500 0
-1359 -454 -502 0
-1359 -454 -503 0
-1359 -454 -504 0
-1359 -454 -522 0
-1359 -454 -523 0
-1359 -454 -524 0
-1359 -454 -526 0
-1359 -454 -527 0
-1359 -454 -528 0
-1359 -454 -558 0
-1359 -454 -559 0
-1359 -454 -560 0
-1359 -454 -562 0
-1359 -454 -563 0
-1359 -454 -564 0
-1359 -454 -566 0
-1359 -454 -567 0
-1359 -454 -568 0
-1359 -455 624 0
-1359 -455 -471 -475 0
-1359 -455 -499 0
-1359 -455 -500 0
-1359 -455 -503 0
-1359 -455 -504 0
-1359 -455 -523 0
-1359 -455 -524 0
-1359 -455 -527 0
-1359 -455 -528 0
-1359 -455 -559 0
-1359 -455 -560 0
-1359 -455 -563 0
-1359 -455 -564 0
-1359 -455 -567 0
-1359 -455 -568 0
-1359 -456 625 0
-1359 -456 -471 -476 0
-1359 -456 -500 0
-1359 -456 -504 0
-1359 -456 -524 0
-1359 -456 -528 0
-1359 -456 -560 0
-1359 -456 -564 0
-1359 -456 -568 0
-1360 595 0
-1360 621 0
-1360 -448 0
-1360 -449 0
-1360 -450 0
-1360 -451 0
-1360 -457 0
-1360 -454 623 0
-1360 -454 -472 -474 0
-1360 -454 -502 0
-1360 -454 -503 0
-1360 -454 -504 0
-1360 -454 -506 0
-1360 -454 -507 0
-1360 -454 -508 0
-1360 -454 -526 0
-1360 -454 -527 0
-1360 -454 -528 0
-1360 -454 -530 0
-1360 -454 -531 0
-1360 -454 -532 0
-1360 -454 -562 0
-1360 -454 -563 0
-1360 -454 -564 0
-1360 -454 -566 0
-1360 -454 -567 0
-1360 -454 -568 0
-1360 -455 624 0
-1360 -455 -472 -475 0
-1360 -455 -503 0
-1360 -455 -504 0
-1360 -455 -507 0
-1360 -455 -508 0
-1360 -455 -527 0
-1360 -455 -528 0
-1360 -455 -531 0
-1360 -455 -532 0
-1360 -455 -563 0
-1360 -455 -564 0
-1360 -455 -567 0
-1360 -455 -568 0
-1360 -456 625 0
-1360 -456 -472 -476 0
-1360 -456 -504 0
-1360 -456 -508 0
-1360 -456 -528 0
-1360 -456 -532 0
-1360 -456 -564 0
-1360 -456 -568 0
-1361 595 0
-1361 617 0
-1361 -460 0
-1361 -461 0
-1361 -462 0
-1361 -463 0
-1361 -467 0
-1361 -464 623 0
-1361 -464 -468 -474 0
-1361 -464 -486 0
-1361 -464 -487 0
-1361 -464 -488 0
-1361 -464 -490 0
-1361 -464 -491 0
-1361 -464 -492 0
-1361 -464 -510 0
-1361 -464 -511 0
-1361 -464 -512 0
-1361 -464 -514 0
-1361 -464 -515 0
-1361 -464 -516 0
-1361 -464 -554 0
-1361 -464 -555 0
-1361 -464 -556 0
-1361 -464 -558 0
-1361 -464 -559 0
-1361 -464 -560 0
-1361 -465 624 0
-1361 -465 -468 -475 0
-1361 -465 -487 0
-1361 -465 -488 0
-1361 -465 -491 0
-1361 -465 -492 0
-1361 -465 -511 0
-1361 -465 -512 0
-1361 -465 -515 0
-1361 -465 -516 0
-1361 -465 -555 0
-1361 -465 -556 0
-1361 -465 -559 0
-1361 -465 -560 0
-1361 -466 625 0
-1361 -466 -468 -476 0
-1361 -466 -488 0
-1361 -466 -492 0
-1361 -466 -512 0
-1361 -466 -516 0
-1361 -466 -556 0
-1361 -466 -560 0
-1362 595 0
-1362 618 0
-1362 -458 0
-1362 -461 0
-1362 -462 0
-1362 -463 0
-1362 -467 0
-1362 -464 623 0
-1362 -464 -469 -474 0
-1362 -464 -490 0
-1362 -464 -491 0
-1362 -464 -492 0
-1362 -464 -494 0
-1362 -464 -495 0
-1362 -464 -496 0
-1362 -464 -514 0
-1362 -464 -515 0
-1362 -464 -516 0
-1362 -464 -518 0
-1362 -464 -519 0
-1362 -464 -520 0
-1362 -464 -554 0
-1362 -464 -555 0
-1362 -464 -556 0
-1362 -464 -558 0
-1362 -464 -559 0
-1362 -464 -560 0
-1362 -464 -562 0
-1362 -464 -563 0
-1362 -464 -564 0
-1362 -465 624 0
-1362 -465 -469 -475 0
-1362 -465 -491 0
-1362 -465 -492 0
-1362 -465 -495 0
-1362 -465 -496 0
-1362 -465 -515 0
-1362 -465 -516 0
-1362 -465 -519 0
-1362 -465 -520 0
-1362 -465 -555 0
-1362 -465 -556 0
-1362 -465 -559 0
-1362 -465 -560 0
-1362 -465 -563 0
-1362 -465 -564 0
-1362 -466 625 0
-1362 -466 -469 -476 0
-1362 -466 -492 0
-1362 -466 -496 0
-1362 -466 -516 0
-1362 -466 -520 0
-1362 -466 -556 0
-1362 -466 -560 0
-1362 -466 -564 0
-1363 595 0
-1363 619 0
-1363 -458 0
-1363 -459 0
-1363 -462 0
-1363 -463 0
-1363 -467 0
-1363 -464 623 0
-1363 -464 -470 -474 0
-1363 -464 -494 0
-1363 -464 -495 0
-1363 -464 -496 0
-1363 -464 -498 0
-1363 -464 -499 0
-1363 -464 -500 0
-1363 -464 -518 0
-1363 -464 -519 0
-1363 -464 -520 0
-1363 -464 -522 0
-1363 -464 -523 0
-1363 -464 -524 0
-1363 -464 -554 0
-1363 -464 -555 0
-1363 -464 -556 0
-1363 -464 -558 0
-1363 -464 -559 0
-1363 -464 -560 0
-1363 -464 -562 0
-1363 -464 -563 0
-1363 -464 -564 0
-1363 -464 -566 0
-1363 -464 -567 0
-1363 -464 -568 0
-1363 -465 624 0
-1363 -465 -470 -475 0
-1363 -465 -495 0
-1363 -465 -496 0
-1363 -465 -499 0
-1363 -465 -500 0
-1363 -465 -519 0
-1363 -465 -520 0
-1363 -465 -523 0
-1363 -465 -524 0
-1363 -465 -555 0
-1363 -465 -556 0
-1363 -465 -559 0
-1363 -465 -560 0
-1363 -465 -563 0
-1363 -465 -564 0
-1363 -465 -567 0
-1363 -465 -568 0
-1363 -466 625 0
-1363 -466 -470 -476 0
-1363 -466 -496 0
-1363 -466 -500 0
-1363 -466 -520 0
-1363 -466 -524 0
-1363 -466 -556 0
-1363 -466 -560 0
-1363 -466 -564 0
-1363 -466 -568 0
-1364 595 0
-1364 620 0
-1364 -458 0
-1364 -459 0
-1364 -460 0
-1364 -463 0
-1364 -467 0
-1364 -464 623 0
-1364 -464 -471 -474 0
-1364 -464 -498 0
-1364 -464 -499 0
-1364 -464 -500 0
-1364 -464 -502 0
-1364 -464 -503 0
-1364 -464 -504 0
-1364 -464 -522 0
-1364 -464 -523 0
-1364 -464 -524 0
-1364 -464 -526 0
-1364 -464 -527 0
-1364 -464 -528 0
-1364 -464 -558 0
-1364 -464 -559 0
-1364 -464 -560 0
-1364 -464 -562 0
-1364 -464 -563 0
-1364 -464 -564 0
-1364 -464 -566 0
-1364 -464 -567 0
-1364 -464 -568 0
-1364 -465 624 0
-1364 -465 -471 -475 0
-1364 -465 -499 0
-1364 -465 -500 0
-1364 -465 -503 0
-1364 -465 -504 0
-1364 -465 -523 0
-1364 -465 -524 0
-1364 -465 -527 0
-1364 -465 -528 0
-1364 -465 -559 0
-1364 -465 -560 0
-1364 -465 -563 0
-1364 -465 -564 0
-1364 -465 -567 0
-1364 -465 -568 0
-1364 -466 625 0
-1364 -466 -471 -476 0
-1364 -466 -500 0
-1364 -466 -504 0
-1364 -466 -524 0
-1364 -466 -528 0
-1364 -466 -560 0
-1364 -466 -564 0
-1364 -466 -568 0
-1365 595 0
-1365 621 0
-1365 -458 0
-1365 -459 0
-1365 -460 0
-1365 -461 0
-1365 -467 0
-1365 -464 623 0
-1365 -464 -472 -474 0
-1365 -464 -502 0
-1365 -464 -503 0
-1365 -464 -504 0
-1365 -464 -506 0
-1365 -464 -507 0
-1365 -464 -508 0
-1365 -464 -526 0
-1365 -464 -527 0
-1365 -464 -528 0
-1365 -464 -530 0
-1365 -464 -531 0
-1365 -464 -532 0
-1365 -464 -562 0
-1365 -464 -563 0
-1365 -464 -564 0
-1365 -464 -566 0
-1365 -464 -567 0
-1365 -464 -568 0
-1365 -465 624 0
-1365 -465 -472 -475 0
-1365 -465 -503 0
-1365 -465 -504 0
-1365 -465 -507 0
-1365 -465 -508 0
-1365 -465 -527 0
-1365 -465 -528 0
-1365 -465 -531 0
-1365 -465 -532 0
-1365 -465 -563 0
-1365 -465 -564 0
-1365 -465 -567 0
-1365 -465 -568 0
-1365 -466 625 0
-1365 -466 -472 -476 0
-1365 -466 -504 0
-1365 -466 -508 0
-1365 -466 -528 0
-1365 -466 -532 0
-1365 -466 -564 0
-1365 -466 -568 0
-1366 595 0
-1366 617 0
-1366 -479 0
-1366 -480 0
-1366 -484 0
-1366 -481 623 0
-1366 -481 -468 -474 0
-1366 -481 -486 0
-1366 -481 -487 0
-1366 -481 -488 0
-1366 -481 -490 0
-1366 -481 -491 0
-1366 -481 -492 0
-1366 -481 -510 0
-1366 -481 -511 0
-1366 -481 -512 0
-1366 -481 -514 0
-1366 -481 -515 0
-1366 -481 -516 0
-1366 -481 -554 0
-1366 -481 -555 0
-1366 -481 -556 0
-1366 -481 -558 0
-1366 -481 -559 0
-1366 -481 -560 0
-1366 -482 624 0
-1366 -482 -468 -475 0
-1366 -482 -487 0
-1366 -482 -488 0
-1366 -482 -491 0
-1366 -482 -492 0
-1366 -482 -511 0
-1366 -482 -512 0
-1366 -482 -515 0
-1366 -482 -516 0
-1366 -482 -555 0
-1366 -482 -556 0
-1366 -482 -559 0
-1366 -482 -560 0
-1366 -483 625 0
-1366 -483 -468 -476 0
-1366 -483 -488 0
-1366 -483 -492 0
-1366 -483 -512 0
-1366 -483 -516 0
-1366 -483 -556 0
-1366 -483 -560 0
-1367 595 0
-1367 618 0
-1367 -480 0
-1367 -484 0
-1367 -481 623 0
-1367 -481 -469 -474 0
-1367 -481 -490 0
-1367 -481 -491 0
-1367 -481 -492 0
-1367 -481 -494 0
-1367 -481 -495 0
-1367 -481 -496 0
-1367 -481 -514 0
-1367 -481 -515 0
-1367 -481 -516 0
-1367 -481 -518 0
-1367 -481 -519 0
-1367 -481 -520 0
-1367 -481 -554 0
-1367 -481 -555 0
-1367 -481 -556 0
-1367 -481 -558 0
-1367 -481 -559 0
-1367 -481 -560 0
-1367 -481 -562 0
-1367 -481 -563 0
-1367 -481 -564 0
-1367 -482 624 0
-1367 -482 -469 -475 0
-1367 -482 -491 0
-1367 -482 -492 0
-1367 -482 -495 0
-1367 -482 -496 0
-1367 -482 -515 0
-1367 -482 -516 0
-1367 -482 -519 0
-1367 -482 -520 0
-1367 -482 -555 0
-1367 -482 -556 0
-1367 -482 -559 0
-1367 -482 -560 0
-1367 -482 -563 0
-1367 -482 -564 0
-1367 -483 625 0
-1367 -483 -469 -476 0
-1367 -483 -492 0
-1367 -483 -496 0
-1367 -483 -516 0
-1367 -483 -520 0
-1367 -483 -556 0
-1367 -483 -560 0
-1367 -483 -564 0
-1368 595 0
-1368 619 0
-1368 -484 0
-1368 -481 623 0
-1368 -481 -470 -474 0
-1368 -481 -494 0
-1368 -481 -495 0
-1368 -481 -496 0
-1368 -481 -498 0
-1368 -481 -499 0
-1368 -481 -500 0
-1368 -481 -518 0
-1368 -481 -519 0
-1368 -481 -520 0
-1368 -481 -522 0
-1368 -481 -523 0
-1368 -481 -524 0
-1368 -481 -554 0
-1368 -481 -555 0
-1368 -481 -556 0
-1368 -481 -558 0
-1368 -481 -559 0
-1368 -481 -560 0
-1368 -481 -562 0
-1368 -481 -563 0
-1368 -481 -564 0
-1368 -481 -566 0
-1368 -481 -567 0
-1368 -481 -568 0
-1368 -482 624 0
-1368 -482 -470 -475 0
-1368 -482 -495 0
-1368 -482 -496 0
-1368 -482 -499 0
-1368 -482 -500 0
-1368 -482 -519 0
-1368 -482 -520 0
-1368 -482 -523 0
-1368 -482 -524 0
-1368 -482 -555 0
-1368 -482 -556 0
-1368 -482 -559 0
-1368 -482 -560 0
-1368 -482 -563 0
-1368 -482 -564 0
-1368 -482 -567 0
-1368 -482 -568 0
-1368 -483 625 0
-1368 -483 -470 -476 0
-1368 -483 -496 0
-1368 -483 -500 0
-1368 -483 -520 0
-1368 -483 -524 0
-1368 -483 -556 0
-1368 -483 -560 0
-1368 -483 -564 0
-1368 -483 -568 0
-1369 595 0
-1369 620 0
-1369 -477 0
-1369 -484 0
-1369 -481 623 0
-1369 -481 -471 -474 0
-1369 -481 -498 0
-1369 -481 -499 0
-1369 -481 -500 0
-1369 -481 -502 0
-1369 -481 -503 0
-1369 -481 -504 0
-1369 -481 -522 0
-1369 -481 -523 0
-1369 -481 -524 0
-1369 -481 -526 0
-1369 -481 -527 0
-1369 -481 -528 0
-1369 -481 -558 0
-1369 -481 -559 0
-1369 -481 -560 0
-1369 -481 -562 0
-1369 -481 -563 0
-1369 -481 -564 0
-1369 -481 -566 0
-1369 -481 -567 0
-1369 -481 -568 0
-1369 -482 624 0
-1369 -482 -471 -475 0
-1369 -482 -499 0
-1369 -482 -500 0
-1369 -482 -503 0
-1369 -482 -504 0
-1369 -482 -523 0
-1369 -482 -524 0
-1369 -482 -527 0
-1369 -482 -528 0
-1369 -482 -559 0
-1369 -482 -560 0
-1369 -482 -563 0
-1369 -482 -564 0
-1369 -482 -567 0
-1369 -482 -568 0
-1369 -483 625 0
-1369 -483 -471 -476 0
-1369 -483 -500 0
-1369 -483 -504 0
-1369 -483 -524 0
-1369 -483 -528 0
-1369 -483 -560 0
-1369 -483 -564 0
-1369 -483 -568 0
-1370 595 0
-1370 621 0
-1370 -477 0
-1370 -478 0
-1370 -484 0
-1370 -481 623 0
-1370 -481 -472 -474 0
-1370 -481 -502 0
-1370 -481 -503 0
-1370 -481 -504 0
-1370 -481 -506 0
-1370 -481 -507 0
-1370 -481 -508 0
-1370 -481 -526 0
-1370 -481 -527 0
-1370 -481 -528 0
-1370 -481 -530 0
-1370 -481 -531 0
-1370 -481 -532 0
-1370 -481 -562 0
-1370 -481 -563 0
-1370 -481 -564 0
-1370 -481 -566 0
-1370 -481 -567 0
-1370 -481 -568 0
-1370 -482 624 0
-1370 -482 -472 -475 0
-1370 -482 -503 0
-1370 -482 -504 0
-1370 -482 -507 0
-1370 -482 -508 0
-1370 -482 -527 0
-1370 -482 -528 0
-1370 -482 -531 0
-1370 -482 -532 0
-1370 -482 -563 0
-1370 -482 -564 0
-1370 -482 -567 0
-1370 -482 -568 0
-1370 -483 625 0
-1370 -483 -472 -476 0
-1370 -483 -504 0
-1370 -483 -508 0
-1370 -483 -528 0
-1370 -483 -532 0
-1370 -483 -564 0
-1370 -483 -568 0
-1371 595 0
-1371 617 0
-1371 622 0
-1371 -468 -473 0
-1371 -485 0
-1371 -486 0
-1371 -487 0
-1371 -488 0
-1371 -489 0
-1371 -490 0
-1371 -491 0
-1371 -492 0
-1371 -509 0
-1371 -510 0
-1371 -511 0
-1371 -512 0
-1371 -513 0
-1371 -514 0
-1371 -515 0
-1371 -516 0
-1371 -553 0
-1371 -554 0
-1371 -555 0
-1371 -556 0
-1371 -557 0
-1371 -558 0
-1371 -559 0
-1371 -560 0
-1372 595 0
-1372 618 0
-1372 622 0
-1372 -469 -473 0
-1372 -489 0
-1372 -490 0
-1372 -491 0
-1372 -492 0
-1372 -493 0
-1372 -494 0
-1372 -495 0
-1372 -496 0
-1372 -513 0
-1372 -514 0
-1372 -515 0
-1372 -516 0
-1372 -517 0
-1372 -518 0
-1372 -519 0
-1372 -520 0
-1372 -553 0
-1372 -554 0
-1372 -555 0
-1372 -556 0
-1372 -557 0
-1372 -558 0
-1372 -559 0
-1372 -560 0
-1372 -561 0
-1372 -562 0
-1372 -563 0
-1372 -564 0
-1373 595 0
-1373 619 0
-1373 622 0
-1373 -470 -473 0
-1373 -493 0
-1373 -494 0
-1373 -495 0
-1373 -496 0
-1373 -497 0
-1373 -498 0
-1373 -499 0
-1373 -500 0
-1373 -517 0
-1373 -518 0
-1373 -519 0
-1373 -520 0
-1373 -521 0
-1373 -522 0
-1373 -523 0
-1373 -524 0
-1373 -553 0
-1373 -554 0
-1373 -555 0
-1373 -556 0
-1373 -557 0
-1373 -558 0
-1373 -559 0
-1373 -560 0
-1373 -561 0
-1373 -562 0
-1373 -563 0
-1373 -564 0
-1373 -565 0
-1373 -566 0
-1373 -567 0
-1373 -568 0
-1374 595 0
-1374 620 0
-1374 622 0
-1374 -471 -473 0
-1374 -497 0
-1374 -498 0
-1374 -499 0
-1374 -500 0
-1374 -501 0
-1374 -502 0
-1374 -503 0
-1374 -504 0
-1374 -521 0
-1374 -522 0
-1374 -523 0
-1374 -524 0
-1374 -525 0
-1374 -526 0
-1374 -527 0
-1374 -528 0
-1374 -557 0
-1374 -558 0
-1374 -559 0
-1374 -560 0
-1374 -561 0
-1374 -562 0
-1374 -563 0
-1374 -564 0
-1374 -565 0
-1374 -566 0
-1374 -567 0
-1374 -568 0
-1375 595 0
-1375 621 0
-1375 622 0
-1375 -472 -473 0
-1375 -501 0
-1375 -502 0
-1375 -503 0
-1375 -504 0
-1375 -505 0
-1375 -506 0
-1375 -507 0
-1375 -508 0
-1375 -525 0
-1375 -526 0
-1375 -527 0
-1375 -528 0
-1375 -529 0
-1375 -530 0
-1375 -531 0
-1375 -532 0
-1375 -561 0
-1375 -562 0
-1375 -563 0
-1375 -564 0
-1375 -565 0
-1375 -566 0
-1375 -567 0
-1375 -568 0
-1376 596 0
-1376 626 0
-1376 -451 0
-1376 -452 0
-1376 -453 0
-1376 -457 0
-1376 -454 631 0
-1376 -454 -477 -482 0
-1376 -454 -486 0
-1376 -454 -487 0
-1376 -454 -488 0
-1376 -454 -490 0
-1376 -454 -491 0
-1376 -454 -492 0
-1376 -454 -494 0
-1376 -454 -495 0
-1376 -454 -496 0
-1376 -454 -510 0
-1376 -454 -511 0
-1376 -454 -512 0
-1376 -454 -514 0
-1376 -454 -515 0
-1376 -454 -516 0
-1376 -454 -518 0
-1376 -454 -519 0
-1376 -454 -520 0
-1376 -454 -534 0
-1376 -454 -535 0
-1376 -454 -536 0
-1376 -454 -538 0
-1376 -454 -539 0
-1376 -454 -540 0
-1376 -454 -542 0
-1376 -454 -543 0
-1376 -454 -544 0
-1376 -455 632 0
-1376 -455 -477 -483 0
-1376 -455 -487 0
-1376 -455 -488 0
-1376 -455 -491 0
-1376 -455 -492 0
-1376 -455 -495 0
-1376 -455 -496 0
-1376 -455 -511 0
-1376 -455 -512 0
-1376 -455 -515 0
-1376 -455 -516 0
-1376 -455 -519 0
-1376 -455 -520 0
-1376 -455 -535 0
-1376 -455 -536 0
-1376 -455 -539 0
-1376 -455 -540 0
-1376 -455 -543 0
-1376 -455 -544 0
-1376 -456 633 0
-1376 -456 -477 -484 0
-1376 -456 -488 0
-1376 -456 -492 0
-1376 -456 -496 0
-1376 -456 -512 0
-1376 -456 -516 0
-1376 -456 -520 0
-1376 -456 -536 0
-1376 -456 -540 0
-1376 -456 -544 0
-1377 596 0
-1377 627 0
-1377 -448 0
-1377 -452 0
-1377 -453 0
-1377 -457 0
-1377 -454 631 0
-1377 -454 -478 -482 0
-1377 -454 -490 0
-1377 -454 -491 0
-1377 -454 -492 0
-1377 -454 -494 0
-1377 -454 -495 0
-1377 -454 -496 0
-1377 -454 -498 0
-1377 -454 -499 0
-1377 -454 -500 0
-1377 -454 -514 0
-1377 -454 -515 0
-1377 -454 -516 0
-1377 -454 -518 0
-1377 -454 -519 0
-1377 -454 -520 0
-1377 -454 -522 0
-1377 -454 -523 0
-1377 -454 -524 0
-1377 -454 -534 0
-1377 -454 -535 0
-1377 -454 -536 0
-1377 -454 -538 0
-1377 -454 -539 0
-1377 -454 -540 0
-1377 -454 -542 0
-1377 -454 -543 0
-1377 -454 -544 0
-1377 -454 -546 0
-1377 -454 -547 0
-1377 -454 -548 0
-1377 -455 632 0
-1377 -455 -478 -483 0
-1377 -455 -491 0
-1377 -455 -492 0
-1377 -455 -495 0
-1377 -455 -496 0
-1377 -455 -499 0
-1377 -455 -500 0
-1377 -455 -515 0
-1377 -455 -516 0
-1377 -455 -519 0
-1377 -455 -520 0
-1377 -455 -523 0
-1377 -455 -524 0
-1377 -455 -535 0
-1377 -455 -536 0
-1377 -455 -539 0
-1377 -455 -540 0
-1377 -455 -543 0
-1377 -455 -544 0
-1377 -455 -547 0
-1377 -455 -548 0
-1377 -456 633 0
-1377 -456 -478 -484 0
-1377 -456 -492 0
-1377 -456 -496 0
-1377 -456 -500 0
-1377 -456 -516 0
-1377 -456 -520 0
-1377 -456 -524 0
-1377 -456 -536 0
-1377 -456 -540 0
-1377 -456 -544 0
-1377 -456 -548 0
-1378 596 0
-1378 628 0
-1378 -448 0
-1378 -449 0
-1378 -453 0
-1378 -457 0
-1378 -454 631 0
-1378 -454 -479 -482 0
-1378 -454 -494 0
-1378 -454 -495 0
-1378 -454 -496 0
-1378 -454 -498 0
-1378 -454 -499 0
-1378 -454 -500 0
-1378 -454 -502 0
-1378 -454 -503 0
-1378 -454 -504 0
-1378 -454 -518 0
-1378 -454 -519 0
-1378 -454 -520 0
-1378 -454 -522 0
-1378 -454 -523 0
-1378 -454 -524 0
-1378 -454 -526 0
-1378 -454 -527 0
-1378 -454 -528 0
-1378 -454 -538 0
-1378 -454 -539 0
-1378 -454 -540 0
-1378 -454 -542 0
-1378 -454 -543 0
-1378 -454 -544 0
-1378 -454 -546 0
-1378 -454 -547 0
-1378 -454 -548 0
-1378 -454 -550 0
-1378 -454 -551 0
-1378 -454 -552 0
-1378 -455 632 0
-1378 -455 -479 -483 0
-1378 -455 -495 0
-1378 -455 -496 0
-1378 -455 -499 0
-1378 -455 -500 0
-1378 -455 -503 0
-1378 -455 -504 0
-1378 -455 -519 0
-1378 -455 -520 0
-1378 -455 -523 0
-1378 -455 -524 0
-1378 -455 -527 0
-1378 -455 -528 0
-1378 -455 -539 0
-1378 -455 -540 0
-1378 -455 -543 0
-1378 -455 -544 0
-1378 -455 -547 0
-1378 -455 -548 0
-1378 -455 -551 0
-1378 -455 -552 0
-1378 -456 633 0
-1378 -456 -479 -484 0
-1378 -456 -496 0
-1378 -456 -500 0
-1378 -456 -504 0
-1378 -456 -520 0
-1378 -456 -524 0
-1378 -456 -528 0
-1378 -456 -540 0
-1378 -456 -544 0
-1378 -456 -548 0
-1378 -456 -552 0
-1379 596 0
-1379 629 0
-1379 -448 0
-1379 -449 0
-1379 -450 0
-1379 -457 0
-1379 -454 631 0
-1379 -454 -480 -482 0
-1379 -454 -498 0
-1379 -454 -499 0
-1379 -454 -500 0
-1379 -454 -502 0
-1379 -454 -503 0
-1379 -454 -504 0
-1379 -454 -506 0
-1379 -454 -507 0
-1379 -454 -508 0
-1379 -454 -522 0
-1379 -454 -523 0
-1379 -454 -524 0
-1379 -454 -526 0
-1379 -454 -527 0
-1379 -454 -528 0
-1379 -454 -530 0
-1379 -454 -531 0
-1379 -454 -532 0
-1379 -454 -542 0
-1379 -454 -543 0
-1379 -454 -544 0
-1379 -454 -546 0
-1379 -454 -547 0
-1379 -454 -548 0
-1379 -454 -550 0
-1379 -454 -551 0
-1379 -454 -552 0
-1379 -455 632 0
-1379 -455 -480 -483 0
-1379 -455 -499 0
-1379 -455 -500 0
-1379 -455 -503 0
-1379 -455 -504 0
-1379 -455 -507 0
-1379 -455 -508 0
-1379 -455 -523 0
-1379 -455 -524 0
-1379 -455 -527 0
-1379 -455 -528 0
-1379 -455 -531 0
-1379 -455 -532 0
-1379 -455 -543 0
-1379 -455 -544 0
-1379 -455 -547 0
-1379 -455 -548 0
-1379 -455 -551 0
-1379 -455 -552 0
-1379 -456 633 0
-1379 -456 -480 -484 0
-1379 -456 -500 0
-1379 -456 -504 0
-1379 -456 -508 0
-1379 -456 -524 0
-1379 -456 -528 0
-1379 -456 -532 0
-1379 -456 -544 0
-1379 -456 -548 0
-1379 -456 -552 0
-1380 596 0
-1380 626 0
-1380 -461 0
-1380 -462 0
-1380 -463 0
-1380 -467 0
-1380 -464 631 0
-1380 -464 -477 -482 0
-1380 -464 -486 0
-1380 -464 -487 0
-1380 -464 -488 0
-1380 -464 -490 0
-1380 -464 -491 0
-1380 -464 -492 0
-1380 -464 -494 0
-1380 -464 -495 0
-1380 -464 -496 0
-1380 -464 -510 0
-1380 -464 -511 0
-1380 -464 -512 0
-1380 -464 -514 0
-1380 -464 -515 0
-1380 -464 -516 0
-1380 -464 -518 0
-1380 -464 -519 0
-1380 -464 -520 0
-1380 -464 -534 0
-1380 -464 -535 0
-1380 -464 -536 0
-1380 -464 -538 0
-1380 -464 -539 0
-1380 -464 -540 0
-1380 -464 -542 0
-1380 -464 -543 0
-1380 -464 -544 0
-1380 -465 632 0
-1380 -465 -477 -483 0
-1380 -465 -487 0
-1380 -465 -488 0
-1380 -465 -491 0
-1380 -465 -492 0
-1380 -465 -495 0
-1380 -465 -496 0
-1380 -465 -511 0
-1380 -465 -512 0
-1380 -465 -515 0
-1380 -465 -516 0
-1380 -465 -519 0
-1380 -465 -520 0
-1380 -465 -535 0
-1380 -465 -536 0
-1380 -465 -539 0
-1380 -465 -540 0
-1380 -465 -543 0
-1380 -465 -544 0
-1380 -466 633 0
-1380 -466 -477 -484 0
-1380 -466 -488 0
-1380 -466 -492 0
-1380 -466 -496 0
-1380 -466 -512 0
-1380 -466 -516 0
-1380 -466 -520 0
-1380 -466 -536 0
-1380 -466 -540 0
-1380 -466 -544 0
-1381 596 0
-1381 627 0
-1381 -458 0
-1381 -462 0
-1381 -463 0
-1381 -467 0
-1381 -464 631 0
-1381 -464 -478 -482 0
-1381 -464 -490 0
-1381 -464 -491 0
-1381 -464 -492 0
-1381 -464 -494 0
-1381 -464 -495 0
-1381 -464 -496 0
-1381 -464 -498 0
-1381 -464 -499 0
-1381 -464 -500 0
-1381 -464 -514 0
-1381 -464 -515 0
-1381 -464 -516 0
-1381 -464 -518 0
-1381 -464 -519 0
-1381 -464 -520 0
-1381 -464 -522 0
-1381 -464 -523 0
-1381 -464 -524 0
-1381 -464 -534 0
-1381 -464 -535 0
-1381 -464 -536 0
-1381 -464 -538 0
-1381 -464 -539 0
-1381 -464 -540 0
-1381 -464 -542 0
-1381 -464 -543 0
-1381 -464 -544 0
-1381 -464 -546 0
-1381 -464 -547 0
-1381 -464 -548 0
-1381 -465 632 0
-1381 -465 -478 -483 0
-1381 -465 -491 0
-1381 -465 -492 0
-1381 -465 -495 0
-1381 -465 -496 0
-1381 -465 -499 0
-1381 -465 -500 0
-1381 -465 -515 0
-1381 -465 -516 0
-1381 -465 -519 0
-1381 -465 -520 0
-1381 -465 -523 0
-1381 -465 -524 0
-1381 -465 -535 0
-1381 -465 -536 0
-1381 -465 -539 0
-1381 -465 -540 0
-1381 -465 -543 0
-1381 -465 -544 0
-1381 -465 -547 0
-1381 -465 -548 0
-1381 -466 633 0
-1381 -466 -478 -484 0
-1381 -466 -492 0
-1381 -466 -496 0
-1381 -466 -500 0
-1381 -466 -516 0
-1381 -466 -520 0
-1381 -466 -524 0
-1381 -466 -536 0
-1381 -466 -540 0
-1381 -466 -544 0
-1381 -466 -548 0
-1382 596 0
-1382 628 0
-1382 -458 0
-1382 -459 0
-1382 -463 0
-1382 -467 0
-1382 -464 631 0
-1382 -464 -479 -482 0
-1382 -464 -494 0
-1382 -464 -495 0
-1382 -464 -496 0
-1382 -464 -498 0
-1382 -464 -499 0
-1382 -464 -500 0
-1382 -464 -502 0
-1382 -464 -503 0
-1382 -464 -504 0
-1382 -464 -518 0
-1382 -464 -519 0
-1382 -464 -520 0
-1382 -464 -522 0
-1382 -464 -523 0
-1382 -464 -524 0
-1382 -464 -526 0
-1382 -464 -527 0
-1382 -464 -528 0
-1382 -464 -538 0
-1382 -464 -539 0
-1382 -464 -540 0
-1382 -464 -542 0
-1382 -464 -543 0
-1382 -464 -544 0
-1382 -464 -546 0
-1382 -464 -547 0
-1382 -464 -548 0
-1382 -464 -550 0
-1382 -464 -551 0
-1382 -464 -552 0
-1382 -465 632 0
-1382 -465 -479 -483 0
-1382 -465 -495 0
-1382 -465 -496 0
-1382 -465 -499 0
-1382 -465 -500 0
-1382 -465 -503 0
-1382 -465 -504 0
-1382 -465 -519 0
-1382 -465 -520 0
-1382 -465 -523 0
-1382 -465 -524 0
-1382 -465 -527 0
-1382 -465 -528 0
-1382 -465 -539 0
-1382 -465 -540 0
-1382 -465 -543 0
-1382 -465 -544 0
-1382 -465 -547 0
-1382 -465 -548 0
-1382 -465 -551 0
-1382 -465 -552 0
-1382 -466 633 0
-1382 -466 -479 -484 0
-1382 -466 -496 0
-1382 -466 -500 0
-1382 -466 -504 0
-1382 -466 -520 0
-1382 -466 -524 0
-1382 -466 -528 0
-1382 -466 -540 0
-1382 -466 -544 0
-1382 -466 -548 0
-1382 -466 -552 0
-1383 596 0
-1383 629 0
-1383 -458 0
-1383 -459 0
-1383 -460 0
-1383 -467 0
-1383 -464 631 0
-1383 -464 -480 -482 0
-1383 -464 -498 0
-1383 -464 -499 0
-1383 -464 -500 0
-1383 -464 -502 0
-1383 -464 -503 0
-1383 -464 -504 0
-1383 -464 -506 0
-1383 -464 -507 0
-1383 -464 -508 0
-1383 -464 -522 0
-1383 -464 -523 0
-1383 -464 -524 0
-1383 -464 -526 0
-1383 -464 -527 0
-1383 -464 -528 0
-1383 -464 -530 0
-1383 -464 -531 0
-1383 -464 -532 0
-1383 -464 -542 0
-1383 -464 -543 0
-1383 -464 -544 0
-1383 -464 -546 0
-1383 -464 -547 0
-1383 -464 -548 0
-1383 -464 -550 0
-1383 -464 -551 0
-1383 -464 -552 0
-1383 -465 632 0
-1383 -465 -480 -483 0
-1383 -465 -499 0
-1383 -465 -500 0
-1383 -465 -503 0
-1383 -465 -504 0
-1383 -465 -507 0
-1383 -465 -508 0
-1383 -465 -523 0
-1383 -465 -524 0
-1383 -465 -527 0
-1383 -465 -528 0
-1383 -465 -531 0
-1383 -465 -532 0
-1383 -465 -543 0
-1383 -465 -544 0
-1383 -465 -547 0
-1383 -465 -548 0
-1383 -465 -551 0
-1383 -465 -552 0
-1383 -466 633 0
-1383 -466 -480 -484 0
-1383 -466 -500 0
-1383 -466 -504 0
-1383 -466 -508 0
-1383 -466 -524 0
-1383 -466 -528 0
-1383 -466 -532 0
-1383 -466 -544 0
-1383 -466 -548 0
-1383 -466 -552 0
-1384 596 0
-1384 626 0
-1384 -471 0
-1384 -472 0
-1384 -476 0
-1384 -473 631 0
-1384 -473 -477 -482 0
-1384 -473 -486 0
-1384 -473 -487 0
-1384 -473 -488 0
-1384 -473 -490 0
-1384 -473 -491 0
-1384 -473 -492 0
-1384 -473 -494 0
-1384 -473 -495 0
-1384 -473 -496 0
-1384 -473 -510 0
-1384 -473 -511 0
-1384 -473 -512 0
-1384 -473 -514 0
-1384 -473 -515 0
-1384 -473 -516 0
-1384 -473 -518 0
-1384 -473 -519 0
-1384 -473 -520 0
-1384 -473 -534 0
-1384 -473 -535 0
-1384 -473 -536 0
-1384 -473 -538 0
-1384 -473 -539 0
-1384 -473 -540 0
-1384 -473 -542 0
-1384 -473 -543 0
-1384 -473 -544 0
-1384 -474 632 0
-1384 -474 -477 -483 0
-1384 -474 -487 0
-1384 -474 -488 0
-1384 -474 -491 0
-1384 -474 -492 0
-1384 -474 -495 0
-1384 -474 -496 0
-1384 -474 -511 0
-1384 -474 -512 0
-1384 -474 -515 0
-1384 -474 -516 0
-1384 -474 -519 0
-1384 -474 -520 0
-1384 -474 -535 0
-1384 -474 -536 0
-1384 -474 -539 0
-1384 -474 -540 0
-1384 -474 -543 0
-1384 -474 -544 0
-1384 -475 633 0
-1384 -475 -477 -484 0
-1384 -475 -488 0
-1384 -475 -492 0
-1384 -475 -496 0
-1384 -475 -512 0
-1384 -475 -516 0
-1384 -475 -520 0
-1384 -475 -536 0
-1384 -475 -540 0
-1384 -475 -544 0
-1385 596 0
-1385 627 0
-1385 -472 0
-1385 -476 0
-1385 -473 631 0
-1385 -473 -478 -482 0
-1385 -473 -490 0
-1385 -473 -491 0
-1385 -473 -492 0
-1385 -473 -494 0
-1385 -473 -495 0
-1385 -473 -496 0
-1385 -473 -498 0
-1385 -473 -499 0
-1385 -473 -500 0
-1385 -473 -514 0
-1385 -473 -515 0
-1385 -473 -516 0
-1385 -473 -518 0
-1385 -473 -519 0
-1385 -473 -520 0
-1385 -473 -522 0
-1385 -473 -523 0
-1385 -473 -524 0
-1385 -473 -534 0
-1385 -473 -535 0
-1385 -473 -536 0
-1385 -473 -538 0
-1385 -473 -539 0
-1385 -473 -540 0
-1385 -473 -542 0
-1385 -473 -543 0
-1385 -473 -544 0
-1385 -473 -546 0
-1385 -473 -547 0
-1385 -473 -548 0
-1385 -474 632 0
-1385 -474 -478 -483 0
-1385 -474 -491 0
-1385 -474 -492 0
-1385 -474 -495 0
-1385 -474 -496 0
-1385 -474 -499 0
-1385 -474 -500 0
-1385 -474 -515 0
-1385 -474 -516 0
-1385 -474 -519 0
-1385 -474 -520 0
-1385 -474 -523 0
-1385 -474 -524 0
-1385 -474 -535 0
-1385 -474 -536 0
-1385 -474 -539 0
-1385 -474 -540 0
-1385 -474 -543 0
-1385 -474 -544 0
-1385 -474 -547 0
-1385 -474 -548 0
-1385 -475 633 0
-1385 -475 -478 -484 0
-1385 -475 -492 0
-1385 -475 -496 0
-1385 -475 -500 0
-1385 -475 -516 0
-1385 -475 -520 0
-1385 -475 -524 0
-1385 -475 -536 0
-1385 -475 -540 0
-1385 -475 -544 0
-1385 -475 -548 0
-1386 596 0
-1386 628 0
-1386 -468 0
-1386 -476 0
-1386 -473 631 0
-1386 -473 -479 -482 0
-1386 -473 -494 0
-1386 -473 -495 0
-1386 -473 -496 0
-1386 -473 -498 0
-1386 -473 -499 0
-1386 -473 -500 0
-1386 -473 -502 0
-1386 -473 -503 0
-1386 -473 -504 0
-1386 -473 -518 0
-1386 -473 -519 0
-1386 -473 -520 0
-1386 -473 -522 0
-1386 -473 -523 0
-1386 -473 -524 0
-1386 -473 -526 0
-1386 -473 -527 0
-1386 -473 -528 0
-1386 -473 -538 0
-1386 -473 -539 0
-1386 -473 -540 0
-1386 -473 -542 0
-1386 -473 -543 0
-1386 -473 -544 0
-1386 -473 -546 0
-1386 -473 -547 0
-1386 -473 -548 0
-1386 -473 -550 0
-1386 -473 -551 0
-1386 -473 -552 0
-1386 -474 632 0
-1386 -474 -479 -483 0
-1386 -474 -495 0
-1386 -474 -496 0
-1386 -474 -499 0
-1386 -474 -500 0
-1386 -474 -503 0
-1386 -474 -504 0
-1386 -474 -519 0
-1386 -474 -520 0
-1386 -474 -523 0
-1386 -474 -524 0
-1386 -474 -527 0
-1386 -474 -528 0
-1386 -474 -539 0
-1386 -474 -540 0
-1386 -474 -543 0
-1386 -474 -544 0
-1386 -474 -547 0
-1386 -474 -548 0
-1386 -474 -551 0
-1386 -474 -552 0
-1386 -475 633 0
-1386 -475 -479 -484 0
-1386 -475 -496 0
-1386 -475 -500 0
-1386 -475 -504 0
-1386 -475 -520 0
-1386 -475 -524 0
-1386 -475 -528 0
-1386 -475 -540 0
-1386 -475 -544 0
-1386 -475 -548 0
-1386 -475 -552 0
-1387 596 0
-1387 629 0
-1387 -468 0
-1387 -469 0
-1387 -476 0
-1387 -473 631 0
-1387 -473 -480 -482 0
-1387 -473 -498 0
-1387 -473 -499 0
-1387 -473 -500 0
-1387 -473 -502 0
-1387 -473 -503 0
-1387 -473 -504 0
-1387 -473 -506 0
-1387 -473 -507 0
-1387 -473 -508 0
-1387 -473 -522 0
-1387 -473 -523 0
-1387 -473 -524 0
-1387 -473 -526 0
-1387 -473 -527 0
-1387 -473 -528 0
-1387 -473 -530 0
-1387 -473 -531 0
-1387 -473 -532 0
-1387 -473 -542 0
-1387 -473 -543 0
-1387 -473 -544 0
-1387 -473 -546 0
-1387 -473 -547 0
-1387 -473 -548 0
-1387 -473 -550 0
-1387 -473 -551 0
-1387 -473 -552 0
-1387 -474 632 0
-1387 -474 -480 -483 0
-1387 -474 -499 0
-1387 -474 -500 0
-1387 -474 -503 0
-1387 -474 -504 0
-1387 -474 -507 0
-1387 -474 -508 0
-1387 -474 -523 0
-1387 -474 -524 0
-1387 -474 -527 0
-1387 -474 -528 0
-1387 -474 -531 0
-1387 -474 -532 0
-1387 -474 -543 0
-1387 -474 -544 0
-1387 -474 -547 0
-1387 -474 -548 0
-1387 -474 -551 0
-1387 -474 -552 0
-1387 -475 633 0
-1387 -475 -480 -484 0
-1387 -475 -500 0
-1387 -475 -504 0
-1387 -475 -508 0
-1387 -475 -524 0
-1387 -475 -528 0
-1387 -475 -532 0
-1387 -475 -544 0
-1387 -475 -548 0
-1387 -475 -552 0
-1388 596 0
-1388 626 0
-1388 630 0
-1388 -477 -481 0
-1388 -485 0
-1388 -486 0
-1388 -487 0
-1388 -488 0
-1388 -489 0
-1388 -490 0
-1388 -491 0
-1388 -492 0
-1388 -493 0
-1388 -494 0
-1388 -495 0
-1388 -496 0
-1388 -509 0
-1388 -510 0
-1388 -511 0
-1388 -512 0
-1388 -513 0
-1388 -514 0
-1388 -515 0
-1388 -516 0
-1388 -517 0
-1388 -518 0
-1388 -519 0
-1388 -520 0
-1388 -533 0
-1388 -534 0
-1388 -535 0
-1388 -536 0
-1388 -537 0
-1388 -538 0
-1388 -539 0
-1388 -540 0
-1388 -541 0
-1388 -542 0
-1388 -543 0
-1388 -544 0
-1389 596 0
-1389 627 0
-1389 630 0
-1389 -478 -481 0
-1389 -489 0
-1389 -490 0
-1389 -491 0
-1389 -492 0
-1389 -493 0
-1389 -494 0
-1389 -495 0
-1389 -496 0
-1389 -497 0
-1389 -498 0
-1389 -499 0
-1389 -500 0
-1389 -513 0
-1389 -514 0
-1389 -515 0
-1389 -516 0
-1389 -517 0
-1389 -518 0
-1389 -519 0
-1389 -520 0
-1389 -521 0
-1389 -522 0
-1389 -523 0
-1389 -524 0
-1389 -533 0
-1389 -534 0
-1389 -535 0
-1389 -536 0
-1389 -537 0
-1389 -538 0
-1389 -539 0
-1389 -540 0
-1389 -541 0
-1389 -542 0
-1389 -543 0
-1389 -544 0
-1389 -545 0
-1389 -546 0
-1389 -547 0
-1389 -548 0
-1390 596 0
-1390 628 0
-1390 630 0
-1390 -479 -481 0
-1390 -493 0
-1390 -494 0
-1390 -495 0
-1390 -496 0
-1390 -497 0
-1390 -498 0
-1390 -499 0
-1390 -500 0
-1390 -501 0
-1390 -502 0
-1390 -503 0
-1390 -504 0
-1390 -517 0
-1390 -518 0
-1390 -519 0
-1390 -520 0
-1390 -521 0
-1390 -522 0
-1390 -523 0
-1390 -524 0
-1390 -525 0
-1390 -526 0
-1390 -527 0
-1390 -528 0
-1390 -537 0
-1390 -538 0
-1390 -539 0
-1390 -540 0
-1390 -541 0
-1390 -542 0
-1390 -543 0
-1390 -544 0
-1390 -545 0
-1390 -546 0
-1390 -547 0
-1390 -548 0
-1390 -549 0
-1390 -550 0
-1390 -551 0
-1390 -552 0
-1391 596 0
-1391 629 0
-1391 630 0
-1391 -480 -481 0
-1391 -497 0
-1391 -498 0
-1391 -499 0
-1391 -500 0
-1391 -501 0
-1391 -502 0
-1391 -503 0
-1391 -504 0
-1391 -505 0
-1391 -506 0
-1391 -507 0
-1391 -508 0
-1391 -521 0
-1391 -522 0
-1391 -523 0
-1391 -524 0
-1391 -525 0
-1391 -526 0
-1391 -527 0
-1391 -528 0
-1391 -529 0
-1391 -530 0
-1391 -531 0
-1391 -532 0
-1391 -541 0
-1391 -542 0
-1391 -543 0
-1391 -544 0
-1391 -545 0
-1391 -546 0
-1391 -547 0
-1391 -548 0
-1391 -549 0
-1391 -550 0
-1391 -551 0
-1391 -552 0
1396 1397 1398 1399 1400 1401 1402 1403 1404 1405 1406 1407 1408 1409 1410 1411 1412 1413 1414 1415 1416 1417 1418 1419 1420 1421 1422 1423 1424 1425 1426 1427 1428 1429 1430 1431 1432 1433 1434 1435 1436 1437 1438 1439 1440 1441 1442 1443 1444 1445 1446 1447 1448 1449 1450 1451 1452 1453 1454 1455 1456 1457 1458 1459 1460 1461 1462 1463 1464 1465 1466 1467 1468 1469 1470 1471 1472 1473 1474 1475 1476 1477 1478 1479 0
-1396 -1397 0
-1396 -1398 0
-1396 -1399 0
-1396 -1400 0
-1396 -1401 0
-1396 -1402 0
-1396 -1403 0
-1396 -1404 0
-1396 -1405 0
-1396 -1406 0
-1396 -1407 0
-1396 -1408 0
-1396 -1409 0
-1396 -1410 0
-1396 -1411 0
-1396 -1412 0
-1396 -1413 0
-1396 -1414 0
-1396 -1415 0
-1396 -1416 0
-1396 -1417 0
-1396 -1418 0
-1396 -1419 0
-1396 -1420 0
-1396 -1421 0
-1396 -1422 0
-1396 -1423 0
-1396 -1424 0
-1396 -1425 0
-1396 -1426 0
-1396 -1427 0
-1396 -1428 0
-1396 -1429 0
-1396 -1430 0
-1396 -1431 0
-1396 -1432 0
-1396 -1433 0
-1396 -1434 0
-1396 -1435 0
-1396 -1436 0
-1396 -1437 0
-1396 -1438 0
-1396 -1439 0
-1396 -1440 0
-1396 -1441 0
-1396 -1442 0
-1396 -1443 0
-1396 -1444 0
-1396 -1445 0
-1396 -1446 0
-1396 -1447 0
-1396 -1448 0
-1396 -1449 0
-1396 -1450 0
-1396 -1451 0
-1396 -1452 0
-1396 -1453 0
-1396 -1454 0
-1396 -1455 0
-1396 -1456 0
-1396 -1457 0
-1396 -1458 0
-1396 -1459 0
-1396 -1460 0
-1396 -1461 0
-1396 -1462 0
-1396 -1463 0
-1396 -1464 0
-1396 -1465 0
-1396 -1466 0
-1396 -1467 0
-1396 -1468 0
-1396 -1469 0
-1396 -1470 0
-1396 -1471 0
-1396 -1472 0
-1396 -1473 0
-1396 -1474 0
-1396 -1475 0
-1396 -1476 0
-1396 -1477 0
-1396 -1478 0
-1396 -1479 0
-1397 -1398 0
-1397 -1399 0
-1397 -1400 0
-1397 -1401 0
-1397 -1402 0
-1397 -1403 0
-1397 -1404 0
-1397 -1405 0
-1397 -1406 0
-1397 -1407 0
-1397 -1408 0
-1397 -1409 0
-1397 -1410 0
-1397 -1411 0
-1397 -1412 0
-1397 -1413 0
-1397 -1414 0
-1397 -1415 0
-1397 -1416 0
-1397 -1417 0
-1397 -1418 0
-1397 -1419 0
-1397 -1420 0
-1397 -1421 0
-1397 -1422 0
-1397 -1423 0
-1397 -1424 0
-1397 -1425 0
-1397 -1426 0
-1397 -1427 0
-1397 -1428 0
-1397 -1429 0
-1397 -1430 0
-1397 -1431 0
-1397 -1432 0
-1397 -1433 0
-1397 -1434 0
-1397 -1435 0
-1397 -1436 0
-1397 -1437 0
-1397 -1438 0
-1397 -1439 0
-1397 -1440 0
-1397 -1441 0
-1397 -1442 0
-1397 -1443 0
-1397 -1444 0
-1397 -1445 0
-1397 -1446 0
-1397 -1447 0
-1397 -1448 0
-1397 -1449 0
-1397 -1450 0
-1397 -1451 0
-1397 -1452 0
-1397 -1453 0
-1397 -1454 0
-1397 -1455 0
-1397 -1456 0
-1397 -1457 0
-1397 -1458 0
-1397 -1459 0
-1397 -1460 0
-1397 -1461 0
-1397 -1462 0
-1397 -1463 0
-1397 -1464 0
-1397 -1465 0
-1397 -1466 0
-1397 -1467 0
-1397 -1468 0
-1397 -1469 0
-1397 -1470 0
-1397 -1471 0
-1397 -1472 0
-1397 -1473 0
-1397 -1474 0
-1397 -1475 0
-1397 -1476 0
-1397 -1477 0
-1397 -1478 0
-1397 -1479 0
-1398 -1399 0
-1398 -1400 0
-1398 -1401 0
-1398 -1402 0
-1398 -1403 0
-1398 -1404 0
-1398 -1405 0
-1398 -1406 0
-1398 -1407 0
-1398 -1408 0
-1398 -1409 0
-1398 -1410 0
-1398 -1411 0
-1398 -1412 0
-1398 -1413 0
-1398 -1414 0
-1398 -1415 0
-1398 -1416 0
-1398 -1417 0
-1398 -1418 0
-1398 -1419 0
-1398 -1420 0
-1398 -1421 0
-1398 -1422 0
-1398 -1423 0
-1398 -1424 0
-1398 -1425 0
-1398 -1426 0
-1398 -1427 0
-1398 -1428 0
-1398 -1429 0
-1398 -1430 0
-1398 -1431 0
-1398 -1432 0
-1398 -1433 0
-1398 -1434 0
-1398 -1435 0
-1398 -1436 0
-1398 -1437 0
-1398 -1438 0
-1398 -1439 0
-1398 -1440 0
-1398 -1441 0
-1398 -1442 0
-1398 -1443 0
-1398 -1444 0
-1398 -1445 0
-1398 -1446 0
-1398 -1447 0
-1398 -1448 0
-1398 -1449 0
-1398 -1450 0
-1398 -1451 0
-1398 -1452 0
-1398 -1453 0
-1398 -1454 0
-1398 -1455 0
-1398 -1456 0
-1398 -1457 0
-1398 -1458 0
-1398 -1459 0
-1398 -1460 0
-1398 -1461 0
-1398 -1462 0
-1398 -1463 0
-1398 -1464 0
-1398 -1465 0
-1398 -1466 0
-1398 -1467 0
-1398 -1468 0
-1398 -1469 0
-1398 -1470 0
-1398 -1471 0
-1398 -1472 0
-1398 -1473 0
-1398 -1474 0
-1398 -1475 0
-1398 -1476 0
-1398 -1477 0
-1398 -1478 0
-1398 -1479 0
-1399 -1400 0
-1399 -1401 0
-1399 -1402 0
-1399 -1403 0
-1399 -1404 0
-1399 -1405 0
-1399 -1406 0
-1399 -1407 0
-1399 -1408 0
-1399 -1409 0
-1399 -1410 0
-1399 -1411 0
-1399 -1412 0
-1399 -1413 0
-1399 -1414 0
-1399 -1415 0
-1399 -1416 0
-1399 -1417 0
-1399 -1418 0
-1399 -1419 0
-1399 -1420 0
-1399 -1421 0
-1399 -1422 0
-1399 -1423 0
-1399 -1424 0
-1399 -1425 0
-1399 -1426 0
-1399 -1427 0
-1399 -1428 0
-1399 -1429 0
-1399 -1430 0
-1399 -1431 0
-1399 -1432 0
-1399 -1433 0
-1399 -1434 0
-1399 -1435 0
-1399 -1436 0
-1399 -1437 0
-1399 -1438 0
-1399 -1439 0
-1399 -1440 0
-1399 -1441 0
-1399 -1442 0
-1399 -1443 0
-1399 -1444 0
-1399 -1445 0
-1399 -1446 0
-1399 -1447 0
-1399 -1448 0
-1399 -1449 0
-1399 -1450 0
-1399 -1451 0
-1399 -1452 0
-1399 -1453 0
-1399 -1454 0
-1399 -1455 0
-1399 -1456 0
-1399 -1457 0
-1399 -1458 0
-1399 -1459 0
-1399 -1460 0
-1399 -1461 0
-1399 -1462 0
-1399 -1463 0
-1399 -1464 0
-1399 -1465 0
-1399 -1466 0
-1399 -1467 0
-1399 -1468 0
-1399 -1469 0
-1399 -1470 0
-1399 -1471 0
-1399 -1472 0
-1399 -1473 0
-1399 -1474 0
-1399 -1475 0
-1399 -1476 0
-1399 -1477 0
-1399 -1478 0
-1399 -1479 0
-1400 -1401 0
-1400 -1402 0
-1400 -1403 0
-1400 -1404 0
-1400 -1405 0
-1400 -1406 0
-1400 -1407 0
-1400 -1408 0
-1400 -1409 0
-1400 -1410 0
-1400 -1411 0
-1400 -1412 0
-1400 -1413 0
-1400 -1414 0
-1400 -1415 0
-1400 -1416 0
-1400 -1417 0
-1400 -1418 0
-1400 -1419 0
-1400 -1420 0
-1400 -1421 0
-1400 -1422 0
-1400 -1423 0
-1400 -1424 0
-1400 -1425 0
-1400 -1426 0
-1400 -1427 0
-1400 -1428 0
-1400 -1429 0
-1400 -1430 0
-1400 -1431 0
-1400 -1432 0
-1400 -1433 0
-1400 -1434 0
-1400 -1435 0
-1400 -1436 0
-1400 -1437 0
-1400 -1438 0
-1400 -1439 0
-1400 -1440 0
-1400 -1441 0
-1400 -1442 0
-1400 -1443 0
-1400 -1444 0
-1400 -1445 0
-1400 -1446 0
-1400 -1447 0
-1400 -1448 0
-1400 -1449 0
-1400 -1450 0
-1400 -1451 0
-1400 -1452 0
-1400 -1453 0
-1400 -1454 0
-1400 -1455 0
-1400 -1456 0
-1400 -1457 0
-1400 -1458 0
-1400 -1459 0
-1400 -1460 0
-1400 -1461 0
-1400 -1462 0
-1400 -1463 0
-1400 -1464 0
-1400 -1465 0
-1400 -1466 0
-1400 -1467 0
-1400 -1468 0
-1400 -1469 0
-1400 -1470 0
-1400 -1471 0
-1400 -1472 0
-1400 -1473 0
-1400 -1474 0
-1400 -1475 0
-1400 -1476 0
-1400 -1477 0
-1400 -1478 0
-1400 -1479 0
-1401 -1402 0
-1401 -1403 0
-1401 -1404 0
-1401 -1405 0
-1401 -1406 0
-1401 -1407 0
-1401 -1408 0
-1401 -1409 0
-1401 -1410 0
-1401 -1411 0
-1401 -1412 0
-1401 -1413 0
-1401 -1414 0
-1401 -1415 0
-1401 -1416 0
-1401 -1417 0
-1401 -1418 0
-1401 -1419 0
-1401 -1420 0
-1401 -1421 0
-1401 -1422 0
-1401 -1423 0
-1401 -1424 0
-1401 -1425 0
-1401 -1426 0
-1401 -1427 0
-1401 -1428 0
-1401 -1429 0
-1401 -1430 0
-1401 -1431 0
-1401 -1432 0
-1401 -1433 0
-1401 -1434 0
-1401 -1435 0
-1401 -1436 0
-1401 -1437 0
-1401 -1438 0
-1401 -1439 0
-1401 -1440 0
-1401 -1441 0
-1401 -1442 0
-1401 -1443 0
-1401 -1444 0
-1401 -1445 0
-1401 -1446 0
-1401 -1447 0
-1401 -1448 0
-1401 -1449 0
-1401 -1450 0
-1401 -1451 0
-1401 -1452 0
-1401 -1453 0
-1401 -1454 0
-1401 -1455 0
-1401 -1456 0
-1401 -1457 0
-1401 -1458 0
-1401 -1459 0
-1401 -1460 0
-1401 -1461 0
-1401 -1462 0
-1401 -1463 0
-1401 -1464 0
-1401 -1465 0
-1401 -1466 0
-1401 -1467 0
-1401 -1468 0
-1401 -1469 0
-1401 -1470 0
-1401 -1471 0
-1401 -1472 0
-1401 -1473 0
-1401 -1474 0
-1401 -1475 0
-1401 -1476 0
-1401 -1477 0
-1401 -1478 0
-1401 -1479 0
-1402 -1403 0
-1402 -1404 0
-1402 -1405 0
-1402 -1406 0
-1402 -1407 0
-1402 -1408 0
-1402 -1409 0
-1402 -1410 0
-1402 -1411 0
-1402 -1412 0
-1402 -1413 0
-1402 -1414 0
-1402 -1415 0
-1402 -1416 0
-1402 -1417 0
-1402 -1418 0
-1402 -1419 0
-1402 -1420 0
-1402 -1421 0
-1402 -1422 0
-1402 -1423 0
-1402 -1424 0
-1402 -1425 0
-1402 -1426 0
-1402 -1427 0
-1402 -1428 0
-1402 -1429 0
-1402 -1430 0
-1402 -1431 0
-1402 -1432 0
-1402 -1433 0
-1402 -1434 0
-1402 -1435 0
-1402 -1436 0
-1402 -1437 0
-1402 -1438 0
-1402 -1439 0
-1402 -1440 0
-1402 -1441 0
-1402 -1442 0
-1402 -1443 0
-1402 -1444 0
-1402 -1445 0
-1402 -1446 0
-1402 -1447 0
-1402 -1448 0
-1402 -1449 0
-1402 -1450 0
-1402 -1451 0
-1402 -1452 0
-1402 -1453 0
-1402 -1454 0
-1402 -1455 0
-1402 -1456 0
-1402 -1457 0
-1402 -1458 0
-1402 -1459 0
-1402 -1460 0
-1402 -1461 0
-1402 -1462 0
-1402 -1463 0
-1402 -1464 0
-1402 -1465 0
-1402 -1466 0
-1402 -1467 0
-1402 -1468 0
-1402 -1469 0
-1402 -1470 0
-1402 -1471 0
-1402 -1472 0
-1402 -1473 0
-1402 -1474 0
-1402 -1475 0
-1402 -1476 0
-1402 -1477 0
-1402 -1478 0
-1402 -1479 0
-1403 -1404 0
-1403 -1405 0
-1403 -1406 0
-1403 -1407 0
-1403 -1408 0
-1403 -1409 0
-1403 -1410 0
-1403 -1411 0
-1403 -1412 0
-1403 -1413 0
-1403 -1414 0
-1403 -1415 0
-1403 -1416 0
-1403 -1417 0
-1403 -1418 0
-1403 -1419 0
-1403 -1420 0
-1403 -1421 0
-1403 -1422 0
-1403 -1423 0
-1403 -1424 0
-1403 -1425 0
-1403 -1426 0
-1403 -1427 0
-1403 -1428 0
-1403 -1429 0
-1403 -1430 0
-1403 -1431 0
-1403 -1432 0
-1403 -1433 0
-1403 -1434 0
-1403 -1435 0
-1403 -1436 0
-1403 -1437 0
-1403 -1438 0
-1403 -1439 0
-1403 -1440 0
-1403 -1441 0
-1403 -1442 0
-1403 -1443 0
-1403 -1444 0
-1403 -1445 0
-1403 -1446 0
-1403 -1447 0
-1403 -1448 0
-1403 -1449 0
-1403 -1450 0
-1403 -1451 0
-1403 -1452 0
-1403 -1453 0
-1403 -1454 0
-1403 -1455 0
-1403 -1456 0
-1403 -1457 0
-1403 -1458 0
-1403 -1459 0
-1403 -1460 0
-1403 -1461 0
-1403 -1462 0
-1403 -1463 0
-1403 -1464 0
-1403 -1465 0
-1403 -1466 0
-1403 -1467 0
-1403 -1468 0
-1403 -1469 0
-1403 -1470 0
-1403 -1471 0
-1403 -1472 0
-1403 -1473 0
-1403 -1474 0
-1403 -1475 0
-1403 -1476 0
-1403 -1477 0
-1403 -1478 0
-1403 -1479 0
-1404 -1405 0
-1404 -1406 0
-1404 -1407 0
-1404 -1408 0
-1404 -1409 0
-1404 -1410 0
-1404 -1411 0
-1404 -1412 0
-1404 -1413 0
-1404 -1414 0
-1404 -1415 0
-1404 -1416 0
-1404 -1417 0
-1404 -1418 0
-1404 -1419 0
-1404 -1420 0
-1404 -1421 0
-1404 -1422 0
-1404 -1423 0
-1404 -1424 0
-1404 -1425 0
-1404 -1426 0
-1404 -1427 0
-1404 -1428 0
-1404 -1429 0
-1404 -1430 0
-1404 -1431 0
-1404 -1432 0
-1404 -1433 0
-1404 -1434 0
-1404 -1435 0
-1404 -1436 0
-1404 -1437 0
-1404 -1438 0
-1404 -1439 0
-1404 -1440 0
-1404 -1441 0
-1404 -1442 0
-1404 -1443 0
-1404 -1444 0
-1404 -1445 0
-1404 -1446 0
-1404 -1447 0
-1404 -1448 0
-1404 -1449 0
-1404 -1450 0
-1404 -1451 0
-1404 -1452 0
-1404 -1453 0
-1404 -1454 0
-1404 -1455 0
-1404 -1456 0
-1404 -1457 0
-1404 -1458 0
-1404 -1459 0
-1404 -1460 0
-1404 -1461 0
-1404 -1462 0
-1404 -1463 0
-1404 -1464 0
-1404 -1465 0
-1404 -1466 0
-1404 -1467 0
-1404 -1468 0
-1404 -1469 0
-1404 -1470 0
-1404 -1471 0
-1404 -1472 0
-1404 -1473 0
-1404 -1474 0
-1404 -1475 0
-1404 -1476 0
-1404 -1477 0
-1404 -1478 0
-1404 -1479 0
-1405 -1406 0
-1405 -1407 0
-1405 -1408 0
-1405 -1409 0
-1405 -1410 0
-1405 -1411 0
-1405 -1412 0
-1405 -1413 0
-1405 -1414 0
-1405 -1415 0
-1405 -1416 0
-1405 -1417 0
-1405 -1418 0
-1405 -1419 0
-1405 -1420 0
-1405 -1421 0
-1405 -1422 0
-1405 -1423 0
-1405 -1424 0
-1405 -1425 0
-1405 -1426 0
-1405 -1427 0
-1405 -1428 0
-1405 -1429 0
-1405 -1430 0
-1405 -1431 0
-1405 -1432 0
-1405 -1433 0
-1405 -1434 0
-1405 -1435 0
-1405 -1436 0
-1405 -1437 0
-1405 -1438 0
-1405 -1439 0
-1405 -1440 0
-1405 -1441 0
-1405 -1442 0
-1405 -1443 0
-1405 -1444 0
-1405 -1445 0
-1405 -1446 0
-1405 -1447 0
-1405 -1448 0
-1405 -1449 0
-1405 -1450 0
-1405 -1451 0
-1405 -1452 0
-1405 -1453 0
-1405 -1454 0
-1405 -1455 0
-1405 -1456 0
-1405 -1457 0
-1405 -1458 0
-1405 -1459 0
-1405 -1460 0
-1405 -1461 0
-1405 -1462 0
-1405 -1463 0
-1405 -1464 0
-1405 -1465 0
-1405 -1466 0
-1405 -1467 0
-1405 -1468 0
-1405 -1469 0
-1405 -1470 0
-1405 -1471 0
-1405 -1472 0
-1405 -1473 0
-1405 -1474 0
-1405 -1475 0
-1405 -1476 0
-1405 -1477 0
-1405 -1478 0
-1405 -1479 0
-1406 -1407 0
-1406 -1408 0
-1406 -1409 0
-1406 -1410 0
-1406 -1411 0
-1406 -1412 0
-1406 -1413 0
-1406 -1414 0
-1406 -1415 0
-1406 -1416 0
-1406 -1417 0
-1406 -1418 0
-1406 -1419 0
-1406 -1420 0
-1406 -1421 0
-1406 -1422 0
-1406 -1423 0
-1406 -1424 0
-1406 -1425 0
-1406 -1426 0
-1406 -1427 0
-1406 -1428 0
-1406 -1429 0
-1406 -1430 0
-1406 -1431 0
-1406 -1432 0
-1406 -1433 0
-1406 -1434 0
-1406 -1435 0
-1406 -1436 0
-1406 -1437 0
-1406 -1438 0
-1406 -1439 0
-1406 -1440 0
-1406 -1441 0
-1406 -1442 0
-1406 -1443 0
-1406 -1444 0
-1406 -1445 0
-1406 -1446 0
-1406 -1447 0
-1406 -1448 0
-1406 -1449 0
-1406 -1450 0
-1406 -1451 0
-1406 -1452 0
-1406 -1453 0
-1406 -1454 0
-1406 -1455 0
-1406 -1456 0
-1406 -1457 0
-1406 -1458 0
-1406 -1459 0
-1406 -1460 0
-1406 -1461 0
-1406 -1462 0
-1406 -1463 0
-1406 -1464 0
-1406 -1465 0
-1406 -1466 0
-1406 -1467 0
-1406 -1468 0
-1406 -1469 0
-1406 -1470 0
-1406 -1471 0
-1406 -1472 0
-1406 -1473 0
-1406 -1474 0
-1406 -1475 0
-1406 -1476 0
-1406 -1477 0
-1406 -1478 0
-1406 -1479 0
-1407 -1408 0
-1407 -1409 0
-1407 -1410 0
-1407 -1411 0
-1407 -1412 0
-1407 -1413 0
-1407 -1414 0
-1407 -1415 0
-1407 -1416 0
-1407 -1417 0
-1407 -1418 0
-1407 -1419 0
-1407 -1420 0
-1407 -1421 0
-1407 -1422 0
-1407 -1423 0
-1407 -1424 0
-1407 -1425 0
-1407 -1426 0
-1407 -1427 0
-1407 -1428 0
-1407 -1429 0
-1407 -1430 0
-1407 -1431 0
-1407 -1432 0
-1407 -1433 0
-1407 -1434 0
-1407 -1435 0
-1407 -1436 0
-1407 -1437 0
-1407 -1438 0
-1407 -1439 0
-1407 -1440 0
-1407 -1441 0
-1407 -1442 0
-1407 -1443 0
-1407 -1444 0
-1407 -1445 0
-1407 -1446 0
-1407 -1447 0
-1407 -1448 0
-1407 -1449 0
-1407 -1450 0
-1407 -1451 0
-1407 -1452 0
-1407 -1453 0
-1407 -1454 0
-1407 -1455 0
-1407 -1456 0
-1407 -1457 0
-1407 -1458 0
-1407 -1459 0
-1407 -1460 0
-1407 -1461 0
-1407 -1462 0
-1407 -1463 0
-1407 -1464 0
-1407 -1465 0
-1407 -1466 0
-1407 -1467 0
-1407 -1468 0
-1407 -1469 0
-1407 -1470 0
-1407 -1471 0
-1407 -1472 0
-1407 -1473 0
-1407 -1474 0
-1407 -1475 0
-1407 -1476 0
-1407 -1477 0
-1407 -1478 0
-1407 -1479 0
-1408 -1409 0
-1408 -1410 0
-1408 -1411 0
-1408 -1412 0
-1408 -1413 0
-1408 -1414 0
-1408 -1415 0
-1408 -1416 0
-1408 -1417 0
-1408 -1418 0
-1408 -1419 0
-1408 -1420 0
-1408 -1421 0
-1408 -1422 0
-1408 -1423 0
-1408 -1424 0
-1408 -1425 0
-1408 -1426 0
-1408 -1427 0
-1408 -1428 0
-1408 -1429 0
-1408 -1430 0
-1408 -1431 0
-1408 -1432 0
-1408 -1433 0
-1408 -1434 0
-1408 -1435 0
-1408 -1436 0
-1408 -1437 0
-1408 -1438 0
-1408 -1439 0
-1408 -1440 0
-1408 -1441 0
-1408 -1442 0
-1408 -1443 0
-1408 -1444 0
-1408 -1445 0
-1408 -1446 0
-1408 -1447 0
-1408 -1448 0
-1408 -1449 0
-1408 -1450 0
-1408 -1451 0
-1408 -1452 0
-1408 -1453 0
-1408 -1454 0
-1408 -1455 0
-1408 -1456 0
-1408 -1457 0
-1408 -1458 0
-1408 -1459 0
-1408 -1460 0
-1408 -1461 0
-1408 -1462 0
-1408 -1463 0
-1408 -1464 0
-1408 -1465 0
-1408 -1466 0
-1408 -1467 0
-1408 -1468 0
-1408 -1469 0
-1408 -1470 0
-1408 -1471 0
-1408 -1472 0
-1408 -1473 0
-1408 -1474 0
-1408 -1475 0
-1408 -1476 0
-1408 -1477 0
-1408 -1478 0
-1408 -1479 0
-1409 -1410 0
-1409 -1411 0
-1409 -1412 0
-1409 -1413 0
-1409 -1414 0
-1409 -1415 0
-1409 -1416 0
-1409 -1417 0
-1409 -1418 0
-1409 -1419 0
-1409 -1420 0
-1409 -1421 0
-1409 -1422 0
-1409 -1423 0
-1409 -1424 0
-1409 -1425 0
-1409 -1426 0
-1409 -1427 0
-1409 -1428 0
-1409 -1429 0
-1409 -1430 0
-1409 -1431 0
-1409 -1432 0
-1409 -1433 0
-1409 -1434 0
-1409 -1435 0
-1409 -1436 0
-1409 -1437 0
-1409 -1438 0
-1409 -1439 0
-1409 -1440 0
-1409 -1441 0
-1409 -1442 0
-1409 -1443 0
-1409 -1444 0
-1409 -1445 0
-1409 -1446 0
-1409 -1447 0
-1409 -1448 0
-1409 -1449 0
-1409 -1450 0
-1409 -1451 0
-1409 -1452 0
-1409 -1453 0
-1409 -1454 0
-1409 -1455 0
-1409 -1456 0
-1409 -1457 0
-1409 -1458 0
-1409 -1459 0
-1409 -1460 0
-1409 -1461 0
-1409 -1462 0
-1409 -1463 0
-1409 -1464 0
-1409 -1465 0
-1409 -1466 0
-1409 -1467 0
-1409 -1468 0
-1409 -1469 0
-1409 -1470 0
-1409 -1471 0
-1409 -1472 0
-1409 -1473 0
-1409 -1474 0
-1409 -1475 0
-1409 -1476 0
-1409 -1477 0
-1409 -1478 0
-1409 -1479 0
-1410 -1411 0
-1410 -1412 0
-1410 -1413 0
-1410 -1414 0
-1410 -1415 0
-1410 -1416 0
-1410 -1417 0
-1410 -1418 0
-1410 -1419 0
-1410 -1420 0
-1410 -1421 0
-1410 -1422 0
-1410 -1423 0
-1410 -1424 0
-1410 -1425 0
-1410 -1426 0
-1410 -1427 0
-1410 -1428 0
-1410 -1429 0
-1410 -1430 0
-1410 -1431 0
-1410 -1432 0
-1410 -1433 0
-1410 -1434 0
-1410 -1435 0
-1410 -1436 0
-1410 -1437 0
-1410 -1438 0
-1410 -1439 0
-1410 -1440 0
-1410 -1441 0
-1410 -1442 0
-1410 -1443 0
-1410 -1444 0
-1410 -1445 0
-1410 -1446 0
-1410 -1447 0
-1410 -1448 0
-1410 -1449 0
-1410 -1450 0
-1410 -1451 0
-1410 -1452 0
-1410 -1453 0
-1410 -1454 0
-1410 -1455 0
-1410 -1456 0
-1410 -1457 0
-1410 -1458 0
-1410 -1459 0
-1410 -1460 0
-1410 -1461 0
-1410 -1462 0
-1410 -1463 0
-1410 -1464 0
-1410 -1465 0
-1410 -1466 0
-1410 -1467 0
-1410 -1468 0
-1410 -1469 0
-1410 -1470 0
-1410 -1471 0
-1410 -1472 0
-1410 -1473 0
-1410 -1474 0
-1410 -1475 0
-1410 -1476 0
-1410 -1477 0
-1410 -1478 0
-1410 -1479 0
-1411 -1412 0
-1411 -1413 0
-1411 -1414 0
-1411 -1415 0
-1411 -1416 0
-1411 -1417 0
-1411 -1418 0
-1411 -1419 0
-1411 -1420 0
-1411 -1421 0
-1411 -1422 0
-1411 -1423 0
-1411 -1424 0
-1411 -1425 0
-1411 -1426 0
-1411 -1427 0
-1411 -1428 0
-1411 -1429 0
-1411 -1430 0
-1411 -1431 0
-1411 -1432 0
-1411 -1433 0
-1411 -1434 0
-1411 -1435 0
-1411 -1436 0
-1411 -1437 0
-1411 -1438 0
-1411 -1439 0
-1411 -1440 0
-1411 -1441 0
-1411 -1442 0
-1411 -1443 0
-1411 -1444 0
-1411 -1445 0
-1411 -1446 0
-1411 -1447 0
-1411 -1448 0
-1411 -1449 0
-1411 -1450 0
-1411 -1451 0
-1411 -1452 0
-1411 -1453 0
-1411 -1454 0
-1411 -1455 0
-1411 -1456 0
-1411 -1457 0
-1411 -1458 0
-1411 -1459 0
-1411 -1460 0
-1411 -1461 0
-1411 -1462 0
-1411 -1463 0
-1411 -1464 0
-1411 -1465 0
-1411 -1466 0
-1411 -1467 0
-1411 -1468 0
-1411 -1469 0
-1411 -1470 0
-1411 -1471 0
-1411 -1472 0
-1411 -1473 0
-1411 -1474 0
-1411 -1475 0
-1411 -1476 0
-1411 -1477 0
-1411 -1478 0
-1411 -1479 0
-1412 -1413 0
-1412 -1414 0
-1412 -1415 0
-1412 -1416 0
-1412 -1417 0
-1412 -1418 0
-1412 -1419 0
-1412 -1420 0
-1412 -1421 0
-1412 -1422 0
-1412 -1423 0
-1412 -1424 0
-1412 -1425 0
-1412 -1426 0
-1412 -1427 0
-1412 -1428 0
-1412 -1429 0
-1412 -1430 0
-1412 -1431 0
-1412 -1432 0
-1412 -1433 0
-1412 -1434 0
-1412 -1435 0
-1412 -1436 0
-1412 -1437 0
-1412 -1438 0
-1412 -1439 0
-1412 -1440 0
-1412 -1441 0
-1412 -1442 0
-1412 -1443 0
-1412 -1444 0
-1412 -1445 0
-1412 -1446 0
-1412 -1447 0
-1412 -1448 0
-1412 -1449 0
-1412 -1450 0
-1412 -1451 0
-1412 -1452 0
-1412 -1453 0
-1412 -1454 0
-1412 -1455 0
-1412 -1456 0
-1412 -1457 0
-1412 -1458 0
-1412 -1459 0
-1412 -1460 0
-1412 -1461 0
-1412 -1462 0
-1412 -1463 0
-1412 -1464 0
-1412 -1465 0
-1412 -1466 0
-1412 -1467 0
-1412 -1468 0
-1412 -1469 0
-1412 -1470 0
-1412 -1471 0
-1412 -1472 0
-1412 -1473 0
-1412 -1474 0
-1412 -1475 0
-1412 -1476 0
-1412 -1477 0
-1412 -1478 0
-1412 -1479 0
-1413 -1414 0
-1413 -1415 0
-1413 -1416 0
-1413 -1417 0
-1413 -1418 0
-1413 -1419 0
-1413 -1420 0
-1413 -1421 0
-1413 -1422 0
-1413 -1423 0
-1413 -1424 0
-1413 -1425 0
-1413 -1426 0
-1413 -1427 0
-1413 -1428 0
-1413 -1429 0
-1413 -1430 0
-1413 -1431 0
-1413 -1432 0
-1413 -1433 0
-1413 -1434 0
-1413 -1435 0
-1413 -1436 0
-1413 -1437 0
-1413 -1438 0
-1413 -1439 0
-1413 -1440 0
-1413 -1441 0
-1413 -1442 0
-1413 -1443 0
-1413 -1444 0
-1413 -1445 0
-1413 -1446 0
-1413 -1447 0
-1413 -1448 0
-1413 -1449 0
-1413 -1450 0
-1413 -1451 0
-1413 -1452 0
-1413 -1453 0
-1413 -1454 0
-1413 -1455 0
-1413 -1456 0
-1413 -1457 0
-1413 -1458 0
-1413 -1459 0
-1413 -1460 0
-1413 -1461 0
-1413 -1462 0
-1413 -1463 0
-1413 -1464 0
-1413 -1465 0
-1413 -1466 0
-1413 -1467 0
-1413 -1468 0
-1413 -1469 0
-1413 -1470 0
-1413 -1471 0
-1413 -1472 0
-1413 -1473 0
-1413 -1474 0
-1413 -1475 0
-1413 -1476 0
-1413 -1477 0
-1413 -1478 0
-1413 -1479 0
-1414 -1415 0
-1414 -1416 0
-1414 -1417 0
-1414 -1418 0
-1414 -1419 0
-1414 -1420 0
-1414 -1421 0
-1414 -1422 0
-1414 -1423 0
-1414 -1424 0
-1414 -1425 0
-1414 -1426 0
-1414 -1427 0
-1414 -1428 0
-1414 -1429 0
-1414 -1430 0
-1414 -1431 0
-1414 -1432 0
-1414 -1433 0
-1414 -1434 0
-1414 -1435 0
-1414 -1436 0
-1414 -1437 0
-1414 -1438 0
-1414 -1439 0
-1414 -1440 0
-1414 -1441 0
-1414 -1442 0
-1414 -1443 0
-1414 -1444 0
-1414 -1445 0
-1414 -1446 0
-1414 -1447 0
-1414 -1448 0
-1414 -1449 0
-1414 -1450 0
-1414 -1451 0
-1414 -1452 0
-1414 -1453 0
-1414 -1454 0
-1414 -1455 0
-1414 -1456 0
-1414 -1457 0
-1414 -1458 0
-1414 -1459 0
-1414 -1460 0
-1414 -1461 0
-1414 -1462 0
-1414 -1463 0
-1414 -1464 0
-1414 -1465 0
-1414 -1466 0
-1414 -1467 0
-1414 -1468 0
-1414 -1469 0
-1414 -1470 0
-1414 -1471 0
-1414 -1472 0
-1414 -1473 0
-1414 -1474 0
-1414 -1475 0
-1414 -1476 0
-1414 -1477 0
-1414 -1478 0
-1414 -1479 0
-1415 -1416 0
-1415 -1417 0
-1415 -1418 0
-1415 -1419 0
-1415 -1420 0
-1415 -1421 0
-1415 -1422 0
-1415 -1423 0
-1415 -1424 0
-1415 -1425 0
-1415 -1426 0
-1415 -1427 0
-1415 -1428 0
-1415 -1429 0
-1415 -1430 0
-1415 -1431 0
-1415 -1432 0
-1415 -1433 0
-1415 -1434 0
-1415 -1435 0
-1415 -1436 0
-1415 -1437 0
-1415 -1438 0
-1415 -1439 0
-1415 -1440 0
-1415 -1441 0
-1415 -1442 0
-1415 -1443 0
-1415 -1444 0
-1415 -1445 0
-1415 -1446 0
-1415 -1447 0
-1415 -1448 0
-1415 -1449 0
-1415 -1450 0
-1415 -1451 0
-1415 -1452 0
-1415 -1453 0
-1415 -1454 0
-1415 -1455 0
-1415 -1456 0
-1415 -1457 0
-1415 -1458 0
-1415 -1459 0
-1415 -1460 0
-1415 -1461 0
-1415 -1462 0
-1415 -1463 0
-1415 -1464 0
-1415 -1465 0
-1415 -1466 0
-1415 -1467 0
-1415 -1468 0
-1415 -1469 0
-1415 -1470 0
-1415 -1471 0
-1415 -1472 0
-1415 -1473 0
-1415 -1474 0
-1415 -1475 0
-1415 -1476 0
-1415 -1477 0
-1415 -1478 0
-1415 -1479 0
-1416 -1417 0
-1416 -1418 0
-1416 -1419 0
-1416 -1420 0
-1416 -1421 0
-1416 -1422 0
-1416 -1423 0
-1416 -1424 0
-1416 -1425 0
-1416 -1426 0
-1416 -1427 0
-1416 -1428 0
-1416 -1429 0
-1416 -1430 0
-1416 -1431 0
-1416 -1432 0
-1416 -1433 0
-1416 -1434 0
-1416 -1435 0
-1416 -1436 0
-1416 -1437 0
-1416 -1438 0
-1416 -1439 0
-1416 -1440 0
-1416 -1441 0
-1416 -1442 0
-1416 -1443 0
-1416 -1444 0
-1416 -1445 0
-1416 -1446 0
-1416 -1447 0
-1416 -1448 0
-1416 -1449 0
-1416 -1450 0
-1416 -1451 0
-1416 -1452 0
-1416 -1453 0
-1416 -1454 0
-1416 -1455 0
-1416 -1456 0
-1416 -1457 0
-1416 -1458 0
-1416 -1459 0
-1416 -1460 0
-1416 -1461 0
-1416 -1462 0
-1416 -1463 0
-1416 -1464 0
-1416 -1465 0
-1416 -1466 0
-1416 -1467 0
-1416 -1468 0
-1416 -1469 0
-1416 -1470 0
-1416 -1471 0
-1416 -1472 0
-1416 -1473 0
-1416 -1474 0
-1416 -1475 0
-1416 -1476 0
-1416 -1477 0
-1416 -1478 0
-1416 -1479 0
-1417 -1418 0
-1417 -1419 0
-1417 -1420 0
-1417 -1421 0
-1417 -1422 0
-1417 -1423 0
-1417 -1424 0
-1417 -1425 0
-1417 -1426 0
-1417 -1427 0
-1417 -1428 0
-1417 -1429 0
-1417 -1430 0
-1417 -1431 0
-1417 -1432 0
-1417 -1433 0
-1417 -1434 0
-1417 -1435 0
-1417 -1436 0
-1417 -1437 0
-1417 -1438 0
-1417 -1439 0
-1417 -1440 0
-1417 -1441 0
-1417 -1442 0
-1417 -1443 0
-1417 -1444 0
-1417 -1445 0
-1417 -1446 0
-1417 -1447 0
-1417 -1448 0
-1417 -1449 0
-1417 -1450 0
-1417 -1451 0
-1417 -1452 0
-1417 -1453 0
-1417 -1454 0
-1417 -1455 0
-1417 -1456 0
-1417 -1457 0
-1417 -1458 0
-1417 -1459 0
-1417 -1460 0
-1417 -1461 0
-1417 -1462 0
-1417 -1463 0
-1417 -1464 0
-1417 -1465 0
-1417 -1466 0
-1417 -1467 0
-1417 -1468 0
-1417 -1469 0
-1417 -1470 0
-1417 -1471 0
-1417 -1472 0
-1417 -1473 0
-1417 -1474 0
-1417 -1475 0
-1417 -1476 0
-1417 -1477 0
-1417 -1478 0
-1417 -1479 0
-1418 -1419 0
-1418 -1420 0
-1418 -1421 0
-1418 -1422 0
-1418 -1423 0
-1418 -1424 0
-1418 -1425 0
-1418 -1426 0
-1418 -1427 0
-1418 -1428 0
-1418 -1429 0
-1418 -1430 0
-1418 -1431 0
-1418 -1432 0
-1418 -1433 0
-1418 -1434 0
-1418 -1435 0
-1418 -1436 0
-1418 -1437 0
-1418 -1438 0
-1418 -1439 0
-1418 -1440 0
-1418 -1441 0
-1418 -1442 0
-1418 -1443 0
-1418 -1444 0
-1418 -1445 0
-1418 -1446 0
-1418 -1447 0
-1418 -1448 0
-1418 -1449 0
-1418 -1450 0
-1418 -1451 0
-1418 -1452 0
-1418 -1453 0
-1418 -1454 0
-1418 -1455 0
-1418 -1456 0
-1418 -1457 0
-1418 -1458 0
-1418 -1459 0
-1418 -1460 0
-1418 -1461 0
-1418 -1462 0
-1418 -1463 0
-1418 -1464 0
-1418 -1465 0
-1418 -1466 0
-1418 -1467 0
-1418 -1468 0
-1418 -1469 0
-1418 -1470 0
-1418 -1471 0
-1418 -1472 0
-1418 -1473 0
-1418 -1474 0
-1418 -1475 0
-1418 -1476 0
-1418 -1477 0
-1418 -1478 0
-1418 -1479 0
-1419 -1420 0
-1419 -1421 0
-1419 -1422 0
-1419 -1423 0
-1419 -1424 0
-1419 -1425 0
-1419 -1426 0
-1419 -1427 0
-1419 -1428 0
-1419 -1429 0
-1419 -1430 0
-1419 -1431 0
-1419 -1432 0
-1419 -1433 0
-1419 -1434 0
-1419 -1435 0
-1419 -1436 0
-1419 -1437 0
-1419 -1438 0
-1419 -1439 0
-1419 -1440 0
-1419 -1441 0
-1419 -1442 0
-1419 -1443 0
-1419 -1444 0
-1419 -1445 0
-1419 -1446 0
-1419 -1447 0
-1419 -1448 0
-1419 -1449 0
-1419 -1450 0
-1419 -1451 0
-1419 -1452 0
-1419 -1453 0
-1419 -1454 0
-1419 -1455 0
-1419 -1456 0
-1419 -1457 0
-1419 -1458 0
-1419 -1459 0
-1419 -1460 0
-1419 -1461 0
-1419 -1462 0
-1419 -1463 0
-1419 -1464 0
-1419 -1465 0
-1419 -1466 0
-1419 -1467 0
-1419 -1468 0
-1419 -1469 0
-1419 -1470 0
-1419 -1471 0
-1419 -1472 0
-1419 -1473 0
-1419 -1474 0
-1419 -1475 0
-1419 -1476 0
-1419 -1477 0
-1419 -1478 0
-1419 -1479 0
-1420 -1421 0
-1420 -1422 0
-1420 -1423 0
-1420 -1424 0
-1420 -1425 0
-1420 -1426 0
-1420 -1427 0
-1420 -1428 0
-1420 -1429 0
-1420 -1430 0
-1420 -1431 0
-1420 -1432 0
-1420 -1433 0
-1420 -1434 0
-1420 -1435 0
-1420 -1436 0
-1420 -1437 0
-1420 -1438 0
-1420 -1439 0
-1420 -1440 0
-1420 -1441 0
-1420 -1442 0
-1420 -1443 0
-1420 -1444 0
-1420 -1445 0
-1420 -1446 0
-1420 -1447 0
-1420 -1448 0
-1420 -1449 0
-1420 -1450 0
-1420 -1451 0
-1420 -1452 0
-1420 -1453 0
-1420 -1454 0
-1420 -1455 0
-1420 -1456 0
-1420 -1457 0
-1420 -1458 0
-1420 -1459 0
-1420 -1460 0
-1420 -1461 0
-1420 -1462 0
-1420 -1463 0
-1420 -1464 0
-1420 -1465 0
-1420 -1466 0
-1420 -1467 0
-1420 -1468 0
-1420 -1469 0
-1420 -1470 0
-1420 -1471 0
-1420 -1472 0
-1420 -1473 0
-1420 -1474 0
-1420 -1475 0
-1420 -1476 0
-1420 -1477 0
-1420 -1478 0
-1420 -1479 0
-1421 -1422 0
-1421 -1423 0
-1421 -1424 0
-1421 -1425 0
-1421 -1426 0
-1421 -1427 0
-1421 -1428 0
-1421 -1429 0
-1421 -1430 0
-1421 -1431 0
-1421 -1432 0
-1421 -1433 0
-1421 -1434 0
-1421 -1435 0
-1421 -1436 0
-1421 -1437 0
-1421 -1438 0
-1421 -1439 0
-1421 -1440 0
-1421 -1441 0
-1421 -1442 0
-1421 -1443 0
-1421 -1444 0
-1421 -1445 0
-1421 -1446 0
-1421 -1447 0
-1421 -1448 0
-1421 -1449 0
-1421 -1450 0
-1421 -1451 0
-1421 -1452 0
-1421 -1453 0
-1421 -1454 0
-1421 -1455 0
-1421 -1456 0
-1421 -1457 0
-1421 -1458 0
-1421 -1459 0
-1421 -1460 0
-1421 -1461 0
-1421 -1462 0
-1421 -1463 0
-1421 -1464 0
-1421 -1465 0
-1421 -1466 0
-1421 -1467 0
-1421 -1468 0
-1421 -1469 0
-1421 -1470 0
-1421 -1471 0
-1421 -1472 0
-1421 -1473 0
-1421 -1474 0
-1421 -1475 0
-1421 -1476 0
-1421 -1477 0
-1421 -1478 0
-1421 -1479 0
-1422 -1423 0
-1422 -1424 0
-1422 -1425 0
-1422 -1426 0
-1422 -1427 0
-1422 -1428 0
-1422 -1429 0
-1422 -1430 0
-1422 -1431 0
-1422 -1432 0
-1422 -1433 0
-1422 -1434 0
-1422 -1435 0
-1422 -1436 0
-1422 -1437 0
-1422 -1438 0
-1422 -1439 0
-1422 -1440 0
-1422 -1441 0
-1422 -1442 0
-1422 -1443 0
-1422 -1444 0
-1422 -1445 0
-1422 -1446 0
-1422 -1447 0
-1422 -1448 0
-1422 -1449 0
-1422 -1450 0
-1422 -1451 0
-1422 -1452 0
-1422 -1453 0
-1422 -1454 0
-1422 -1455 0
-1422 -1456 0
-1422 -1457 0
-1422 -1458 0
-1422 -1459 0
-1422 -1460 0
-1422 -1461 0
-1422 -1462 0
-1422 -1463 0
-1422 -1464 0
-1422 -1465 0
-1422 -1466 0
-1422 -1467 0
-1422 -1468 0
-1422 -1469 0
-1422 -1470 0
-1422 -1471 0
-1422 -1472 0
-1422 -1473 0
-1422 -1474 0
-1422 -1475 0
-1422 -1476 0
-1422 -1477 0
-1422 -1478 0
-1422 -1479 0
-1423 -1424 0
-1423 -1425 0
-1423 -1426 0
-1423 -1427 0
-1423 -1428 0
-1423 -1429 0
-1423 -1430 0
-1423 -1431 0
-1423 -1432 0
-1423 -1433 0
-1423 -1434 0
-1423 -1435 0
-1423 -1436 0
-1423 -1437 0
-1423 -1438 0
-1423 -1439 0
-1423 -1440 0
-1423 -1441 0
-1423 -1442 0
-1423 -1443 0
-1423 -1444 0
-1423 -1445 0
-1423 -1446 0
-1423 -1447 0
-1423 -1448 0
-1423 -1449 0
-1423 -1450 0
-1423 -1451 0
-1423 -1452 0
-1423 -1453 0
-1423 -1454 0
-1423 -1455 0
-1423 -1456 0
-1423 -1457 0
-1423 -1458 0
-1423 -1459 0
-1423 -1460 0
-1423 -1461 0
-1423 -1462 0
-1423 -1463 0
-1423 -1464 0
-1423 -1465 0
-1423 -1466 0
-1423 -1467 0
-1423 -1468 0
-1423 -1469 0
-1423 -1470 0
-1423 -1471 0
-1423 -1472 0
-1423 -1473 0
-1423 -1474 0
-1423 -1475 0
-1423 -1476 0
-1423 -1477 0
-1423 -1478 0
-1423 -1479 0
-1424 -1425 0
-1424 -1426 0
-1424 -1427 0
-1424 -1428 0
-1424 -1429 0
-1424 -1430 0
-1424 -1431 0
-1424 -1432 0
-1424 -1433 0
-1424 -1434 0
-1424 -1435 0
-1424 -1436 0
-1424 -1437 0
-1424 -1438 0
-1424 -1439 0
-1424 -1440 0
-1424 -1441 0
-1424 -1442 0
-1424 -1443 0
-1424 -1444 0
-1424 -1445 0
-1424 -1446 0
-1424 -1447 0
-1424 -1448 0
-1424 -1449 0
-1424 -1450 0
-1424 -1451 0
-1424 -1452 0
-1424 -1453 0
-1424 -1454 0
-1424 -1455 0
-1424 -1456 0
-1424 -1457 0
-1424 -1458 0
-1424 -1459 0
-1424 -1460 0
-1424 -1461 0
-1424 -1462 0
-1424 -1463 0
-1424 -1464 0
-1424 -1465 0
-1424 -1466 0
-1424 -1467 0
-1424 -1468 0
-1424 -1469 0
-1424 -1470 0
-1424 -1471 0
-1424 -1472 0
-1424 -1473 0
-1424 -1474 0
-1424 -1475 0
-1424 -1476 0
-1424 -1477 0
-1424 -1478 0
-1424 -1479 0
-1425 -1426 0
-1425 -1427 0
-1425 -1428 0
-1425 -1429 0
-1425 -1430 0
-1425 -1431 0
-1425 -1432 0
-1425 -1433 0
-1425 -1434 0
-1425 -1435 0
-1425 -1436 0
-1425 -1437 0
-1425 -1438 0
-1425 -1439 0
-1425 -1440 0
-1425 -1441 0
-1425 -1442 0
-1425 -1443 0
-1425 -1444 0
-1425 -1445 0
-1425 -1446 0
-1425 -1447 0
-1425 -1448 0
-1425 -1449 0
-1425 -1450 0
-1425 -1451 0
-1425 -1452 0
-1425 -1453 0
-1425 -1454 0
-1425 -1455 0
-1425 -1456 0
-1425 -1457 0
-1425 -1458 0
-1425 -1459 0
-1425 -1460 0
-1425 -1461 0
-1425 -1462 0
-1425 -1463 0
-1425 -1464 0
-1425 -1465 0
-1425 -1466 0
-1425 -1467 0
-1425 -1468 0
-1425 -1469 0
-1425 -1470 0
-1425 -1471 0
-1425 -1472 0
-1425 -1473 0
-1425 -1474 0
-1425 -1475 0
-1425 -1476 0
-1425 -1477 0
-1425 -1478 0
-1425 -1479 0
-1426 -1427 0
-1426 -1428 0
-1426 -1429 0
-1426 -1430 0
-1426 -1431 0
-1426 -1432 0
-1426 -1433 0
-1426 -1434 0
-1426 -1435 0
-1426 -1436 0
-1426 -1437 0
-1426 -1438 0
-1426 -1439 0
-1426 -1440 0
-1426 -1441 0
-1426 -1442 0
-1426 -1443 0
-1426 -1444 0
-1426 -1445 0
-1426 -1446 0
-1426 -1447 0
-1426 -1448 0
-1426 -1449 0
-1426 -1450 0
-1426 -1451 0
-1426 -1452 0
-1426 -1453 0
-1426 -1454 0
-1426 -1455 0
-1426 -1456 0
-1426 -1457 0
-1426 -1458 0
-1426 -1459 0
-1426 -1460 0
-1426 -1461 0
-1426 -1462 0
-1426 -1463 0
-1426 -1464 0
-1426 -1465 0
-1426 -1466 0
-1426 -1467 0
-1426 -1468 0
-1426 -1469 0
-1426 -1470 0
-1426 -1471 0
-1426 -1472 0
-1426 -1473 0
-1426 -1474 0
-1426 -1475 0
-1426 -1476 0
-1426 -1477 0
-1426 -1478 0
-1426 -1479 0
-1427 -1428 0
-1427 -1429 0
-1427 -1430 0
-1427 -1431 0
-1427 -1432 0
-1427 -1433 0
-1427 -1434 0
-1427 -1435 0
-1427 -1436 0
-1427 -1437 0
-1427 -1438 0
-1427 -1439 0
-1427 -1440 0
-1427 -1441 0
-1427 -1442 0
-1427 -1443 0
-1427 -1444 0
-1427 -1445 0
-1427 -1446 0
-1427 -1447 0
-1427 -1448 0
-1427 -1449 0
-1427 -1450 0
-1427 -1451 0
-1427 -1452 0
-1427 -1453 0
-1427 -1454 0
-1427 -1455 0
-1427 -1456 0
-1427 -1457 0
-1427 -1458 0
-1427 -1459 0
-1427 -1460 0
-1427 -1461 0
-1427 -1462 0
-1427 -1463 0
-1427 -1464 0
-1427 -1465 0
-1427 -1466 0
-1427 -1467 0
-1427 -1468 0
-1427 -1469 0
-1427 -1470 0
-1427 -1471 0
-1427 -1472 0
-1427 -1473 0
-1427 -1474 0
-1427 -1475 0
-1427 -1476 0
-1427 -1477 0
-1427 -1478 0
-1427 -1479 0
-1428 -1429 0
-1428 -1430 0
-1428 -1431 0
-1428 -1432 0
-1428 -1433 0
-1428 -1434 0
-1428 -1435 0
-1428 -1436 0
-1428 -1437 0
-1428 -1438 0
-1428 -1439 0
-1428 -1440 0
-1428 -1441 0
-1428 -1442 0
-1428 -1443 0
-1428 -1444 0
-1428 -1445 0
-1428 -1446 0
-1428 -1447 0
-1428 -1448 0
-1428 -1449 0
-1428 -1450 0
-1428 -1451 0
-1428 -1452 0
-1428 -1453 0
-1428 -1454 0
-1428 -1455 0
-1428 -1456 0
-1428 -1457 0
-1428 -1458 0
-1428 -1459 0
-1428 -1460 0
-1428 -1461 0
-1428 -1462 0
-1428 -1463 0
-1428 -1464 0
-1428 -1465 0
-1428 -1466 0
-1428 -1467 0
-1428 -1468 0
-1428 -1469 0
-1428 -1470 0
-1428 -1471 0
-1428 -1472 0
-1428 -1473 0
-1428 -1474 0
-1428 -1475 0
-1428 -1476 0
-1428 -1477 0
-1428 -1478 0
-1428 -1479 0
-1429 -1430 0
-1429 -1431 0
-1429 -1432 0
-1429 -1433 0
-1429 -1434 0
-1429 -1435 0
-1429 -1436 0
-1429 -1437 0
-1429 -1438 0
-1429 -1439 0
-1429 -1440 0
-1429 -1441 0
-1429 -1442 0
-1429 -1443 0
-1429 -1444 0
-1429 -1445 0
-1429 -1446 0
-1429 -1447 0
-1429 -1448 0
-1429 -1449 0
-1429 -1450 0
-1429 -1451 0
-1429 -1452 0
-1429 -1453 0
-1429 -1454 0
-1429 -1455 0
-1429 -1456 0
-1429 -1457 0
-1429 -1458 0
-1429 -1459 0
-1429 -1460 0
-1429 -1461 0
-1429 -1462 0
-1429 -1463 0
-1429 -1464 0
-1429 -1465 0
-1429 -1466 0
-1429 -1467 0
-1429 -1468 0
-1429 -1469 0
-1429 -1470 0
-1429 -1471 0
-1429 -1472 0
-1429 -1473 0
-1429 -1474 0
-1429 -1475 0
-1429 -1476 0
-1429 -1477 0
-1429 -1478 0
-1429 -1479 0
-1430 -1431 0
-1430 -1432 0
-1430 -1433 0
-1430 -1434 0
-1430 -1435 0
-1430 -1436 0
-1430 -1437 0
-1430 -1438 0
-1430 -1439 0
-1430 -1440 0
-1430 -1441 0
-1430 -1442 0
-1430 -1443 0
-1430 -1444 0
-1430 -1445 0
-1430 -1446 0
-1430 -1447 0
-1430 -1448 0
-1430 -1449 0
-1430 -1450 0
-1430 -1451 0
-1430 -1452 0
-1430 -1453 0
-1430 -1454 0
-1430 -1455 0
-1430 -1456 0
-1430 -1457 0
-1430 -1458 0
-1430 -1459 0
-1430 -1460 0
-1430 -1461 0
-1430 -1462 0
-1430 -1463 0
-1430 -1464 0
-1430 -1465 0
-1430 -1466 0
-1430 -1467 0
-1430 -1468 0
-1430 -1469 0
-1430 -1470 0
-1430 -1471 0
-1430 -1472 0
-1430 -1473 0
-1430 -1474 0
-1430 -1475 0
-1430 -1476 0
-1430 -1477 0
-1430 -1478 0
-1430 -1479 0
-1431 -1432 0
-1431 -1433 0
-1431 -1434 0
-1431 -1435 0
-1431 -1436 0
-1431 -1437 0
-1431 -1438 0
-1431 -1439 0
-1431 -1440 0
-1431 -1441 0
-1431 -1442 0
-1431 -1443 0
-1431 -1444 0
-1431 -1445 0
-1431 -1446 0
-1431 -1447 0
-1431 -1448 0
-1431 -1449 0
-1431 -1450 0
-1431 -1451 0
-1431 -1452 0
-1431 -1453 0
-1431 -1454 0
-1431 -1455 0
-1431 -1456 0
-1431 -1457 0
-1431 -1458 0
-1431 -1459 0
-1431 -1460 0
-1431 -1461 0
-1431 -1462 0
-1431 -1463 0
-1431 -1464 0
-1431 -1465 0
-1431 -1466 0
-1431 -1467 0
-1431 -1468 0
-1431 -1469 0
-1431 -1470 0
-1431 -1471 0
-1431 -1472 0
-1431 -1473 0
-1431 -1474 0
-1431 -1475 0
-1431 -1476 0
-1431 -1477 0
-1431 -1478 0
-1431 -1479 0
-1432 -1433 0
-1432 -1434 0
-1432 -1435 0
-1432 -1436 0
-1432 -1437 0
-1432 -1438 0
-1432 -1439 0
-1432 -1440 0
-1432 -1441 0
-1432 -1442 0
-1432 -1443 0
-1432 -1444 0
-1432 -1445 0
-1432 -1446 0
-1432 -1447 0
-1432 -1448 0
-1432 -1449 0
-1432 -1450 0
-1432 -1451 0
-1432 -1452 0
-1432 -1453 0
-1432 -1454 0
-1432 -1455 0
-1432 -1456 0
-1432 -1457 0
-1432 -1458 0
-1432 -1459 0
-1432 -1460 0
-1432 -1461 0
-1432 -1462 0
-1432 -1463 0
-1432 -1464 0
-1432 -1465 0
-1432 -1466 0
-1432 -1467 0
-1432 -1468 0
-1432 -1469 0
-1432 -1470 0
-1432 -1471 0
-1432 -1472 0
-1432 -1473 0
-1432 -1474 0
-1432 -1475 0
-1432 -1476 0
-1432 -1477 0
-1432 -1478 0
-1432 -1479 0
-1433 -1434 0
-1433 -1435 0
-1433 -1436 0
-1433 -1437 0
-1433 -1438 0
-1433 -1439 0
-1433 -1440 0
-1433 -1441 0
-1433 -1442 0
-1433 -1443 0
-1433 -1444 0
-1433 -1445 0
-1433 -1446 0
-1433 -1447 0
-1433 -1448 0
-1433 -1449 0
-1433 -1450 0
-1433 -1451 0
-1433 -1452 0
-1433 -1453 0
-1433 -1454 0
-1433 -1455 0
-1433 -1456 0
-1433 -1457 0
-1433 -1458 0
-1433 -1459 0
-1433 -1460 0
-1433 -1461 0
-1433 -1462 0
-1433 -1463 0
-1433 -1464 0
-1433 -1465 0
-1433 -1466 0
-1433 -1467 0
-1433 -1468 0
-1433 -1469 0
-1433 -1470 0
-1433 -1471 0
-1433 -1472 0
-1433 -1473 0
-1433 -1474 0
-1433 -1475 0
-1433 -1476 0
-1433 -1477 0
-1433 -1478 0
-1433 -1479 0
-1434 -1435 0
-1434 -1436 0
-1434 -1437 0
-1434 -1438 0
-1434 -1439 0
-1434 -1440 0
-1434 -1441 0
-1434 -1442 0
-1434 -1443 0
-1434 -1444 0
-1434 -1445 0
-1434 -1446 0
-1434 -1447 0
-1434 -1448 0
-1434 -1449 0
-1434 -1450 0
-1434 -1451 0
-1434 -1452 0
-1434 -1453 0
-1434 -1454 0
-1434 -1455 0
-1434 -1456 0
-1434 -1457 0
-1434 -1458 0
-1434 -1459 0
-1434 -1460 0
-1434 -1461 0
-1434 -1462 0
-1434 -1463 0
-1434 -1464 0
-1434 -1465 0
-1434 -1466 0
-1434 -1467 0
-1434 -1468 0
-1434 -1469 0
-1434 -1470 0
-1434 -1471 0
-1434 -1472 0
-1434 -1473 0
-1434 -1474 0
-1434 -1475 0
-1434 -1476 0
-1434 -1477 0
-1434 -1478 0
-1434 -1479 0
-1435 -1436 0
-1435 -1437 0
-1435 -1438 0
-1435 -1439 0
-1435 -1440 0
-1435 -1441 0
-1435 -1442 0
-1435 -1443 0
-1435 -1444 0
-1435 -1445 0
-1435 -1446 0
-1435 -1447 0
-1435 -1448 0
-1435 -1449 0
-1435 -1450 0
-1435 -1451 0
-1435 -1452 0
-1435 -1453 0
-1435 -1454 0
-1435 -1455 0
-1435 -1456 0
-1435 -1457 0
-1435 -1458 0
-1435 -1459 0
-1435 -1460 0
-1435 -1461 0
-1435 -1462 0
-1435 -1463 0
-1435 -1464 0
-1435 -1465 0
-1435 -1466 0
-1435 -1467 0
-1435 -1468 0
-1435 -1469 0
-1435 -1470 0
-1435 -1471 0
-1435 -1472 0
-1435 -1473 0
-1435 -1474 0
-1435 -1475 0
-1435 -1476 0
-1435 -1477 0
-1435 -1478 0
-1435 -1479 0
-1436 -1437 0
-1436 -1438 0
-1436 -1439 0
-1436 -1440 0
-1436 -1441 0
-1436 -1442 0
-1436 -1443 0
-1436 -1444 0
-1436 -1445 0
-1436 -1446 0
-1436 -1447 0
-1436 -1448 0
-1436 -1449 0
-1436 -1450 0
-1436 -1451 0
-1436 -1452 0
-1436 -1453 0
-1436 -1454 0
-1436 -1455 0
-1436 -1456 0
-1436 -1457 0
-1436 -1458 0
-1436 -1459 0
-1436 -1460 0
-1436 -1461 0
-1436 -1462 0
-1436 -1463 0
-1436 -1464 0
-1436 -1465 0
-1436 -1466 0
-1436 -1467 0
-1436 -1468 0
-1436 -1469 0
-1436 -1470 0
-1436 -1471 0
-1436 -1472 0
-1436 -1473 0
-1436 -1474 0
-1436 -1475 0
-1436 -1476 0
-1436 -1477 0
-1436 -1478 0
-1436 -1479 0
-1437 -1438 0
-1437 -1439 0
-1437 -1440 0
-1437 -1441 0
-1437 -1442 0
-1437 -1443 0
-1437 -1444 0
-1437 -1445 0
-1437 -1446 0
-1437 -1447 0
-1437 -1448 0
-1437 -1449 0
-1437 -1450 0
-1437 -1451 0
-1437 -1452 0
-1437 -1453 0
-1437 -1454 0
-1437 -1455 0
-1437 -1456 0
-1437 -1457 0
-1437 -1458 0
-1437 -1459 0
-1437 -1460 0
-1437 -1461 0
-1437 -1462 0
-1437 -1463 0
-1437 -1464 0
-1437 -1465 0
-1437 -1466 0
-1437 -1467 0
-1437 -1468 0
-1437 -1469 0
-1437 -1470 0
-1437 -1471 0
-1437 -1472 0
-1437 -1473 0
-1437 -1474 0
-1437 -1475 0
-1437 -1476 0
-1437 -1477 0
-1437 -1478 0
-1437 -1479 0
-1438 -1439 0
-1438 -1440 0
-1438 -1441 0
-1438 -1442 0
-1438 -1443 0
-1438 -1444 0
-1438 -1445 0
-1438 -1446 0
-1438 -1447 0
-1438 -1448 0
-1438 -1449 0
-1438 -1450 0
-1438 -1451 0
-1438 -1452 0
-1438 -1453 0
-1438 -1454 0
-1438 -1455 0
-1438 -1456 0
-1438 -1457 0
-1438 -1458 0
-1438 -1459 0
-1438 -1460 0
-1438 -1461 0
-1438 -1462 0
-1438 -1463 0
-1438 -1464 0
-1438 -1465 0
-1438 -1466 0
-1438 -1467 0
-1438 -1468 0
-1438 -1469 0
-1438 -1470 0
-1438 -1471 0
-1438 -1472 0
-1438 -1473 0
-1438 -1474 0
-1438 -1475 0
-1438 -1476 0
-1438 -1477 0
-1438 -1478 0
-1438 -1479 0
-1439 -1440 0
-1439 -1441 0
-1439 -1442 0
-1439 -1443 0
-1439 -1444 0
-1439 -1445 0
-1439 -1446 0
-1439 -1447 0
-1439 -1448 0
-1439 -1449 0
-1439 -1450 0
-1439 -1451 0
-1439 -1452 0
-1439 -1453 0
-1439 -1454 0
-1439 -1455 0
-1439 -1456 0
-1439 -1457 0
-1439 -1458 0
-1439 -1459 0
-1439 -1460 0
-1439 -1461 0
-1439 -1462 0
-1439 -1463 0
-1439 -1464 0
-1439 -1465 0
-1439 -1466 0
-1439 -1467 0
-1439 -1468 0
-1439 -1469 0
-1439 -1470 0
-1439 -1471 0
-1439 -1472 0
-1439 -1473 0
-1439 -1474 0
-1439 -1475 0
-1439 -1476 0
-1439 -1477 0
-1439 -1478 0
-1439 -1479 0
-1440 -1441 0
-1440 -1442 0
-1440 -1443 0
-1440 -1444 0
-1440 -1445 0
-1440 -1446 0
-1440 -1447 0
-1440 -1448 0
-1440 -1449 0
-1440 -1450 0
-1440 -1451 0
-1440 -1452 0
-1440 -1453 0
-1440 -1454 0
-1440 -1455 0
-1440 -1456 0
-1440 -1457 0
-1440 -1458 0
-1440 -1459 0
-1440 -1460 0
-1440 -1461 0
-1440 -1462 0
-1440 -1463 0
-1440 -1464 0
-1440 -1465 0
-1440 -1466 0
-1440 -1467 0
-1440 -1468 0
-1440 -1469 0
-1440 -1470 0
-1440 -1471 0
-1440 -1472 0
-1440 -1473 0
-1440 -1474 0
-1440 -1475 0
-1440 -1476 0
-1440 -1477 0
-1440 -1478 0
-1440 -1479 0
-1441 -1442 0
-1441 -1443 0
-1441 -1444 0
-1441 -1445 0
-1441 -1446 0
-1441 -1447 0
-1441 -1448 0
-1441 -1449 0
-1441 -1450 0
-1441 -1451 0
-1441 -1452 0
-1441 -1453 0
-1441 -1454 0
-1441 -1455 0
-1441 -1456 0
-1441 -1457 0
-1441 -1458 0
-1441 -1459 0
-1441 -1460 0
-1441 -1461 0
-1441 -1462 0
-1441 -1463 0
-1441 -1464 0
-1441 -1465 0
-1441 -1466 0
-1441 -1467 0
-1441 -1468 0
-1441 -1469 0
-1441 -1470 0
-1441 -1471 0
-1441 -1472 0
-1441 -1473 0
-1441 -1474 0
-1441 -1475 0
-1441 -1476 0
-1441 -1477 0
-1441 -1478 0
-1441 -1479 0
-1442 -1443 0
-1442 -1444 0
-1442 -1445 0
-1442 -1446 0
-1442 -1447 0
-1442 -1448 0
-1442 -1449 0
-1442 -1450 0
-1442 -1451 0
-1442 -1452 0
-1442 -1453 0
-1442 -1454 0
-1442 -1455 0
-1442 -1456 0
-1442 -1457 0
-1442 -1458 0
-1442 -1459 0
-1442 -1460 0
-1442 -1461 0
-1442 -1462 0
-1442 -1463 0
-1442 -1464 0
-1442 -1465 0
-1442 -1466 0
-1442 -1467 0
-1442 -1468 0
-1442 -1469 0
-1442 -1470 0
-1442 -1471 0
-1442 -1472 0
-1442 -1473 0
-1442 -1474 0
-1442 -1475 0
-1442 -1476 0
-1442 -1477 0
-1442 -1478 0
-1442 -1479 0
-1443 -1444 0
-1443 -1445 0
-1443 -1446 0
-1443 -1447 0
-1443 -1448 0
-1443 -1449 0
-1443 -1450 0
-1443 -1451 0
-1443 -1452 0
-1443 -1453 0
-1443 -1454 0
-1443 -1455 0
-1443 -1456 0
-1443 -1457 0
-1443 -1458 0
-1443 -1459 0
-1443 -1460 0
-1443 -1461 0
-1443 -1462 0
-1443 -1463 0
-1443 -1464 0
-1443 -1465 0
-1443 -1466 0
-1443 -1467 0
-1443 -1468 0
-1443 -1469 0
-1443 -1470 0
-1443 -1471 0
-1443 -1472 0
-1443 -1473 0
-1443 -1474 0
-1443 -1475 0
-1443 -1476 0
-1443 -1477 0
-1443 -1478 0
-1443 -1479 0
-1444 -1445 0
-1444 -1446 0
-1444 -1447 0
-1444 -1448 0
-1444 -1449 0
-1444 -1450 0
-1444 -1451 0
-1444 -1452 0
-1444 -1453 0
-1444 -1454 0
-1444 -1455 0
-1444 -1456 0
-1444 -1457 0
-1444 -1458 0
-1444 -1459 0
-1444 -1460 0
-1444 -1461 0
-1444 -1462 0
-1444 -1463 0
-1444 -1464 0
-1444 -1465 0
-1444 -1466 0
-1444 -1467 0
-1444 -1468 0
-1444 -1469 0
-1444 -1470 0
-1444 -1471 0
-1444 -1472 0
-1444 -1473 0
-1444 -1474 0
-1444 -1475 0
-1444 -1476 0
-1444 -1477 0
-1444 -1478 0
-1444 -1479 0
-1445 -1446 0
-1445 -1447 0
-1445 -1448 0
-1445 -1449 0
-1445 -1450 0
-1445 -1451 0
-1445 -1452 0
-1445 -1453 0
-1445 -1454 0
-1445 -1455 0
-1445 -1456 0
-1445 -1457 0
-1445 -1458 0
-1445 -1459 0
-1445 -1460 0
-1445 -1461 0
-1445 -1462 0
-1445 -1463 0
-1445 -1464 0
-1445 -1465 0
-1445 -1466 0
-1445 -1467 0
-1445 -1468 0
-1445 -1469 0
-1445 -1470 0
-1445 -1471 0
-1445 -1472 0
-1445 -1473 0
-1445 -1474 0
-1445 -1475 0
-1445 -1476 0
-1445 -1477 0
-1445 -1478 0
-1445 -1479 0
-1446 -1447 0
-1446 -1448 0
-1446 -1449 0
-1446 -1450 0
-1446 -1451 0
-1446 -1452 0
-1446 -1453 0
-1446 -1454 0
-1446 -1455 0
-1446 -1456 0
-1446 -1457 0
-1446 -1458 0
-1446 -1459 0
-1446 -1460 0
-1446 -1461 0
-1446 -1462 0
-1446 -1463 0
-1446 -1464 0
-1446 -1465 0
-1446 -1466 0
-1446 -1467 0
-1446 -1468 0
-1446 -1469 0
-1446 -1470 0
-1446 -1471 0
-1446 -1472 0
-1446 -1473 0
-1446 -1474 0
-1446 -1475 0
-1446 -1476 0
-1446 -1477 0
-1446 -1478 0
-1446 -1479 0
-1447 -1448 0
-1447 -1449 0
-1447 -1450 0
-1447 -1451 0
-1447 -1452 0
-1447 -1453 0
-1447 -1454 0
-1447 -1455 0
-1447 -1456 0
-1447 -1457 0
-1447 -1458 0
-1447 -1459 0
-1447 -1460 0
-1447 -1461 0
-1447 -1462 0
-1447 -1463 0
-1447 -1464 0
-1447 -1465 0
-1447 -1466 0
-1447 -1467 0
-1447 -1468 0
-1447 -1469 0
-1447 -1470 0
-1447 -1471 0
-1447 -1472 0
-1447 -1473 0
-1447 -1474 0
-1447 -1475 0
-1447 -1476 0
-1447 -1477 0
-1447 -1478 0
-1447 -1479 0
-1448 -1449 0
-1448 -1450 0
-1448 -1451 0
-1448 -1452 0
-1448 -1453 0
-1448 -1454 0
-1448 -1455 0
-1448 -1456 0
-1448 -1457 0
-1448 -1458 0
-1448 -1459 0
-1448 -1460 0
-1448 -1461 0
-1448 -1462 0
-1448 -1463 0
-1448 -1464 0
-1448 -1465 0
-1448 -1466 0
-1448 -1467 0
-1448 -1468 0
-1448 -1469 0
-1448 -1470 0
-1448 -1471 0
-1448 -1472 0
-1448 -1473 0
-1448 -1474 0
-1448 -1475 0
-1448 -1476 0
-1448 -1477 0
-1448 -1478 0
-1448 -1479 0
-1449 -1450 0
-1449 -1451 0
-1449 -1452 0
-1449 -1453 0
-1449 -1454 0
-1449 -1455 0
-1449 -1456 0
-1449 -1457 0
-1449 -1458 0
-1449 -1459 0
-1449 -1460 0
-1449 -1461 0
-1449 -1462 0
-1449 -1463 0
-1449 -1464 0
-1449 -1465 0
-1449 -1466 0
-1449 -1467 0
-1449 -1468 0
-1449 -1469 0
-1449 -1470 0
-1449 -1471 0
-1449 -1472 0
-1449 -1473 0
-1449 -1474 0
-1449 -1475 0
-1449 -1476 0
-1449 -1477 0
-1449 -1478 0
-1449 -1479 0
-1450 -1451 0
-1450 -1452 0
-1450 -1453 0
-1450 -1454 0
-1450 -1455 0
-1450 -1456 0
-1450 -1457 0
-1450 -1458 0
-1450 -1459 0
-1450 -1460 0
-1450 -1461 0
-1450 -1462 0
-1450 -1463 0
-1450 -1464 0
-1450 -1465 0
-1450 -1466 0
-1450 -1467 0
-1450 -1468 0
-1450 -1469 0
-1450 -1470 0
-1450 -1471 0
-1450 -1472 0
-1450 -1473 0
-1450 -1474 0
-1450 -1475 0
-1450 -1476 0
-1450 -1477 0
-1450 -1478 0
-1450 -1479 0
-1451 -1452 0
-1451 -1453 0
-1451 -1454 0
-1451 -1455 0
-1451 -1456 0
-1451 -1457 0
-1451 -1458 0
-1451 -1459 0
-1451 -1460 0
-1451 -1461 0
-1451 -1462 0
-1451 -1463 0
-1451 -1464 0
-1451 -1465 0
-1451 -1466 0
-1451 -1467 0
-1451 -1468 0
-1451 -1469 0
-1451 -1470 0
-1451 -1471 0
-1451 -1472 0
-1451 -1473 0
-1451 -1474 0
-1451 -1475 0
-1451 -1476 0
-1451 -1477 0
-1451 -1478 0
-1451 -1479 0
-1452 -1453 0
-1452 -1454 0
-1452 -1455 0
-1452 -1456 0
-1452 -1457 0
-1452 -1458 0
-1452 -1459 0
-1452 -1460 0
-1452 -1461 0
-1452 -1462 0
-1452 -1463 0
-1452 -1464 0
-1452 -1465 0
-1452 -1466 0
-1452 -1467 0
-1452 -1468 0
-1452 -1469 0
-1452 -1470 0
-1452 -1471 0
-1452 -1472 0
-1452 -1473 0
-1452 -1474 0
-1452 -1475 0
-1452 -1476 0
-1452 -1477 0
-1452 -1478 0
-1452 -1479 0
-1453 -1454 0
-1453 -1455 0
-1453 -1456 0
-1453 -1457 0
-1453 -1458 0
-1453 -1459 0
-1453 -1460 0
-1453 -1461 0
-1453 -1462 0
-1453 -1463 0
-1453 -1464 0
-1453 -1465 0
-1453 -1466 0
-1453 -1467 0
-1453 -1468 0
-1453 -1469 0
-1453 -1470 0
-1453 -1471 0
-1453 -1472 0
-1453 -1473 0
-1453 -1474 0
-1453 -1475 0
-1453 -1476 0
-1453 -1477 0
-1453 -1478 0
-1453 -1479 0
-1454 -1455 0
-1454 -1456 0
-1454 -1457 0
-1454 -1458 0
-1454 -1459 0
-1454 -1460 0
-1454 -1461 0
-1454 -1462 0
-1454 -1463 0
-1454 -1464 0
-1454 -1465 0
-1454 -1466 0
-1454 -1467 0
-1454 -1468 0
-1454 -1469 0
-1454 -1470 0
-1454 -1471 0
-1454 -1472 0
-1454 -1473 0
-1454 -1474 0
-1454 -1475 0
-1454 -1476 0
-1454 -1477 0
-1454 -1478 0
-1454 -1479 0
-1455 -1456 0
-1455 -1457 0
-1455 -1458 0
-1455 -1459 0
-1455 -1460 0
-1455 -1461 0
-1455 -1462 0
-1455 -1463 0
-1455 -1464 0
-1455 -1465 0
-1455 -1466 0
-1455 -1467 0
-1455 -1468 0
-1455 -1469 0
-1455 -1470 0
-1455 -1471 0
-1455 -1472 0
-1455 -1473 0
-1455 -1474 0
-1455 -1475 0
-1455 -1476 0
-1455 -1477 0
-1455 -1478 0
-1455 -1479 0
-1456 -1457 0
-1456 -1458 0
-1456 -1459 0
-1456 -1460 0
-1456 -1461 0
-1456 -1462 0
-1456 -1463 0
-1456 -1464 0
-1456 -1465 0
-1456 -1466 0
-1456 -1467 0
-1456 -1468 0
-1456 -1469 0
-1456 -1470 0
-1456 -1471 0
-1456 -1472 0
-1456 -1473 0
-1456 -1474 0
-1456 -1475 0
-1456 -1476 0
-1456 -1477 0
-1456 -1478 0
-1456 -1479 0
-1457 -1458 0
-1457 -1459 0
-1457 -1460 0
-1457 -1461 0
-1457 -1462 0
-1457 -1463 0
-1457 -1464 0
-1457 -1465 0
-1457 -1466 0
-1457 -1467 0
-1457 -1468 0
-1457 -1469 0
-1457 -1470 0
-1457 -1471 0
-1457 -1472 0
-1457 -1473 0
-1457 -1474 0
-1457 -1475 0
-1457 -1476 0
-1457 -1477 0
-1457 -1478 0
-1457 -1479 0
-1458 -1459 0
-1458 -1460 0
-1458 -1461 0
-1458 -1462 0
-1458 -1463 0
-1458 -1464 0
-1458 -1465 0
-1458 -1466 0
-1458 -1467 0
-1458 -1468 0
-1458 -1469 0
-1458 -1470 0
-1458 -1471 0
-1458 -1472 0
-1458 -1473 0
-1458 -1474 0
-1458 -1475 0
-1458 -1476 0
-1458 -1477 0
-1458 -1478 0
-1458 -1479 0
-1459 -1460 0
-1459 -1461 0
-1459 -1462 0
-1459 -1463 0
-1459 -1464 0
-1459 -1465 0
-1459 -1466 0
-1459 -1467 0
-1459 -1468 0
-1459 -1469 0
-1459 -1470 0
-1459 -1471 0
-1459 -1472 0
-1459 -1473 0
-1459 -1474 0
-1459 -1475 0
-1459 -1476 0
-1459 -1477 0
-1459 -1478 0
-1459 -1479 0
-1460 -1461 0
-1460 -1462 0
-1460 -1463 0
-1460 -1464 0
-1460 -1465 0
-1460 -1466 0
-1460 -1467 0
-1460 -1468 0
-1460 -1469 0
-1460 -1470 0
-1460 -1471 0
-1460 -1472 0
-1460 -1473 0
-1460 -1474 0
-1460 -1475 0
-1460 -1476 0
-1460 -1477 0
-1460 -1478 0
-1460 -1479 0
-1461 -1462 0
-1461 -1463 0
-1461 -1464 0
-1461 -1465 0
-1461 -1466 0
-1461 -1467 0
-1461 -1468 0
-1461 -1469 0
-1461 -1470 0
-1461 -1471 0
-1461 -1472 0
-1461 -1473 0
-1461 -1474 0
-1461 -1475 0
-1461 -1476 0
-1461 -1477 0
-1461 -1478 0
-1461 -1479 0
-1462 -1463 0
-1462 -1464 0
-1462 -1465 0
-1462 -1466 0
-1462 -1467 0
-1462 -1468 0
-1462 -1469 0
-1462 -1470 0
-1462 -1471 0
-1462 -1472 0
-1462 -1473 0
-1462 -1474 0
-1462 -1475 0
-1462 -1476 0
-1462 -1477 0
-1462 -1478 0
-1462 -1479 0
-1463 -1464 0
-1463 -1465 0
-1463 -1466 0
-1463 -1467 0
-1463 -1468 0
-1463 -1469 0
-1463 -1470 0
-1463 -1471 0
-1463 -1472 0
-1463 -1473 0
-1463 -1474 0
-1463 -1475 0
-1463 -1476 0
-1463 -1477 0
-1463 -1478 0
-1463 -1479 0
-1464 -1465 0
-1464 -1466 0
-1464 -1467 0
-1464 -1468 0
-1464 -1469 0
-1464 -1470 0
-1464 -1471 0
-1464 -1472 0
-1464 -1473 0
-1464 -1474 0
-1464 -1475 0
-1464 -1476 0
-1464 -1477 0
-1464 -1478 0
-1464 -1479 0
-1465 -1466 0
-1465 -1467 0
-1465 -1468 0
-1465 -1469 0
-1465 -1470 0
-1465 -1471 0
-1465 -1472 0
-1465 -1473 0
-1465 -1474 0
-1465 -1475 0
-1465 -1476 0
-1465 -1477 0
-1465 -1478 0
-1465 -1479 0
-1466 -1467 0
-1466 -1468 0
-1466 -1469 0
-1466 -1470 0
-1466 -1471 0
-1466 -1472 0
-1466 -1473 0
-1466 -1474 0
-1466 -1475 0
-1466 -1476 0
-1466 -1477 0
-1466 -1478 0
-1466 -1479 0
-1467 -1468 0
-1467 -1469 0
-1467 -1470 0
-1467 -1471 0
-1467 -1472 0
-1467 -1473 0
-1467 -1474 0
-1467 -1475 0
-1467 -1476 0
-1467 -1477 0
-1467 -1478 0
-1467 -1479 0
-1468 -1469 0
-1468 -1470 0
-1468 -1471 0
-1468 -1472 0
-1468 -1473 0
-1468 -1474 0
-1468 -1475 0
-1468 -1476 0
-1468 -1477 0
-1468 -1478 0
-1468 -1479 0
-1469 -1470 0
-1469 -1471 0
-1469 -1472 0
-1469 -1473 0
-1469 -1474 0
-1469 -1475 0
-1469 -1476 0
-1469 -1477 0
-1469 -1478 0
-1469 -1479 0
-1470 -1471 0
-1470 -1472 0
-1470 -1473 0
-1470 -1474 0
-1470 -1475 0
-1470 -1476 0
-1470 -1477 0
-1470 -1478 0
-1470 -1479 0
-1471 -1472 0
-1471 -1473 0
-1471 -1474 0
-1471 -1475 0
-1471 -1476 0
-1471 -1477 0
-1471 -1478 0
-1471 -1479 0
-1472 -1473 0
-1472 -1474 0
-1472 -1475 0
-1472 -1476 0
-1472 -1477 0
-1472 -1478 0
-1472 -1479 0
-1473 -1474 0
-1473 -1475 0
-1473 -1476 0
-1473 -1477 0
-1473 -1478 0
-1473 -1479 0
-1474 -1475 0
-1474 -1476 0
-1474 -1477 0
-1474 -1478 0
-1474 -1479 0
-1475 -1476 0
-1475 -1477 0
-1475 -1478 0
-1475 -1479 0
-1476 -1477 0
-1476 -1478 0
-1476 -1479 0
-1477 -1478 0
-1477 -1479 0
-1478 -1479 0
-1480 1396 1397 1398 1399 1400 1401 1402 1403 1404 1405 1406 1407 1408 1409 1410 1411 1412 1413 1414 1415 1416 1417 1418 1419 0
-1396 1480 0
-1397 1480 0
-1398 1480 0
-1399 1480 0
-1400 1480 0
-1401 1480 0
-1402 1480 0
-1403 1480 0
-1404 1480 0
-1405 1480 0
-1406 1480 0
-1407 1480 0
-1408 1480 0
-1409 1480 0
-1410 1480 0
-1411 1480 0
-1412 1480 0
-1413 1480 0
-1414 1480 0
-1415 1480 0
-1416 1480 0
-1417 1480 0
-1418 1480 0
-1419 1480 0
1480 -597 746 0
1480 597 -746 0
1480 -598 747 0
1480 598 -747 0
1480 -599 748 0
1480 599 -748 0
1480 -600 749 0
1480 600 -749 0
1480 -601 750 0
1480 601 -750 0
1480 -602 751 0
1480 602 -751 0
1480 -603 752 0
1480 603 -752 0
1480 -604 753 0
1480 604 -753 0
1480 -605 754 0
1480 605 -754 0
1480 -606 755 0
1480 606 -755 0
-1481 1420 1421 1422 1423 1424 1425 1426 1427 1428 1429 1430 1431 1432 1433 1434 1435 1436 1437 1438 1439 1440 1441 1442 1443 0
-1420 1481 0
-1421 1481 0
-1422 1481 0
-1423 1481 0
-1424 1481 0
-1425 1481 0
-1426 1481 0
-1427 1481 0
-1428 1481 0
-1429 1481 0
-1430 1481 0
-1431 1481 0
-1432 1481 0
-1433 1481 0
-1434 1481 0
-1435 1481 0
-1436 1481 0
-1437 1481 0
-1438 1481 0
-1439 1481 0
-1440 1481 0
-1441 1481 0
-1442 1481 0
-1443 1481 0
1481 -607 756 0
1481 607 -756 0
1481 -608 757 0
1481 608 -757 0
1481 -609 758 0
1481 609 -758 0
1481 -610 759 0
1481 610 -759 0
1481 -611 760 0
1481 611 -760 0
1481 -612 761 0
1481 612 -761 0
1481 -613 762 0
1481 613 -762 0
1481 -614 763 0
1481 614 -763 0
1481 -615 764 0
1481 615 -764 0
1481 -616 765 0
1481 616 -765 0
-1482 1444 1445 1446 1447 1448 1449 1450 1451 1452 1453 1454 1455 1456 1457 1458 1459 1460 1461 1462 1463 0
-1444 1482 0
-1445 1482 0
-1446 1482 0
-1447 1482 0
-1448 1482 0
-1449 1482 0
-1450 1482 0
-1451 1482 0
-1452 1482 0
-1453 1482 0
-1454 1482 0
-1455 1482 0
-1456 1482 0
-1457 1482 0
-1458 1482 0
-1459 1482 0
-1460 1482 0
-1461 1482 0
-1462 1482 0
-1463 1482 0
1482 -617 766 0
1482 617 -766 0
1482 -618 767 0
1482 618 -767 0
1482 -619 768 0
1482 619 -768 0
1482 -620 769 0
1482 620 -769 0
1482 -621 770 0
1482 621 -770 0
1482 -622 771 0
1482 622 -771 0
1482 -623 772 0
1482 623 -772 0
1482 -624 773 0
1482 624 -773 0
1482 -625 774 0
1482 625 -774 0
-1483 1464 1465 1466 1467 1468 1469 1470 1471 1472 1473 1474 1475 1476 1477 1478 1479 0
-1464 1483 0
-1465 1483 0
-1466 1483 0
-1467 1483 0
-1468 1483 0
-1469 1483 0
-1470 1483 0
-1471 1483 0
-1472 1483 0
-1473 1483 0
-1474 1483 0
-1475 1483 0
-1476 1483 0
-1477 1483 0
-1478 1483 0
-1479 1483 0
1483 -626 775 0
1483 626 -775 0
1483 -627 776 0
1483 627 -776 0
1483 -628 777 0
1483 628 -777 0
1483 -629 778 0
1483 629 -778 0
1483 -630 779 0
1483 630 -779 0
1483 -631 780 0
1483 631 -780 0
1483 -632 781 0
1483 632 -781 0
1483 -633 782 0
1483 633 -782 0
-1396 742 0
-1396 746 0
-1396 -608 0
-1396 -609 0
-1396 -610 0
-1396 -611 0
-1396 -612 0
-1396 -616 0
-1396 -613 753 0
-1396 -613 -597 -604 0
-1396 -613 -659 0
-1396 -613 -660 0
-1396 -613 -661 0
-1396 -613 -683 0
-1396 -613 -684 0
-1396 -613 -685 0
-1396 -613 -703 0
-1396 -613 -704 0
-1396 -613 -705 0
-1396 -614 754 0
-1396 -614 -597 -605 0
-1396 -614 -660 0
-1396 -614 -661 0
-1396 -614 -684 0
-1396 -614 -685 0
-1396 -614 -704 0
-1396 -614 -705 0
-1396 -615 755 0
-1396 -615 -597 -606 0
-1396 -615 -661 0
-1396 -615 -685 0
-1396 -615 -705 0
-1397 742 0
-1397 747 0
-1397 -607 0
-1397 -609 0
-1397 -610 0
-1397 -611 0
-1397 -612 0
-1397 -616 0
-1397 -613 753 0
-1397 -613 -598 -604 0
-1397 -613 -663 0
-1397 -613 -664 0
-1397 -613 -665 0
-1397 -613 -683 0
-1397 -613 -684 0
-1397 -613 -685 0
-1397 -613 -687 0
-1397 -613 -688 0
-1397 -613 -689 0
-1397 -613 -703 0
-1397 -613 -704 0
-1397 -613 -705 0
-1397 -613 -707 0
-1397 -613 -708 0
-1397 -613 -709 0
-1397 -614 754 0
-1397 -614 -598 -605 0
-1397 -614 -664 0
-1397 -614 -665 0
-1397 -614 -684 0
-1397 -614 -685 0
-1397 -614 -688 0
-1397 -614 -689 0
-1397 -614 -704 0
-1397 -614 -705 0
-1397 -614 -708 0
-1397 -614 -709 0
-1397 -615 755 0
-1397 -615 -598 -606 0
-1397 -615 -665 0
-1397 -615 -685 0
-1397 -615 -689 0
-1397 -615 -705 0
-1397 -615 -709 0
-1398 742 0
-1398 748 0
-1398 -607 0
-1398 -608 0
-1398 -610 0
-1398 -611 0
-1398 -612 0
-1398 -616 0
-1398 -613 753 0
-1398 -613 -599 -604 0
-1398 -613 -667 0
-1398 -613 -668 0
-1398 -613 -669 0
-1398 -613 -687 0
-1398 -613 -688 0
-1398 -613 -689 0
-1398 -613 -691 0
-1398 -613 -692 0
-1398 -613 -693 0
-1398 -613 -703 0
-1398 -613 -704 0
-1398 -613 -705 0
-1398 -613 -707 0
-1398 -613 -708 0
-1398 -613 -709 0
-1398 -613 -711 0
-1398 -613 -712 0
-1398 -613 -713 0
-1398 -614 754 0
-1398 -614 -599 -605 0
-1398 -614 -668 0
-1398 -614 -669 0
-1398 -614 -688 0
-1398 -614 -689 0
-1398 -614 -692 0
-1398 -614 -693 0
-1398 -614 -704 0
-1398 -614 -705 0
-1398 -614 -708 0
-1398 -614 -709 0
-1398 -614 -712 0
-1398 -614 -713 0
-1398 -615 755 0
-1398 -615 -599 -606 0
-1398 -615 -669 0
-1398 -615 -689 0
-1398 -615 -693 0
-1398 -615 -705 0
-1398 -615 -709 0
-1398 -615 -713 0
-1399 742 0
-1399 749 0
-1399 -607 0
-1399 -608 0
-1399 -609 0
-1399 -611 0
-1399 -612 0
-1399 -616 0
-1399 -613 753 0
-1399 -613 -600 -604 0
-1399 -613 -671 0
-1399 -613 -672 0
-1399 -613 -673 0
-1399 -613 -691 0
-1399 -613 -692 0
-1399 -613 -693 0
-1399 -613 -695 0
-1399 -613 -696 0
-1399 -613 -697 0
-1399 -613 -707 0
-1399 -613 -708 0
-1399 -613 -709 0
-1399 -613 -711 0
-1399 -613 -712 0
-1399 -613 -713 0
-1399 -613 -715 0
-1399 -613 -716 0
-1399 -613 -717 0
-1399 -614 754 0
-1399 -614 -600 -605 0
-1399 -614 -672 0
-1399 -614 -673 0
-1399 -614 -692 0
-1399 -614 -693 0
-1399 -614 -696 0
-1399 -614 -697 0
-1399 -614 -708 0
-1399 -614 -709 0
-1399 -614 -712 0
-1399 -614 -713 0
-1399 -614 -716 0
-1399 -614 -717 0
-1399 -615 755 0
-1399 -615 -600 -606 0
-1399 -615 -673 0
-1399 -615 -693 0
-1399 -615 -697 0
-1399 -615 -709 0
-1399 -615 -713 0
-1399 -615 -717 0
-1400 742 0
-1400 750 0
-1400 -607 0
-1400 -608 0
-1400 -609 0
-1400 -610 0
-1400 -612 0
-1400 -616 0
-1400 -613 753 0
-1400 -613 -601 -604 0
-1400 -613 -675 0
-1400 -613 -676 0
-1400 -613 -677 0
-1400 -613 -695 0
-1400 -613 -696 0
-1400 -613 -697 0
-1400 -613 -699 0
-1400 -613 -700 0
-1400 -613 -701 0
-1400 -613 -711 0
-1400 -613 -712 0
-1400 -613 -713 0
-1400 -613 -715 0
-1400 -613 -716 0
-1400 -613 -717 0
-1400 -614 754 0
-1400 -614 -601 -605 0
-1400 -614 -676 0
-1400 -614 -677 0
-1400 -614 -696 0
-1400 -614 -697 0
-1400 -614 -700 0
-1400 -614 -701 0
-1400 -614 -712 0
-1400 -614 -713 0
-1400 -614 -716 0
-1400 -614 -717 0
-1400 -615 755 0
-1400 -615 -601 -606 0
-1400 -615 -677 0
-1400 -615 -697 0
-1400 -615 -701 0
-1400 -615 -713 0
-1400 -615 -717 0
-1401 742 0
-1401 751 0
-1401 -607 0
-1401 -608 0
-1401 -609 0
-1401 -610 0
-1401 -611 0
-1401 -616 0
-1401 -613 753 0
-1401 -613 -602 -604 0
-1401 -613 -679 0
-1401 -613 -680 0
-1401 -613 -681 0
-1401 -613 -699 0
-1401 -613 -700 0
-1401 -613 -701 0
-1401 -613 -715 0
-1401 -613 -716 0
-1401 -613 -717 0
-1401 -614 754 0
-1401 -614 -602 -605 0
-1401 -614 -680 0
-1401 -614 -681 0
-1401 -614 -700 0
-1401 -614 -701 0
-1401 -614 -716 0
-1401 -614 -717 0
-1401 -615 755 0
-1401 -615 -602 -606 0
-1401 -615 -681 0
-1401 -615 -701 0
-1401 -615 -717 0
-1402 742 0
-1402 746 0
-1402 -618 0
-1402 -619 0
-1402 -620 0
-1402 -621 0
-1402 -625 0
-1402 -622 753 0
-1402 -622 -597 -604 0
-1402 -622 -659 0
-1402 -622 -660 0
-1402 -622 -661 0
-1402 -622 -683 0
-1402 -622 -684 0
-1402 -622 -685 0
-1402 -622 -703 0
-1402 -622 -704 0
-1402 -622 -705 0
-1402 -623 754 0
-1402 -623 -597 -605 0
-1402 -623 -660 0
-1402 -623 -661 0
-1402 -623 -684 0
-1402 -623 -685 0
-1402 -623 -704 0
-1402 -623 -705 0
-1402 -624 755 0
-1402 -624 -597 -606 0
-1402 -624 -661 0
-1402 -624 -685 0
-1402 -624 -705 0
-1403 742 0
-1403 747 0
-1403 -619 0
-1403 -620 0
-1403 -621 0
-1403 -625 0
-1403 -622 753 0
-1403 -622 -598 -604 0
-1403 -622 -663 0
-1403 -622 -664 0
-1403 -622 -665 0
-1403 -622 -683 0
-1403 -622 -684 0
-1403 -622 -685 0
-1403 -622 -687 0
-1403 -622 -688 0
-1403 -622 -689 0
-1403 -622 -703 0
-1403 -622 -704 0
-1403 -622 -705 0
-1403 -622 -707 0
-1403 -622 -708 0
-1403 -622 -709 0
-1403 -623 754 0
-1403 -623 -598 -605 0
-1403 -623 -664 0
-1403 -623 -665 0
-1403 -623 -684 0
-1403 -623 -685 0
-1403 -623 -688 0
-1403 -623 -689 0
-1403 -623 -704 0
-1403 -623 -705 0
-1403 -623 -708 0
-1403 -623 -709 0
-1403 -624 755 0
-1403 -624 -598 -606 0
-1403 -624 -665 0
-1403 -624 -685 0
-1403 -624 -689 0
-1403 -624 -705 0
-1403 -624 -709 0
-1404 742 0
-1404 748 0
-1404 -617 0
-1404 -620 0
-1404 -621 0
-1404 -625 0
-1404 -622 753 0
-1404 -622 -599 -604 0
-1404 -622 -667 0
-1404 -622 -668 0
-1404 -622 -669 0
-1404 -622 -687 0
-1404 -622 -688 0
-1404 -622 -689 0
-1404 -622 -691 0
-1404 -622 -692 0
-1404 -622 -693 0
-1404 -622 -703 0
-1404 -622 -704 0
-1404 -622 -705 0
-1404 -622 -707 0
-1404 -622 -708 0
-1404 -622 -709 0
-1404 -622 -711 0
-1404 -622 -712 0
-1404 -622 -713 0
-1404 -623 754 0
-1404 -623 -599 -605 0
-1404 -623 -668 0
-1404 -623 -669 0
-1404 -623 -688 0
-1404 -623 -689 0
-1404 -623 -692 0
-1404 -623 -693 0
-1404 -623 -704 0
-1404 -623 -705 0
-1404 -623 -708 0
-1404 -623 -709 0
-1404 -623 -712 0
-1404 -623 -713 0
-1404 -624 755 0
-1404 -624 -599 -606 0
-1404 -624 -669 0
-1404 -624 -689 0
-1404 -624 -693 0
-1404 -624 -705 0
-1404 -624 -709 0
-1404 -624 -713 0
-1405 742 0
-1405 749 0
-1405 -617 0
-1405 -618 0
-1405 -621 0
-1405 -625 0
-1405 -622 753 0
-1405 -622 -600 -604 0
-1405 -622 -671 0
-1405 -622 -672 0
-1405 -622 -673 0
-1405 -622 -691 0
-1405 -622 -692 0
-1405 -622 -693 0
-1405 -622 -695 0
-1405 -622 -696 0
-1405 -622 -697 0
-1405 -622 -707 0
-1405 -622 -708 0
-1405 -622 -709 0
-1405 -622 -711 0
-1405 -622 -712 0
-1405 -622 -713 0
-1405 -622 -715 0
-1405 -622 -716 0
-1405 -622 -717 0
-1405 -623 754 0
-1405 -623 -600 -605 0
-1405 -623 -672 0
-1405 -623 -673 0
-1405 -623 -692 0
-1405 -623 -693 0
-1405 -623 -696 0
-1405 -623 -697 0
-1405 -623 -708 0
-1405 -623 -709 0
-1405 -623 -712 0
-1405 -623 -713 0
-1405 -623 -716 0
-1405 -623 -717 0
-1405 -624 755 0
-1405 -624 -600 -606 0
-1405 -624 -673 0
-1405 -624 -693 0
-1405 -624 -697 0
-1405 -624 -709 0
-1405 -624 -713 0
-1405 -624 -717 0
-1406 742 0
-1406 750 0
-1406 -617 0
-1406 -618 0
-1406 -619 0
-1406 -625 0
-1406 -622 753 0
-1406 -622 -601 -604 0
-1406 -622 -675 0
-1406 -622 -676 0
-1406 -622 -677 0
-1406 -622 -695 0
-1406 -622 -696 0
-1406 -622 -697 0
-1406 -622 -699 0
-1406 -622 -700 0
-1406 -622 -701 0
-1406 -622 -711 0
-1406 -622 -712 0
-1406 -622 -713 0
-1406 -622 -715 0
-1406 -622 -716 0
-1406 -622 -717 0
-1406 -623 754 0
-1406 -623 -601 -605 0
-1406 -623 -676 0
-1406 -623 -677 0
-1406 -623 -696 0
-1406 -623 -697 0
-1406 -623 -700 0
-1406 -623 -701 0
-1406 -623 -712 0
-1406 -623 -713 0
-1406 -623 -716 0
-1406 -623 -717 0
-1406 -624 755 0
-1406 -624 -601 -606 0
-1406 -624 -677 0
-1406 -624 -697 0
-1406 -624 -701 0
-1406 -624 -713 0
-1406 -624 -717 0
-1407 742 0
-1407 751 0
-1407 -617 0
-1407 -618 0
-1407 -619 0
-1407 -620 0
-1407 -625 0
-1407 -622 753 0
-1407 -622 -602 -604 0
-1407 -622 -679 0
-1407 -622 -680 0
-1407 -622 -681 0
-1407 -622 -699 0
-1407 -622 -700 0
-1407 -622 -701 0
-1407 -622 -715 0
-1407 -622 -716 0
-1407 -622 -717 0
-1407 -623 754 0
-1407 -623 -602 -605 0
-1407 -623 -680 0
-1407 -623 -681 0
-1407 -623 -700 0
-1407 -623 -701 0
-1407 -623 -716 0
-1407 -623 -717 0
-1407 -624 755 0
-1407 -624 -602 -606 0
-1407 -624 -681 0
-1407 -624 -701 0
-1407 -624 -717 0
-1408 742 0
-1408 746 0
-1408 -627 0
-1408 -628 0
-1408 -629 0
-1408 -633 0
-1408 -630 753 0
-1408 -630 -597 -604 0
-1408 -630 -659 0
-1408 -630 -660 0
-1408 -630 -661 0
-1408 -630 -683 0
-1408 -630 -684 0
-1408 -630 -685 0
-1408 -630 -703 0
-1408 -630 -704 0
-1408 -630 -705 0
-1408 -631 754 0
-1408 -631 -597 -605 0
-1408 -631 -660 0
-1408 -631 -661 0
-1408 -631 -684 0
-1408 -631 -685 0
-1408 -631 -704 0
-1408 -631 -705 0
-1408 -632 755 0
-1408 -632 -597 -606 0
-1408 -632 -661 0
-1408 -632 -685 0
-1408 -632 -705 0
-1409 742 0
-1409 747 0
-1409 -628 0
-1409 -629 0
-1409 -633 0
-1409 -630 753 0
-1409 -630 -598 -604 0
-1409 -630 -663 0
-1409 -630 -664 0
-1409 -630 -665 0
-1409 -630 -683 0
-1409 -630 -684 0
-1409 -630 -685 0
-1409 -630 -687 0
-1409 -630 -688 0
-1409 -630 -689 0
-1409 -630 -703 0
-1409 -630 -704 0
-1409 -630 -705 0
-1409 -630 -707 0
-1409 -630 -708 0
-1409 -630 -709 0
-1409 -631 754 0
-1409 -631 -598 -605 0
-1409 -631 -664 0
-1409 -631 -665 0
-1409 -631 -684 0
-1409 -631 -685 0
-1409 -631 -688 0
-1409 -631 -689 0
-1409 -631 -704 0
-1409 -631 -705 0
-1409 -631 -708 0
-1409 -631 -709 0
-1409 -632 755 0
-1409 -632 -598 -606 0
-1409 -632 -665 0
-1409 -632 -685 0
-1409 -632 -689 0
-1409 -632 -705 0
-1409 -632 -709 0
-1410 742 0
-1410 748 0
-1410 -629 0
-1410 -633 0
-1410 -630 753 0
-1410 -630 -599 -604 0
-1410 -630 -667 0
-1410 -630 -668 0
-1410 -630 -669 0
-1410 -630 -687 0
-1410 -630 -688 0
-1410 -630 -689 0
-1410 -630 -691 0
-1410 -630 -692 0
-1410 -630 -693 0
-1410 -630 -703 0
-1410 -630 -704 0
-1410 -630 -705 0
-1410 -630 -707 0
-1410 -630 -708 0
-1410 -630 -709 0
-1410 -630 -711 0
-1410 -630 -712 0
-1410 -630 -713 0
-1410 -631 754 0
-1410 -631 -599 -605 0
-1410 -631 -668 0
-1410 -631 -669 0
-1410 -631 -688 0
-1410 -631 -689 0
-1410 -631 -692 0
-1410 -631 -693 0
-1410 -631 -704 0
-1410 -631 -705 0
-1410 -631 -708 0
-1410 -631 -709 0
-1410 -631 -712 0
-1410 -631 -713 0
-1410 -632 755 0
-1410 -632 -599 -606 0
-1410 -632 -669 0
-1410 -632 -689 0
-1410 -632 -693 0
-1410 -632 -705 0
-1410 -632 -709 0
-1410 -632 -713 0
-1411 742 0
-1411 749 0
-1411 -626 0
-1411 -633 0
-1411 -630 753 0
-1411 -630 -600 -604 0
-1411 -630 -671 0
-1411 -630 -672 0
-1411 -630 -673 0
-1411 -630 -691 0
-1411 -630 -692 0
-1411 -630 -693 0
-1411 -630 -695 0
-1411 -630 -696 0
-1411 -630 -697 0
-1411 -630 -707 0
-1411 -630 -708 0
-1411 -630 -709 0
-1411 -630 -711 0
-1411 -630 -712 0
-1411 -630 -713 0
-1411 -630 -715 0
-1411 -630 -716 0
-1411 -630 -717 0
-1411 -631 754 0
-1411 -631 -600 -605 0
-1411 -631 -672 0
-1411 -631 -673 0
-1411 -631 -692 0
-1411 -631 -693 0
-1411 -631 -696 0
-1411 -631 -697 0
-1411 -631 -708 0
-1411 -631 -709 0
-1411 -631 -712 0
-1411 -631 -713 0
-1411 -631 -716 0
-1411 -631 -717 0
-1411 -632 755 0
-1411 -632 -600 -606 0
-1411 -632 -673 0
-1411 -632 -693 0
-1411 -632 -697 0
-1411 -632 -709 0
-1411 -632 -713 0
-1411 -632 -717 0
-1412 742 0
-1412 750 0
-1412 -626 0
-1412 -627 0
-1412 -633 0
-1412 -630 753 0
-1412 -630 -601 -604 0
-1412 -630 -675 0
-1412 -630 -676 0
-1412 -630 -677 0
-1412 -630 -695 0
-1412 -630 -696 0
-1412 -630 -697 0
-1412 -630 -699 0
-1412 -630 -700 0
-1412 -630 -701 0
-1412 -630 -711 0
-1412 -630 -712 0
-1412 -630 -713 0
-1412 -630 -715 0
-1412 -630 -716 0
-1412 -630 -717 0
-1412 -631 754 0
-1412 -631 -601 -605 0
-1412 -631 -676 0
-1412 -631 -677 0
-1412 -631 -696 0
-1412 -631 -697 0
-1412 -631 -700 0
-1412 -631 -701 0
-1412 -631 -712 0
-1412 -631 -713 0
-1412 -631 -716 0
-1412 -631 -717 0
-1412 -632 755 0
-1412 -632 -601 -606 0
-1412 -632 -677 0
-1412 -632 -697 0
-1412 -632 -701 0
-1412 -632 -713 0
-1412 -632 -717 0
-1413 742 0
-1413 751 0
-1413 -626 0
-1413 -627 0
-1413 -628 0
-1413 -633 0
-1413 -630 753 0
-1413 -630 -602 -604 0
-1413 -630 -679 0
-1413 -630 -680 0
-1413 -630 -681 0
-1413 -630 -699 0
-1413 -630 -700 0
-1413 -630 -701 0
-1413 -630 -715 0
-1413 -630 -716 0
-1413 -630 -717 0
-1413 -631 754 0
-1413 -631 -602 -605 0
-1413 -631 -680 0
-1413 -631 -681 0
-1413 -631 -700 0
-1413 -631 -701 0
-1413 -631 -716 0
-1413 -631 -717 0
-1413 -632 755 0
-1413 -632 -602 -606 0
-1413 -632 -681 0
-1413 -632 -701 0
-1413 -632 -717 0
-1414 742 0
-1414 746 0
-1414 752 0
-1414 -597 -603 0
-1414 -658 0
-1414 -659 0
-1414 -660 0
-1414 -661 0
-1414 -682 0
-1414 -683 0
-1414 -684 0
-1414 -685 0
-1414 -702 0
-1414 -703 0
-1414 -704 0
-1414 -705 0
-1415 742 0
-1415 747 0
-1415 752 0
-1415 -598 -603 0
-1415 -662 0
-1415 -663 0
-1415 -664 0
-1415 -665 0
-1415 -682 0
-1415 -683 0
-1415 -684 0
-1415 -685 0
-1415 -686 0
-1415 -687 0
-1415 -688 0
-1415 -689 0
-1415 -702 0
-1415 -703 0
-1415 -704 0
-1415 -705 0
-1415 -706 0
-1415 -707 0
-1415 -708 0
-1415 -709 0
-1416 742 0
-1416 748 0
-1416 752 0
-1416 -599 -603 0
-1416 -666 0
-1416 -667 0
-1416 -668 0
-1416 -669 0
-1416 -686 0
-1416 -687 0
-1416 -688 0
-1416 -689 0
-1416 -690 0
-1416 -691 0
-1416 -692 0
-1416 -693 0
-1416 -702 0
-1416 -703 0
-1416 -704 0
-1416 -705 0
-1416 -706 0
-1416 -707 0
-1416 -708 0
-1416 -709 0
-1416 -710 0
-1416 -711 0
-1416 -712 0
-1416 -713 0
-1417 742 0
-1417 749 0
-1417 752 0
-1417 -600 -603 0
-1417 -670 0
-1417 -671 0
-1417 -672 0
-1417 -673 0
-1417 -690 0
-1417 -691 0
-1417 -692 0
-1417 -693 0
-1417 -694 0
-1417 -695 0
-1417 -696 0
-1417 -697 0
-1417 -706 0
-1417 -707 0
-1417 -708 0
-1417 -709 0
-1417 -710 0
-1417 -711 0
-1417 -712 0
-1417 -713 0
-1417 -714 0
-1417 -715 0
-1417 -716 0
-1417 -717 0
-1418 742 0
-1418 750 0
-1418 752 0
-1418 -601 -603 0
-1418 -674 0
-1418 -675 0
-1418 -676 0
-1418 -677 0
-1418 -694 0
-1418 -695 0
-1418 -696 0
-1418 -697 0
-1418 -698 0
-1418 -699 0
-1418 -700 0
-1418 -701 0
-1418 -710 0
-1418 -711 0
-1418 -712 0
-1418 -713 0
-1418 -714 0
-1418 -715 0
-1418 -716 0
-1418 -717 0
-1419 742 0
-1419 751 0
-1419 752 0
-1419 -602 -603 0
-1419 -678 0
-1419 -679 0
-1419 -680 0
-1419 -681 0
-1419 -698 0
-1419 -699 0
-1419 -700 0
-1419 -701 0
-1419 -714 0
-1419 -715 0
-1419 -716 0
-1419 -717 0
-1420 743 0
-1420 756 0
-1420 -598 0
-1420 -599 0
-1420 -600 0
-1420 -601 0
-1420 -602 0
-1420 -606 0
-1420 -603 763 0
-1420 -603 -607 -614 0
-1420 -603 -635 0
-1420 -603 -636 0
-1420 -603 -637 0
-1420 -603 -683 0
-1420 -603 -684 0
-1420 -603 -685 0
-1420 -603 -703 0
-1420 -603 -704 0
-1420 -603 -705 0
-1420 -604 764 0
-1420 -604 -607 -615 0
-1420 -604 -636 0
-1420 -604 -637 0
-1420 -604 -684 0
-1420 -604 -685 0
-1420 -604 -704 0
-1420 -604 -705 0
-1420 -605 765 0
-1420 -605 -607 -616 0
-1420 -605 -637 0
-1420 -605 -685 0
-1420 -605 -705 0
-1421 743 0
-1421 757 0
-1421 -597 0
-1421 -599 0
-1421 -600 0
-1421 -601 0
-1421 -602 0
-1421 -606 0
-1421 -603 763 0
-1421 -603 -608 -614 0
-1421 -603 -639 0
-1421 -603 -640 0
-1421 -603 -641 0
-1421 -603 -683 0
-1421 -603 -684 0
-1421 -603 -685 0
-1421 -603 -687 0
-1421 -603 -688 0
-1421 -603 -689 0
-1421 -603 -703 0
-1421 -603 -704 0
-1421 -603 -705 0
-1421 -603 -707 0
-1421 -603 -708 0
-1421 -603 -709 0
-1421 -604 764 0
-1421 -604 -608 -615 0
-1421 -604 -640 0
-1421 -604 -641 0
-1421 -604 -684 0
-1421 -604 -685 0
-1421 -604 -688 0
-1421 -604 -689 0
-1421 -604 -704 0
-1421 -604 -705 0
-1421 -604 -708 0
-1421 -604 -709 0
-1421 -605 765 0
-1421 -605 -608 -616 0
-1421 -605 -641 0
-1421 -605 -685 0
-1421 -605 -689 0
-1421 -605 -705 0
-1421 -605 -709 0
-1422 743 0
-1422 758 0
-1422 -597 0
-1422 -598 0
-1422 -600 0
-1422 -601 0
-1422 -602 0
-1422 -606 0
-1422 -603 763 0
-1422 -603 -609 -614 0
-1422 -603 -643 0
-1422 -603 -644 0
-1422 -603 -645 0
-1422 -603 -687 0
-1422 -603 -688 0
-1422 -603 -689 0
-1422 -603 -691 0
-1422 -603 -692 0
-1422 -603 -693 0
-1422 -603 -703 0
-1422 -603 -704 0
-1422 -603 -705 0
-1422 -603 -707 0
-1422 -603 -708 0
-1422 -603 -709 0
-1422 -603 -711 0
-1422 -603 -712 0
-1422 -603 -713 0
-1422 -604 764 0
-1422 -604 -609 -615 0
-1422 -604 -644 0
-1422 -604 -645 0
-1422 -604 -688 0
-1422 -604 -689 0
-1422 -604 -692 0
-1422 -604 -693 0
-1422 -604 -704 0
-1422 -604 -705 0
-1422 -604 -708 0
-1422 -604 -709 0
-1422 -604 -712 0
-1422 -604 -713 0
-1422 -605 765 0
-1422 -605 -609 -616 0
-1422 -605 -645 0
-1422 -605 -689 0
-1422 -605 -693 0
-1422 -605 -705 0
-1422 -605 -709 0
-1422 -605 -713 0
-1423 743 0
-1423 759 0
-1423 -597 0
-1423 -598 0
-1423 -599 0
-1423 -601 0
-1423 -602 0
-1423 -606 0
-1423 -603 763 0
-1423 -603 -610 -614 0
-1423 -603 -647 0
-1423 -603 -648 0
-1423 -603 -649 0
-1423 -603 -691 0
-1423 -603 -692 0
-1423 -603 -693 0
-1423 -603 -695 0
-1423 -603 -696 0
-1423 -603 -697 0
-1423 -603 -707 0
-1423 -603 -708 0
-1423 -603 -709 0
-1423 -603 -711 0
-1423 -603 -712 0
-1423 -603 -713 0
-1423 -603 -715 0
-1423 -603 -716 0
-1423 -603 -717 0
-1423 -604 764 0
-1423 -604 -610 -615 0
-1423 -604 -648 0
-1423 -604 -649 0
-1423 -604 -692 0
-1423 -604 -693 0
-1423 -604 -696 0
-1423 -604 -697 0
-1423 -604 -708 0
-1423 -604 -709 0
-1423 -604 -712 0
-1423 -604 -713 0
-1423 -604 -716 0
-1423 -604 -717 0
-1423 -605 765 0
-1423 -605 -610 -616 0
-1423 -605 -649 0
-1423 -605 -693 0
-1423 -605 -697 0
-1423 -605 -709 0
-1423 -605 -713 0
-1423 -605 -717 0
-1424 743 0
-1424 760 0
-1424 -597 0
-1424 -598 0
-1424 -599 0
-1424 -600 0
-1424 -602 0
-1424 -606 0
-1424 -603 763 0
-1424 -603 -611 -614 0
-1424 -603 -651 0
-1424 -603 -652 0
-1424 -603 -653 0
-1424 -603 -695 0
-1424 -603 -696 0
-1424 -603 -697 0
-1424 -603 -699 0
-1424 -603 -700 0
-1424 -603 -701 0
-1424 -603 -711 0
-1424 -603 -712 0
-1424 -603 -713 0
-1424 -603 -715 0
-1424 -603 -716 0
-1424 -603 -717 0
-1424 -604 764 0
-1424 -604 -611 -615 0
-1424 -604 -652 0
-1424 -604 -653 0
-1424 -604 -696 0
-1424 -604 -697 0
-1424 -604 -700 0
-1424 -604 -701 0
-1424 -604 -712 0
-1424 -604 -713 0
-1424 -604 -716 0
-1424 -604 -717 0
-1424 -605 765 0
-1424 -605 -611 -616 0
-1424 -605 -653 0
-1424 -605 -697 0
-1424 -605 -701 0
-1424 -605 -713 0
-1424 -605 -717 0
-1425 743 0
-1425 761 0
-1425 -597 0
-1425 -598 0
-1425 -599 0
-1425 -600 0
-1425 -601 0
-1425 -606 0
-1425 -603 763 0
-1425 -603 -612 -614 0
-1425 -603 -655 0
-1425 -603 -656 0
-1425 -603 -657 0
-1425 -603 -699 0
-1425 -603 -700 0
-1425 -603 -701 0
-1425 -603 -715 0
-1425 -603 -716 0
-1425 -603 -717 0
-1425 -604 764 0
-1425 -604 -612 -615 0
-1425 -604 -656 0
-1425 -604 -657 0
-1425 -604 -700 0
-1425 -604 -701 0
-1425 -604 -716 0
-1425 -604 -717 0
-1425 -605 765 0
-1425 -605 -612 -616 0
-1425 -605 -657 0
-1425 -605 -701 0
-1425 -605 -717 0
-1426 743 0
-1426 756 0
-1426 -618 0
-1426 -619 0
-1426 -620 0
-1426 -621 0
-1426 -625 0
-1426 -622 763 0
-1426 -622 -607 -614 0
-1426 -622 -635 0
-1426 -622 -636 0
-1426 -622 -637 0
-1426 -622 -683 0
-1426 -622 -684 0
-1426 -622 -685 0
-1426 -622 -703 0
-1426 -622 -704 0
-1426 -622 -705 0
-1426 -623 764 0
-1426 -623 -607 -615 0
-1426 -623 -636 0
-1426 -623 -637 0
-1426 -623 -684 0
-1426 -623 -685 0
-1426 -623 -704 0
-1426 -623 -705 0
-1426 -624 765 0
-1426 -624 -607 -616 0
-1426 -624 -637 0
-1426 -624 -685 0
-1426 -624 -705 0
-1427 743 0
-1427 757 0
-1427 -619 0
-1427 -620 0
-1427 -621 0
-1427 -625 0
-1427 -622 763 0
-1427 -622 -608 -614 0
-1427 -622 -639 0
-1427 -622 -640 0
-1427 -622 -641 0
-1427 -622 -683 0
-1427 -622 -684 0
-1427 -622 -685 0
-1427 -622 -687 0
-1427 -622 -688 0
-1427 -622 -689 0
-1427 -622 -703 0
-1427 -622 -704 0
-1427 -622 -705 0
-1427 -622 -707 0
-1427 -622 -708 0
-1427 -622 -709 0
-1427 -623 764 0
-1427 -623 -608 -615 0
-1427 -623 -640 0
-1427 -623 -641 0
-1427 -623 -684 0
-1427 -623 -685 0
-1427 -623 -688 0
-1427 -623 -689 0
-1427 -623 -704 0
-1427 -623 -705 0
-1427 -623 -708 0
-1427 -623 -709 0
-1427 -624 765 0
-1427 -624 -608 -616 0
-1427 -624 -641 0
-1427 -624 -685 0
-1427 -624 -689 0
-1427 -624 -705 0
-1427 -624 -709 0
-1428 743 0
-1428 758 0
-1428 -617 0
-1428 -620 0
-1428 -621 0
-1428 -625 0
-1428 -622 763 0
-1428 -622 -609 -614 0
-1428 -622 -643 0
-1428 -622 -644 0
-1428 -622 -645 0
-1428 -622 -687 0
-1428 -622 -688 0
-1428 -622 -689 0
-1428 -622 -691 0
-1428 -622 -692 0
-1428 -622 -693 0
-1428 -622 -703 0
-1428 -622 -704 0
-1428 -622 -705 0
-1428 -622 -707 0
-1428 -622 -708 0
-1428 -622 -709 0
-1428 -622 -711 0
-1428 -622 -712 0
-1428 -622 -713 0
-1428 -623 764 0
-1428 -623 -609 -615 0
-1428 -623 -644 0
-1428 -623 -645 0
-1428 -623 -688 0
-1428 -623 -689 0
-1428 -623 -692 0
-1428 -623 -693 0
-1428 -623 -704 0
-1428 -623 -705 0
-1428 -623 -708 0
-1428 -623 -709 0
-1428 -623 -712 0
-1428 -623 -713 0
-1428 -624 765 0
-1428 -624 -609 -616 0
-1428 -624 -645 0
-1428 -624 -689 0
-1428 -624 -693 0
-1428 -624 -705 0
-1428 -624 -709 0
-1428 -624 -713 0
-1429 743 0
-1429 759 0
-1429 -617 0
-1429 -618 0
-1429 -621 0
-1429 -625 0
-1429 -622 763 0
-1429 -622 -610 -614 0
-1429 -622 -647 0
-1429 -622 -648 0
-1429 -622 -649 0
-1429 -622 -691 0
-1429 -622 -692 0
-1429 -622 -693 0
-1429 -622 -695 0
-1429 -622 -696 0
-1429 -622 -697 0
-1429 -622 -707 0
-1429 -622 -708 0
-1429 -622 -709 0
-1429 -622 -711 0
-1429 -622 -712 0
-1429 -622 -713 0
-1429 -622 -715 0
-1429 -622 -716 0
-1429 -622 -717 0
-1429 -623 764 0
-1429 -623 -610 -615 0
-1429 -623 -648 0
-1429 -623 -649 0
-1429 -623 -692 0
-1429 -623 -693 0
-1429 -623 -696 0
-1429 -623 -697 0
-1429 -623 -708 0
-1429 -623 -709 0
-1429 -623 -712 0
-1429 -623 -713 0
-1429 -623 -716 0
-1429 -623 -717 0
-1429 -624 765 0
-1429 -624 -610 -616 0
-1429 -624 -649 0
-1429 -624 -693 0
-1429 -624 -697 0
-1429 -624 -709 0
-1429 -624 -713 0
-1429 -624 -717 0
-1430 743 0
-1430 760 0
-1430 -617 0
-1430 -618 0
-1430 -619 0
-1430 -625 0
-1430 -622 763 0
-1430 -622 -611 -614 0
-1430 -622 -651 0
-1430 -622 -652 0
-1430 -622 -653 0
-1430 -622 -695 0
-1430 -622 -696 0
-1430 -622 -697 0
-1430 -622 -699 0
-1430 -622 -700 0
-1430 -622 -701 0
-1430 -622 -711 0
-1430 -622 -712 0
-1430 -622 -713 0
-1430 -622 -715 0
-1430 -622 -716 0
-1430 -622 -717 0
-1430 -623 764 0
-1430 -623 -611 -615 0
-1430 -623 -652 0
-1430 -623 -653 0
-1430 -623 -696 0
-1430 -623 -697 0
-1430 -623 -700 0
-1430 -623 -701 0
-1430 -623 -712 0
-1430 -623 -713 0
-1430 -623 -716 0
-1430 -623 -717 0
-1430 -624 765 0
-1430 -624 -611 -616 0
-1430 -624 -653 0
-1430 -624 -697 0
-1430 -624 -701 0
-1430 -624 -713 0
-1430 -624 -717 0
-1431 743 0
-1431 761 0
-1431 -617 0
-1431 -618 0
-1431 -619 0
-1431 -620 0
-1431 -625 0
-1431 -622 763 0
-1431 -622 -612 -614 0
-1431 -622 -655 0
-1431 -622 -656 0
-1431 -622 -657 0
-1431 -622 -699 0
-1431 -622 -700 0
-1431 -622 -701 0
-1431 -622 -715 0
-1431 -622 -716 0
-1431 -622 -717 0
-1431 -623 764 0
-1431 -623 -612 -615 0
-1431 -623 -656 0
-1431 -623 -657 0
-1431 -623 -700 0
-1431 -623 -701 0
-1431 -623 -716 0
-1431 -623 -717 0
-1431 -624 765 0
-1431 -624 -612 -616 0
-1431 -624 -657 0
-1431 -624 -701 0
-1431 -624 -717 0
-1432 743 0
-1432 756 0
-1432 -627 0
-1432 -628 0
-1432 -629 0
-1432 -633 0
-1432 -630 763 0
-1432 -630 -607 -614 0
-1432 -630 -635 0
-1432 -630 -636 0
-1432 -630 -637 0
-1432 -630 -683 0
-1432 -630 -684 0
-1432 -630 -685 0
-1432 -630 -703 0
-1432 -630 -704 0
-1432 -630 -705 0
-1432 -631 764 0
-1432 -631 -607 -615 0
-1432 -631 -636 0
-1432 -631 -637 0
-1432 -631 -684 0
-1432 -631 -685 0
-1432 -631 -704 0
-1432 -631 -705 0
-1432 -632 765 0
-1432 -632 -607 -616 0
-1432 -632 -637 0
-1432 -632 -685 0
-1432 -632 -705 0
-1433 743 0
-1433 757 0
-1433 -628 0
-1433 -629 0
-1433 -633 0
-1433 -630 763 0
-1433 -630 -608 -614 0
-1433 -630 -639 0
-1433 -630 -640 0
-1433 -630 -641 0
-1433 -630 -683 0
-1433 -630 -684 0
-1433 -630 -685 0
-1433 -630 -687 0
-1433 -630 -688 0
-1433 -630 -689 0
-1433 -630 -703 0
-1433 -630 -704 0
-1433 -630 -705 0
-1433 -630 -707 0
-1433 -630 -708 0
-1433 -630 -709 0
-1433 -631 764 0
-1433 -631 -608 -615 0
-1433 -631 -640 0
-1433 -631 -641 0
-1433 -631 -684 0
-1433 -631 -685 0
-1433 -631 -688 0
-1433 -631 -689 0
-1433 -631 -704 0
-1433 -631 -705 0
-1433 -631 -708 0
-1433 -631 -709 0
-1433 -632 765 0
-1433 -632 -608 -616 0
-1433 -632 -641 0
-1433 -632 -685 0
-1433 -632 -689 0
-1433 -632 -705 0
-1433 -632 -709 0
-1434 743 0
-1434 758 0
-1434 -629 0
-1434 -633 0
-1434 -630 763 0
-1434 -630 -609 -614 0
-1434 -630 -643 0
-1434 -630 -644 0
-1434 -630 -645 0
-1434 -630 -687 0
-1434 -630 -688 0
-1434 -630 -689 0
-1434 -630 -691 0
-1434 -630 -692 0
-1434 -630 -693 0
-1434 -630 -703 0
-1434 -630 -704 0
-1434 -630 -705 0
-1434 -630 -707 0
-1434 -630 -708 0
-1434 -630 -709 0
-1434 -630 -711 0
-1434 -630 -712 0
-1434 -630 -713 0
-1434 -631 764 0
-1434 -631 -609 -615 0
-1434 -631 -644 0
-1434 -631 -645 0
-1434 -631 -688 0
-1434 -631 -689 0
-1434 -631 -692 0
-1434 -631 -693 0
-1434 -631 -704 0
-1434 -631 -705 0
-1434 -631 -708 0
-1434 -631 -709 0
-1434 -631 -712 0
-1434 -631 -713 0
-1434 -632 765 0
-1434 -632 -609 -616 0
-1434 -632 -645 0
-1434 -632 -689 0
-1434 -632 -693 0
-1434 -632 -705 0
-1434 -632 -709 0
-1434 -632 -713 0
-1435 743 0
-1435 759 0
-1435 -626 0
-1435 -633 0
-1435 -630 763 0
-1435 -630 -610 -614 0
-1435 -630 -647 0
-1435 -630 -648 0
-1435 -630 -649 0
-1435 -630 -691 0
-1435 -630 -692 0
-1435 -630 -693 0
-1435 -630 -695 0
-1435 -630 -696 0
-1435 -630 -697 0
-1435 -630 -707 0
-1435 -630 -708 0
-1435 -630 -709 0
-1435 -630 -711 0
-1435 -630 -712 0
-1435 -630 -713 0
-1435 -630 -715 0
-1435 -630 -716 0
-1435 -630 -717 0
-1435 -631 764 0
-1435 -631 -610 -615 0
-1435 -631 -648 0
-1435 -631 -649 0
-1435 -631 -692 0
-1435 -631 -693 0
-1435 -631 -696 0
-1435 -631 -697 0
-1435 -631 -708 0
-1435 -631 -709 0
-1435 -631 -712 0
-1435 -631 -713 0
-1435 -631 -716 0
-1435 -631 -717 0
-1435 -632 765 0
-1435 -632 -610 -616 0
-1435 -632 -649 0
-1435 -632 -693 0
-1435 -632 -697 0
-1435 -632 -709 0
-1435 -632 -713 0
-1435 -632 -717 0
-1436 743 0
-1436 760 0
-1436 -626 0
-1436 -627 0
-1436 -633 0
-1436 -630 763 0
-1436 -630 -611 -614 0
-1436 -630 -651 0
-1436 -630 -652 0
-1436 -630 -653 0
-1436 -630 -695 0
-1436 -630 -696 0
-1436 -630 -697 0
-1436 -630 -699 0
-1436 -630 -700 0
-1436 -630 -701 0
-1436 -630 -711 0
-1436 -630 -712 0
-1436 -630 -713 0
-1436 -630 -715 0
-1436 -630 -716 0
-1436 -630 -717 0
-1436 -631 764 0
-1436 -631 -611 -615 0
-1436 -631 -652 0
-1436 -631 -653 0
-1436 -631 -696 0
-1436 -631 -697 0
-1436 -631 -700 0
-1436 -631 -701 0
-1436 -631 -712 0
-1436 -631 -713 0
-1436 -631 -716 0
-1436 -631 -717 0
-1436 -632 765 0
-1436 -632 -611 -616 0
-1436 -632 -653 0
-1436 -632 -697 0
-1436 -632 -701 0
-1436 -632 -713 0
-1436 -632 -717 0
-1437 743 0
-1437 761 0
-1437 -626 0
-1437 -627 0
-1437 -628 0
-1437 -633 0
-1437 -630 763 0
-1437 -630 -612 -614 0
-1437 -630 -655 0
-1437 -630 -656 0
-1437 -630 -657 0
-1437 -630 -699 0
-1437 -630 -700 0
-1437 -630 -701 0
-1437 -630 -715 0
-1437 -630 -716 0
-1437 -630 -717 0
-1437 -631 764 0
-1437 -631 -612 -615 0
-1437 -631 -656 0
-1437 -631 -657 0
-1437 -631 -700 0
-1437 -631 -701 0
-1437 -631 -716 0
-1437 -631 -717 0
-1437 -632 765 0
-1437 -632 -612 -616 0
-1437 -632 -657 0
-1437 -632 -701 0
-1437 -632 -717 0
-1438 743 0
-1438 756 0
-1438 762 0
-1438 -607 -613 0
-1438 -634 0
-1438 -635 0
-1438 -636 0
-1438 -637 0
-1438 -682 0
-1438 -683 0
-1438 -684 0
-1438 -685 0
-1438 -702 0
-1438 -703 0
-1438 -704 0
-1438 -705 0
-1439 743 0
-1439 757 0
-1439 762 0
-1439 -608 -613 0
-1439 -638 0
-1439 -639 0
-1439 -640 0
-1439 -641 0
-1439 -682 0
-1439 -683 0
-1439 -684 0
-1439 -685 0
-1439 -686 0
-1439 -687 0
-1439 -688 0
-1439 -689 0
-1439 -702 0
-1439 -703 0
-1439 -704 0
-1439 -705 0
-1439 -706 0
-1439 -707 0
-1439 -708 0
-1439 -709 0
-1440 743 0
-1440 758 0
-1440 762 0
-1440 -609 -613 0
-1440 -642 0
-1440 -643 0
-1440 -644 0
-1440 -645 0
-1440 -686 0
-1440 -687 0
-1440 -688 0
-1440 -689 0
-1440 -690 0
-1440 -691 0
-1440 -692 0
-1440 -693 0
-1440 -702 0
-1440 -703 0
-1440 -704 0
-1440 -705 0
-1440 -706 0
-1440 -707 0
-1440 -708 0
-1440 -709 0
-1440 -710 0
-1440 -711 0
-1440 -712 0
-1440 -713 0
-1441 743 0
-1441 759 0
-1441 762 0
-1441 -610 -613 0
-1441 -646 0
-1441 -647 0
-1441 -648 0
-1441 -649 0
-1441 -690 0
-1441 -691 0
-1441 -692 0
-1441 -693 0
-1441 -694 0
-1441 -695 0
-1441 -696 0
-1441 -697 0
-1441 -706 0
-1441 -707 0
-1441 -708 0
-1441 -709 0
-1441 -710 0
-1441 -711 0
-1441 -712 0
-1441 -713 0
-1441 -714 0
-1441 -715 0
-1441 -716 0
-1441 -717 0
-1442 743 0
-1442 760 0
-1442 762 0
-1442 -611 -613 0
-1442 -650 0
-1442 -651 0
-1442 -652 0
-1442 -653 0
-1442 -694 0
-1442 -695 0
-1442 -696 0
-1442 -697 0
-1442 -698 0
-1442 -699 0
-1442 -700 0
-1442 -701 0
-1442 -710 0
-1442 -711 0
-1442 -712 0
-1442 -713 0
-1442 -714 0
-1442 -715 0
-1442 -716 0
-1442 -717 0
-1443 743 0
-1443 761 0
-1443 762 0
-1443 -612 -613 0
-1443 -654 0
-1443 -655 0
-1443 -656 0
-1443 -657 0
-1443 -698 0
-1443 -699 0
-1443 -700 0
-1443 -701 0
-1443 -714 0
-1443 -715 0
-1443 -716 0
-1443 -717 0
-1444 744 0
-1444 766 0
-1444 -599 0
-1444 -600 0
-1444 -601 0
-1444 -602 0
-1444 -606 0
-1444 -603 772 0
-1444 -603 -617 -623 0
-1444 -603 -635 0
-1444 -603 -636 0
-1444 -603 -637 0
-1444 -603 -639 0
-1444 -603 -640 0
-1444 -603 -641 0
-1444 -603 -659 0
-1444 -603 -660 0
-1444 -603 -661 0
-1444 -603 -663 0
-1444 -603 -664 0
-1444 -603 -665 0
-1444 -603 -703 0
-1444 -603 -704 0
-1444 -603 -705 0
-1444 -603 -707 0
-1444 -603 -708 0
-1444 -603 -709 0
-1444 -604 773 0
-1444 -604 -617 -624 0
-1444 -604 -636 0
-1444 -604 -637 0
-1444 -604 -640 0
-1444 -604 -641 0
-1444 -604 -660 0
-1444 -604 -661 0
-1444 -604 -664 0
-1444 -604 -665 0
-1444 -604 -704 0
-1444 -604 -705 0
-1444 -604 -708 0
-1444 -604 -709 0
-1444 -605 774 0
-1444 -605 -617 -625 0
-1444 -605 -637 0
-1444 -605 -641 0
-1444 -605 -661 0
-1444 -605 -665 0
-1444 -605 -705 0
-1444 -605 -709 0
-1445 744 0
-1445 767 0
-1445 -597 0
-1445 -600 0
-1445 -601 0
-1445 -602 0
-1445 -606 0
-1445 -603 772 0
-1445 -603 -618 -623 0
-1445 -603 -639 0
-1445 -603 -640 0
-1445 -603 -641 0
-1445 -603 -643 0
-1445 -603 -644 0
-1445 -603 -645 0
-1445 -603 -663 0
-1445 -603 -664 0
-1445 -603 -665 0
-1445 -603 -667 0
-1445 -603 -668 0
-1445 -603 -669 0
-1445 -603 -703 0
-1445 -603 -704 0
-1445 -603 -705 0
-1445 -603 -707 0
-1445 -603 -708 0
-1445 -603 -709 0
-1445 -603 -711 0
-1445 -603 -712 0
-1445 -603 -713 0
-1445 -604 773 0
-1445 -604 -618 -624 0
-1445 -604 -640 0
-1445 -604 -641 0
-1445 -604 -644 0
-1445 -604 -645 0
-1445 -604 -664 0
-1445 -604 -665 0
-1445 -604 -668 0
-1445 -604 -669 0
-1445 -604 -704 0
-1445 -604 -705 0
-1445 -604 -708 0
-1445 -604 -709 0
-1445 -604 -712 0
-1445 -604 -713 0
-1445 -605 774 0
-1445 -605 -618 -625 0
-1445 -605 -641 0
-1445 -605 -645 0
-1445 -605 -665 0
-1445 -605 -669 0
-1445 -605 -705 0
-1445 -605 -709 0
-1445 -605 -713 0
-1446 744 0
-1446 768 0
-1446 -597 0
-1446 -598 0
-1446 -601 0
-1446 -602 0
-1446 -606 0
-1446 -603 772 0
-1446 -603 -619 -623 0
-1446 -603 -643 0
-1446 -603 -644 0
-1446 -603 -645 0
-1446 -603 -647 0
-1446 -603 -648 0
-1446 -603 -649 0
-1446 -603 -667 0
-1446 -603 -668 0
-1446 -603 -669 0
-1446 -603 -671 0
-1446 -603 -672 0
-1446 -603 -673 0
-1446 -603 -703 0
-1446 -603 -704 0
-1446 -603 -705 0
-1446 -603 -707 0
-1446 -603 -708 0
-1446 -603 -709 0
-1446 -603 -711 0
-1446 -603 -712 0
-1446 -603 -713 0
-1446 -603 -715 0
-1446 -603 -716 0
-1446 -603 -717 0
-1446 -604 773 0
-1446 -604 -619 -624 0
-1446 -604 -644 0
-1446 -604 -645 0
-1446 -604 -648 0
-1446 -604 -649 0
-1446 -604 -668 0
-1446 -604 -669 0
-1446 -604 -672 0
-1446 -604 -673 0
-1446 -604 -704 0
-1446 -604 -705 0
-1446 -604 -708 0
-1446 -604 -709 0
-1446 -604 -712 0
-1446 -604 -713 0
-1446 -604 -716 0
-1446 -604 -717 0
-1446 -605 774 0
-1446 -605 -619 -625 0
-1446 -605 -645 0
-1446 -605 -649 0
-1446 -605 -669 0
-1446 -605 -673 0
-1446 -605 -705 0
-1446 -605 -709 0
-1446 -605 -713 0
-1446 -605 -717 0
-1447 744 0
-1447 769 0
-1447 -597 0
-1447 -598 0
-1447 -599 0
-1447 -602 0
-1447 -606 0
-1447 -603 772 0
-1447 -603 -620 -623 0
-1447 -603 -647 0
-1447 -603 -648 0
-1447 -603 -649 0
-1447 -603 -651 0
-1447 -603 -652 0
-1447 -603 -653 0
-1447 -603 -671 0
-1447 -603 -672 0
-1447 -603 -673 0
-1447 -603 -675 0
-1447 -603 -676 0
-1447 -603 -677 0
-1447 -603 -707 0
-1447 -603 -708 0
-1447 -603 -709 0
-1447 -603 -711 0
-1447 -603 -712 0
-1447 -603 -713 0
-1447 -603 -715 0
-1447 -603 -716 0
-1447 -603 -717 0
-1447 -604 773 0
-1447 -604 -620 -624 0
-1447 -604 -648 0
-1447 -604 -649 0
-1447 -604 -652 0
-1447 -604 -653 0
-1447 -604 -672 0
-1447 -604 -673 0
-1447 -604 -676 0
-1447 -604 -677 0
-1447 -604 -708 0
-1447 -604 -709 0
-1447 -604 -712 0
-1447 -604 -713 0
-1447 -604 -716 0
-1447 -604 -717 0
-1447 -605 774 0
-1447 -605 -620 -625 0
-1447 -605 -649 0
-1447 -605 -653 0
-1447 -605 -673 0
-1447 -605 -677 0
-1447 -605 -709 0
-1447 -605 -713 0
-1447 -605 -717 0
-1448 744 0
-1448 770 0
-1448 -597 0
-1448 -598 0
-1448 -599 0
-1448 -600 0
-1448 -606 0
-1448 -603 772 0
-1448 -603 -621 -623 0
-1448 -603 -651 0
-1448 -603 -652 0
-1448 -603 -653 0
-1448 -603 -655 0
-1448 -603 -656 0
-1448 -603 -657 0
-1448 -603 -675 0
-1448 -603 -676 0
-1448 -603 -677 0
-1448 -603 -679 0
-1448 -603 -680 0
-1448 -603 -681 0
-1448 -603 -711 0
-1448 -603 -712 0
-1448 -603 -713 0
-1448 -603 -715 0
-1448 -603 -716 0
-1448 -603 -717 0
-1448 -604 773 0
-1448 -604 -621 -624 0
-1448 -604 -652 0
-1448 -604 -653 0
-1448 -604 -656 0
-1448 -604 -657 0
-1448 -604 -676 0
-1448 -604 -677 0
-1448 -604 -680 0
-1448 -604 -681 0
-1448 -604 -712 0
-1448 -604 -713 0
-1448 -604 -716 0
-1448 -604 -717 0
-1448 -605 774 0
-1448 -605 -621 -625 0
-1448 -605 -653 0
-1448 -605 -657 0
-1448 -605 -677 0
-1448 -605 -681 0
-1448 -605 -713 0
-1448 -605 -717 0
-1449 744 0
-1449 766 0
-1449 -609 0
-1449 -610 0
-1449 -611 0
-1449 -612 0
-1449 -616 0
-1449 -613 772 0
-1449 -613 -617 -623 0
-1449 -613 -635 0
-1449 -613 -636 0
-1449 -613 -637 0
-1449 -613 -639 0
-1449 -613 -640 0
-1449 -613 -641 0
-1449 -613 -659 0
-1449 -613 -660 0
-1449 -613 -661 0
-1449 -613 -663 0
-1449 -613 -664 0
-1449 -613 -665 0
-1449 -613 -703 0
-1449 -613 -704 0
-1449 -613 -705 0
-1449 -613 -707 0
-1449 -613 -708 0
-1449 -613 -709 0
-1449 -614 773 0
-1449 -614 -617 -624 0
-1449 -614 -636 0
-1449 -614 -637 0
-1449 -614 -640 0
-1449 -614 -641 0
-1449 -614 -660 0
-1449 -614 -661 0
-1449 -614 -664 0
-1449 -614 -665 0
-1449 -614 -704 0
-1449 -614 -705 0
-1449 -614 -708 0
-1449 -614 -709 0
-1449 -615 774 0
-1449 -615 -617 -625 0
-1449 -615 -637 0
-1449 -615 -641 0
-1449 -615 -661 0
-1449 -615 -665 0
-1449 -615 -705 0
-1449 -615 -709 0
-1450 744 0
-1450 767 0
-1450 -607 0
-1450 -610 0
-1450 -611 0
-1450 -612 0
-1450 -616 0
-1450 -613 772 0
-1450 -613 -618 -623 0
-1450 -613 -639 0
-1450 -613 -640 0
-1450 -613 -641 0
-1450 -613 -643 0
-1450 -613 -644 0
-1450 -613 -645 0
-1450 -613 -663 0
-1450 -613 -664 0
-1450 -613 -665 0
-1450 -613 -667 0
-1450 -613 -668 0
-1450 -613 -669 0
-1450 -613 -703 0
-1450 -613 -704 0
-1450 -613 -705 0
-1450 -613 -707 0
-1450 -613 -708 0
-1450 -613 -709 0
-1450 -613 -711 0
-1450 -613 -712 0
-1450 -613 -713 0
-1450 -614 773 0
-1450 -614 -618 -624 0
-1450 -614 -640 0
-1450 -614 -641 0
-1450 -614 -644 0
-1450 -614 -645 0
-1450 -614 -664 0
-1450 -614 -665 0
-1450 -614 -668 0
-1450 -614 -669 0
-1450 -614 -704 0
-1450 -614 -705 0
-1450 -614 -708 0
-1450 -614 -709 0
-1450 -614 -712 0
-1450 -614 -713 0
-1450 -615 774 0
-1450 -615 -618 -625 0
-1450 -615 -641 0
-1450 -615 -645 0
-1450 -615 -665 0
-1450 -615 -669 0
-1450 -615 -705 0
-1450 -615 -709 0
-1450 -615 -713 0
-1451 744 0
-1451 768 0
-1451 -607 0
-1451 -608 0
-1451 -611 0
-1451 -612 0
-1451 -616 0
-1451 -613 772 0
-1451 -613 -619 -623 0
-1451 -613 -643 0
-1451 -613 -644 0
-1451 -613 -645 0
-1451 -613 -647 0
-1451 -613 -648 0
-1451 -613 -649 0
-1451 -613 -667 0
-1451 -613 -668 0
-1451 -613 -669 0
-1451 -613 -671 0
-1451 -613 -672 0
-1451 -613 -673 0
-1451 -613 -703 0
-1451 -613 -704 0
-1451 -613 -705 0
-1451 -613 -707 0
-1451 -613 -708 0
-1451 -613 -709 0
-1451 -613 -711 0
-1451 -613 -712 0
-1451 -613 -713 0
-1451 -613 -715 0
-1451 -613 -716 0
-1451 -613 -717 0
-1451 -614 773 0
-1451 -614 -619 -624 0
-1451 -614 -644 0
-1451 -614 -645 0
-1451 -614 -648 0
-1451 -614 -649 0
-1451 -614 -668 0
-1451 -614 -669 0
-1451 -614 -672 0
-1451 -614 -673 0
-1451 -614 -704 0
-1451 -614 -705 0
-1451 -614 -708 0
-1451 -614 -709 0
-1451 -614 -712 0
-1451 -614 -713 0
-1451 -614 -716 0
-1451 -614 -717 0
-1451 -615 774 0
-1451 -615 -619 -625 0
-1451 -615 -645 0
-1451 -615 -649 0
-1451 -615 -669 0
-1451 -615 -673 0
-1451 -615 -705 0
-1451 -615 -709 0
-1451 -615 -713 0
-1451 -615 -717 0
-1452 744 0
-1452 769 0
-1452 -607 0
-1452 -608 0
-1452 -609 0
-1452 -612 0
-1452 -616 0
-1452 -613 772 0
-1452 -613 -620 -623 0
-1452 -613 -647 0
-1452 -613 -648 0
-1452 -613 -649 0
-1452 -613 -651 0
-1452 -613 -652 0
-1452 -613 -653 0
-1452 -613 -671 0
-1452 -613 -672 0
-1452 -613 -673 0
-1452 -613 -675 0
-1452 -613 -676 0
-1452 -613 -677 0
-1452 -613 -707 0
-1452 -613 -708 0
-1452 -613 -709 0
-1452 -613 -711 0
-1452 -613 -712 0
-1452 -613 -713 0
-1452 -613 -715 0
-1452 -613 -716 0
-1452 -613 -717 0
-1452 -614 773 0
-1452 -614 -620 -624 0
-1452 -614 -648 0
-1452 -614 -649 0
-1452 -614 -652 0
-1452 -614 -653 0
-1452 -614 -672 0
-1452 -614 -673 0
-1452 -614 -676 0
-1452 -614 -677 0
-1452 -614 -708 0
-1452 -614 -709 0
-1452 -614 -712 0
-1452 -614 -713 0
-1452 -614 -716 0
-1452 -614 -717 0
-1452 -615 774 0
-1452 -615 -620 -625 0
-1452 -615 -649 0
-1452 -615 -653 0
-1452 -615 -673 0
-1452 -615 -677 0
-1452 -615 -709 0
-1452 -615 -713 0
-1452 -615 -717 0
-1453 744 0
-1453 770 0
-1453 -607 0
-1453 -608 0
-1453 -609 0
-1453 -610 0
-1453 -616 0
-1453 -613 772 0
-1453 -613 -621 -623 0
-1453 -613 -651 0
-1453 -613 -652 0
-1453 -613 -653 0
-1453 -613 -655 0
-1453 -613 -656 0
-1453 -613 -657 0
-1453 -613 -675 0
-1453 -613 -676 0
-1453 -613 -677 0
-1453 -613 -679 0
-1453 -613 -680 0
-1453 -613 -681 0
-1453 -613 -711 0
-1453 -613 -712 0
-1453 -613 -713 0
-1453 -613 -715 0
-1453 -613 -716 0
-1453 -613 -717 0
-1453 -614 773 0
-1453 -614 -621 -624 0
-1453 -614 -652 0
-1453 -614 -653 0
-1453 -614 -656 0
-1453 -614 -657 0
-1453 -614 -676 0
-1453 -614 -677 0
-1453 -614 -680 0
-1453 -614 -681 0
-1453 -614 -712 0
-1453 -614 -713 0
-1453 -614 -716 0
-1453 -614 -717 0
-1453 -615 774 0
-1453 -615 -621 -625 0
-1453 -615 -653 0
-1453 -615 -657 0
-1453 -615 -677 0
-1453 -615 -681 0
-1453 -615 -713 0
-1453 -615 -717 0
-1454 744 0
-1454 766 0
-1454 -628 0
-1454 -629 0
-1454 -633 0
-1454 -630 772 0
-1454 -630 -617 -623 0
-1454 -630 -635 0
-1454 -630 -636 0
-1454 -630 -637 0
-1454 -630 -639 0
-1454 -630 -640 0
-1454 -630 -641 0
-1454 -630 -659 0
-1454 -630 -660 0
-1454 -630 -661 0
-1454 -630 -663 0
-1454 -630 -664 0
-1454 -630 -665 0
-1454 -630 -703 0
-1454 -630 -704 0
-1454 -630 -705 0
-1454 -630 -707 0
-1454 -630 -708 0
-1454 -630 -709 0
-1454 -631 773 0
-1454 -631 -617 -624 0
-1454 -631 -636 0
-1454 -631 -637 0
-1454 -631 -640 0
-1454 -631 -641 0
-1454 -631 -660 0
-1454 -631 -661 0
-1454 -631 -664 0
-1454 -631 -665 0
-1454 -631 -704 0
-1454 -631 -705 0
-1454 -631 -708 0
-1454 -631 -709 0
-1454 -632 774 0
-1454 -632 -617 -625 0
-1454 -632 -637 0
-1454 -632 -641 0
-1454 -632 -661 0
-1454 -632 -665 0
-1454 -632 -705 0
-1454 -632 -709 0
-1455 744 0
-1455 767 0
-1455 -629 0
-1455 -633 0
-1455 -630 772 0
-1455 -630 -618 -623 0
-1455 -630 -639 0
-1455 -630 -640 0
-1455 -630 -641 0
-1455 -630 -643 0
-1455 -630 -644 0
-1455 -630 -645 0
-1455 -630 -663 0
-1455 -630 -664 0
-1455 -630 -665 0
-1455 -630 -667 0
-1455 -630 -668 0
-1455 -630 -669 0
-1455 -630 -703 0
-1455 -630 -704 0
-1455 -630 -705 0
-1455 -630 -707 0
-1455 -630 -708 0
-1455 -630 -709 0
-1455 -630 -711 0
-1455 -630 -712 0
-1455 -630 -713 0
-1455 -631 773 0
-1455 -631 -618 -624 0
-1455 -631 -640 0
-1455 -631 -641 0
-1455 -631 -644 0
-1455 -631 -645 0
-1455 -631 -664 0
-1455 -631 -665 0
-1455 -631 -668 0
-1455 -631 -669 0
-1455 -631 -704 0
-1455 -631 -705 0
-1455 -631 -708 0
-1455 -631 -709 0
-1455 -631 -712 0
-1455 -631 -713 0
-1455 -632 774 0
-1455 -632 -618 -625 0
-1455 -632 -641 0
-1455 -632 -645 0
-1455 -632 -665 0
-1455 -632 -669 0
-1455 -632 -705 0
-1455 -632 -709 0
-1455 -632 -713 0
-1456 744 0
-1456 768 0
-1456 -633 0
-1456 -630 772 0
-1456 -630 -619 -623 0
-1456 -630 -643 0
-1456 -630 -644 0
-1456 -630 -645 0
-1456 -630 -647 0
-1456 -630 -648 0
-1456 -630 -649 0
-1456 -630 -667 0
-1456 -630 -668 0
-1456 -630 -669 0
-1456 -630 -671 0
-1456 -630 -672 0
-1456 -630 -673 0
-1456 -630 -703 0
-1456 -630 -704 0
-1456 -630 -705 0
-1456 -630 -707 0
-1456 -630 -708 0
-1456 -630 -709 0
-1456 -630 -711 0
-1456 -630 -712 0
-1456 -630 -713 0
-1456 -630 -715 0
-1456 -630 -716 0
-1456 -630 -717 0
-1456 -631 773 0
-1456 -631 -619 -624 0
-1456 -631 -644 0
-1456 -631 -645 0
-1456 -631 -648 0
-1456 -631 -649 0
-1456 -631 -668 0
-1456 -631 -669 0
-1456 -631 -672 0
-1456 -631 -673 0
-1456 -631 -704 0
-1456 -631 -705 0
-1456 -631 -708 0
-1456 -631 -709 0
-1456 -631 -712 0
-1456 -631 -713 0
-1456 -631 -716 0
-1456 -631 -717 0
-1456 -632 774 0
-1456 -632 -619 -625 0
-1456 -632 -645 0
-1456 -632 -649 0
-1456 -632 -669 0
-1456 -632 -673 0
-1456 -632 -705 0
-1456 -632 -709 0
-1456 -632 -713 0
-1456 -632 -717 0
-1457 744 0
-1457 769 0
-1457 -626 0
-1457 -633 0
-1457 -630 772 0
-1457 -630 -620 -623 0
-1457 -630 -647 0
-1457 -630 -648 0
-1457 -630 -649 0
-1457 -630 -651 0
-1457 -630 -652 0
-1457 -630 -653 0
-1457 -630 -671 0
-1457 -630 -672 0
-1457 -630 -673 0
-1457 -630 -675 0
-1457 -630 -676 0
-1457 -630 -677 0
-1457 -630 -707 0
-1457 -630 -708 0
-1457 -630 -709 0
-1457 -630 -711 0
-1457 -630 -712 0
-1457 -630 -713 0
-1457 -630 -715 0
-1457 -630 -716 0
-1457 -630 -717 0
-1457 -631 773 0
-1457 -631 -620 -624 0
-1457 -631 -648 0
-1457 -631 -649 0
-1457 -631 -652 0
-1457 -631 -653 0
-1457 -631 -672 0
-1457 -631 -673 0
-1457 -631 -676 0
-1457 -631 -677 0
-1457 -631 -708 0
-1457 -631 -709 0
-1457 -631 -712 0
-1457 -631 -713 0
-1457 -631 -716 0
-1457 -631 -717 0
-1457 -632 774 0
-1457 -632 -620 -625 0
-1457 -632 -649 0
-1457 -632 -653 0
-1457 -632 -673 0
-1457 -632 -677 0
-1457 -632 -709 0
-1457 -632 -713 0
-1457 -632 -717 0
-1458 744 0
-1458 770 0
-1458 -626 0
-1458 -627 0
-1458 -633 0
-1458 -630 772 0
-1458 -630 -621 -623 0
-1458 -630 -651 0
-1458 -630 -652 0
-1458 -630 -653 0
-1458 -630 -655 0
-1458 -630 -656 0
-1458 -630 -657 0
-1458 -630 -675 0
-1458 -630 -676 0
-1458 -630 -677 0
-1458 -630 -679 0
-1458 -630 -680 0
-1458 -630 -681 0
-1458 -630 -711 0
-1458 -630 -712 0
-1458 -630 -713 0
-1458 -630 -715 0
-1458 -630 -716 0
-1458 -630 -717 0
-1458 -631 773 0
-1458 -631 -621 -624 0
-1458 -631 -652 0
-1458 -631 -653 0
-1458 -631 -656 0
-1458 -631 -657 0
-1458 -631 -676 0
-1458 -631 -677 0
-1458 -631 -680 0
-1458 -631 -681 0
-1458 -631 -712 0
-1458 -631 -713 0
-1458 -631 -716 0
-1458 -631 -717 0
-1458 -632 774 0
-1458 -632 -621 -625 0
-1458 -632 -653 0
-1458 -632 -657 0
-1458 -632 -677 0
-1458 -632 -681 0
-1458 -632 -713 0
-1458 -632 -717 0
-1459 744 0
-1459 766 0
-1459 771 0
-1459 -617 -622 0
-1459 -634 0
-1459 -635 0
-1459 -636 0
-1459 -637 0
-1459 -638 0
-1459 -639 0
-1459 -640 0
-1459 -641 0
-1459 -658 0
-1459 -659 0
-1459 -660 0
-1459 -661 0
-1459 -662 0
-1459 -663 0
-1459 -664 0
-1459 -665 0
-1459 -702 0
-1459 -703 0
-1459 -704 0
-1459 -705 0
-1459 -706 0
-1459 -707 0
-1459 -708 0
-1459 -709 0
-1460 744 0
-1460 767 0
-1460 771 0
-1460 -618 -622 0
-1460 -638 0
-1460 -639 0
-1460 -640 0
-1460 -641 0
-1460 -642 0
-1460 -643 0
-1460 -644 0
-1460 -645 0
-1460 -662 0
-1460 -663 0
-1460 -664 0
-1460 -665 0
-1460 -666 0
-1460 -667 0
-1460 -668 0
-1460 -669 0
-1460 -702 0
-1460 -703 0
-1460 -704 0
-1460 -705 0
-1460 -706 0
-1460 -707 0
-1460 -708 0
-1460 -709 0
-1460 -710 0
-1460 -711 0
-1460 -712 0
-1460 -713 0
-1461 744 0
-1461 768 0
-1461 771 0
-1461 -619 -622 0
-1461 -642 0
-1461 -643 0
-1461 -644 0
-1461 -645 0
-1461 -646 0
-1461 -647 0
-1461 -648 0
-1461 -649 0
-1461 -666 0
-1461 -667 0
-1461 -668 0
-1461 -669 0
-1461 -670 0
-1461 -671 0
-1461 -672 0
-1461 -673 0
-1461 -702 0
-1461 -703 0
-1461 -704 0
-1461 -705 0
-1461 -706 0
-1461 -707 0
-1461 -708 0
-1461 -709 0
-1461 -710 0
-1461 -711 0
-1461 -712 0
-1461 -713 0
-1461 -714 0
-1461 -715 0
-1461 -716 0
-1461 -717 0
-1462 744 0
-1462 769 0
-1462 771 0
-1462 -620 -622 0
-1462 -646 0
-1462 -647 0
-1462 -648 0
-1462 -649 0
-1462 -650 0
-1462 -651 0
-1462 -652 0
-1462 -653 0
-1462 -670 0
-1462 -671 0
-1462 -672 0
-1462 -673 0
-1462 -674 0
-1462 -675 0
-1462 -676 0
-1462 -677 0
-1462 -706 0
-1462 -707 0
-1462 -708 0
-1462 -709 0
-1462 -710 0
-1462 -711 0
-1462 -712 0
-1462 -713 0
-1462 -714 0
-1462 -715 0
-1462 -716 0
-1462 -717 0
-1463 744 0
-1463 770 0
-1463 771 0
-1463 -621 -622 0
-1463 -650 0
-1463 -651 0
-1463 -652 0
-1463 -653 0
-1463 -654 0
-1463 -655 0
-1463 -656 0
-1463 -657 0
-1463 -674 0
-1463 -675 0
-1463 -676 0
-1463 -677 0
-1463 -678 0
-1463 -679 0
-1463 -680 0
-1463 -681 0
-1463 -710 0
-1463 -711 0
-1463 -712 0
-1463 -713 0
-1463 -714 0
-1463 -715 0
-1463 -716 0
-1463 -717 0
-1464 745 0
-1464 775 0
-1464 -600 0
-1464 -601 0
-1464 -602 0
-1464 -606 0
-1464 -603 780 0
-1464 -603 -626 -631 0
-1464 -603 -635 0
-1464 -603 -636 0
-1464 -603 -637 0
-1464 -603 -639 0
-1464 -603 -640 0
-1464 -603 -641 0
-1464 -603 -643 0
-1464 -603 -644 0
-1464 -603 -645 0
-1464 -603 -659 0
-1464 -603 -660 0
-1464 -603 -661 0
-1464 -603 -663 0
-1464 -603 -664 0
-1464 -603 -665 0
-1464 -603 -667 0
-1464 -603 -668 0
-1464 -603 -669 0
-1464 -603 -683 0
-1464 -603 -684 0
-1464 -603 -685 0
-1464 -603 -687 0
-1464 -603 -688 0
-1464 -603 -689 0
-1464 -603 -691 0
-1464 -603 -692 0
-1464 -603 -693 0
-1464 -604 781 0
-1464 -604 -626 -632 0
-1464 -604 -636 0
-1464 -604 -637 0
-1464 -604 -640 0
-1464 -604 -641 0
-1464 -604 -644 0
-1464 -604 -645 0
-1464 -604 -660 0
-1464 -604 -661 0
-1464 -604 -664 0
-1464 -604 -665 0
-1464 -604 -668 0
-1464 -604 -669 0
-1464 -604 -684 0
-1464 -604 -685 0
-1464 -604 -688 0
-1464 -604 -689 0
-1464 -604 -692 0
-1464 -604 -693 0
-1464 -605 782 0
-1464 -605 -626 -633 0
-1464 -605 -637 0
-1464 -605 -641 0
-1464 -605 -645 0
-1464 -605 -661 0
-1464 -605 -665 0
-1464 -605 -669 0
-1464 -605 -685 0
-1464 -605 -689 0
-1464 -605 -693 0
-1465 745 0
-1465 776 0
-1465 -597 0
-1465 -601 0
-1465 -602 0
-1465 -606 0
-1465 -603 780 0
-1465 -603 -627 -631 0
-1465 -603 -639 0
-1465 -603 -640 0
-1465 -603 -641 0
-1465 -603 -643 0
-1465 -603 -644 0
-1465 -603 -645 0
-1465 -603 -647 0
-1465 -603 -648 0
-1465 -603 -649 0
-1465 -603 -663 0
-1465 -603 -664 0
-1465 -603 -665 0
-1465 -603 -667 0
-1465 -603 -668 0
-1465 -603 -669 0
-1465 -603 -671 0
-1465 -603 -672 0
-1465 -603 -673 0
-1465 -603 -683 0
-1465 -603 -684 0
-1465 -603 -685 0
-1465 -603 -687 0
-1465 -603 -688 0
-1465 -603 -689 0
-1465 -603 -691 0
-1465 -603 -692 0
-1465 -603 -693 0
-1465 -603 -695 0
-1465 -603 -696 0
-1465 -603 -697 0
-1465 -604 781 0
-1465 -604 -627 -632 0
-1465 -604 -640 0
-1465 -604 -641 0
-1465 -604 -644 0
-1465 -604 -645 0
-1465 -604 -648 0
-1465 -604 -649 0
-1465 -604 -664 0
-1465 -604 -665 0
-1465 -604 -668 0
-1465 -604 -669 0
-1465 -604 -672 0
-1465 -604 -673 0
-1465 -604 -684 0
-1465 -604 -685 0
-1465 -604 -688 0
-1465 -604 -689 0
-1465 -604 -692 0
-1465 -604 -693 0
-1465 -604 -696 0
-1465 -604 -697 0
-1465 -605 782 0
-1465 -605 -627 -633 0
-1465 -605 -641 0
-1465 -605 -645 0
-1465 -605 -649 0
-1465 -605 -665 0
-1465 -605 -669 0
-1465 -605 -673 0
-1465 -605 -685 0
-1465 -605 -689 0
-1465 -605 -693 0
-1465 -605 -697 0
-1466 745 0
-1466 777 0
-1466 -597 0
-1466 -598 0
-1466 -602 0
-1466 -606 0
-1466 -603 780 0
-1466 -603 -628 -631 0
-1466 -603 -643 0
-1466 -603 -644 0
-1466 -603 -645 0
-1466 -603 -647 0
-1466 -603 -648 0
-1466 -603 -649 0
-1466 -603 -651 0
-1466 -603 -652 0
-1466 -603 -653 0
-1466 -603 -667 0
-1466 -603 -668 0
-1466 -603 -669 0
-1466 -603 -671 0
-1466 -603 -672 0
-1466 -603 -673 0
-1466 -603 -675 0
-1466 -603 -676 0
-1466 -603 -677 0
-1466 -603 -687 0
-1466 -603 -688 0
-1466 -603 -689 0
-1466 -603 -691 0
-1466 -603 -692 0
-1466 -603 -693 0
-1466 -603 -695 0
-1466 -603 -696 0
-1466 -603 -697 0
-1466 -603 -699 0
-1466 -603 -700 0
-1466 -603 -701 0
-1466 -604 781 0
-1466 -604 -628 -632 0
-1466 -604 -644 0
-1466 -604 -645 0
-1466 -604 -648 0
-1466 -604 -649 0
-1466 -604 -652 0
-1466 -604 -653 0
-1466 -604 -668 0
-1466 -604 -669 0
-1466 -604 -672 0
-1466 -604 -673 0
-1466 -604 -676 0
-1466 -604 -677 0
-1466 -604 -688 0
-1466 -604 -689 0
-1466 -604 -692 0
-1466 -604 -693 0
-1466 -604 -696 0
-1466 -604 -697 0
-1466 -604 -700 0
-1466 -604 -701 0
-1466 -605 782 0
-1466 -605 -628 -633 0
-1466 -605 -645 0
-1466 -605 -649 0
-1466 -605 -653 0
-1466 -605 -669 0
-1466 -605 -673 0
-1466 -605 -677 0
-1466 -605 -689 0
-1466 -605 -693 0
-1466 -605 -697 0
-1466 -605 -701 0
-1467 745 0
-1467 778 0
-1467 -597 0
-1467 -598 0
-1467 -599 0
-1467 -606 0
-1467 -603 780 0
-1467 -603 -629 -631 0
-1467 -603 -647 0
-1467 -603 -648 0
-1467 -603 -649 0
-1467 -603 -651 0
-1467 -603 -652 0
-1467 -603 -653 0
-1467 -603 -655 0
-1467 -603 -656 0
-1467 -603 -657 0
-1467 -603 -671 0
-1467 -603 -672 0
-1467 -603 -673 0
-1467 -603 -675 0
-1467 -603 -676 0
-1467 -603 -677 0
-1467 -603 -679 0
-1467 -603 -680 0
-1467 -603 -681 0
-1467 -603 -691 0
-1467 -603 -692 0
-1467 -603 -693 0
-1467 -603 -695 0
-1467 -603 -696 0
-1467 -603 -697 0
-1467 -603 -699 0
-1467 -603 -700 0
-1467 -603 -701 0
-1467 -604 781 0
-1467 -604 -629 -632 0
-1467 -604 -648 0
-1467 -604 -649 0
-1467 -604 -652 0
-1467 -604 -653 0
-1467 -604 -656 0
-1467 -604 -657 0
-1467 -604 -672 0
-1467 -604 -673 0
-1467 -604 -676 0
-1467 -604 -677 0
-1467 -604 -680 0
-1467 -604 -681 0
-1467 -604 -692 0
-1467 -604 -693 0
-1467 -604 -696 0
-1467 -604 -697 0
-1467 -604 -700 0
-1467 -604 -701 0
-1467 -605 782 0
-1467 -605 -629 -633 0
-1467 -605 -649 0
-1467 -605 -653 0
-1467 -605 -657 0
-1467 -605 -673 0
-1467 -605 -677 0
-1467 -605 -681 0
-1467 -605 -693 0
-1467 -605 -697 0
-1467 -605 -701 0
-1468 745 0
-1468 775 0
-1468 -610 0
-1468 -611 0
-1468 -612 0
-1468 -616 0
-1468 -613 780 0
-1468 -613 -626 -631 0
-1468 -613 -635 0
-1468 -613 -636 0
-1468 -613 -637 0
-1468 -613 -639 0
-1468 -613 -640 0
-1468 -613 -641 0
-1468 -613 -643 0
-1468 -613 -644 0
-1468 -613 -645 0
-1468 -613 -659 0
-1468 -613 -660 0
-1468 -613 -661 0
-1468 -613 -663 0
-1468 -613 -664 0
-1468 -613 -665 0
-1468 -613 -667 0
-1468 -613 -668 0
-1468 -613 -669 0
-1468 -613 -683 0
-1468 -613 -684 0
-1468 -613 -685 0
-1468 -613 -687 0
-1468 -613 -688 0
-1468 -613 -689 0
-1468 -613 -691 0
-1468 -613 -692 0
-1468 -613 -693 0
-1468 -614 781 0
-1468 -614 -626 -632 0
-1468 -614 -636 0
-1468 -614 -637 0
-1468 -614 -640 0
-1468 -614 -641 0
-1468 -614 -644 0
-1468 -614 -645 0
-1468 -614 -660 0
-1468 -614 -661 0
-1468 -614 -664 0
-1468 -614 -665 0
-1468 -614 -668 0
-1468 -614 -669 0
-1468 -614 -684 0
-1468 -614 -685 0
-1468 -614 -688 0
-1468 -614 -689 0
-1468 -614 -692 0
-1468 -614 -693 0
-1468 -615 782 0
-1468 -615 -626 -633 0
-1468 -615 -637 0
-1468 -615 -641 0
-1468 -615 -645 0
-1468 -615 -661 0
-1468 -615 -665 0
-1468 -615 -669 0
-1468 -615 -685 0
-1468 -615 -689 0
-1468 -615 -693 0
-1469 745 0
-1469 776 0
-1469 -607 0
-1469 -611 0
-1469 -612 0
-1469 -616 0
-1469 -613 780 0
-1469 -613 -627 -631 0
-1469 -613 -639 0
-1469 -613 -640 0
-1469 -613 -641 0
-1469 -613 -643 0
-1469 -613 -644 0
-1469 -613 -645 0
-1469 -613 -647 0
-1469 -613 -648 0
-1469 -613 -649 0
-1469 -613 -663 0
-1469 -613 -664 0
-1469 -613 -665 0
-1469 -613 -667 0
-1469 -613 -668 0
-1469 -613 -669 0
-1469 -613 -671 0
-1469 -613 -672 0
-1469 -613 -673 0
-1469 -613 -683 0
-1469 -613 -684 0
-1469 -613 -685 0
-1469 -613 -687 0
-1469 -613 -688 0
-1469 -613 -689 0
-1469 -613 -691 0
-1469 -613 -692 0
-1469 -613 -693 0
-1469 -613 -695 0
-1469 -613 -696 0
-1469 -613 -697 0
-1469 -614 781 0
-1469 -614 -627 -632 0
-1469 -614 -640 0
-1469 -614 -641 0
-1469 -614 -644 0
-1469 -614 -645 0
-1469 -614 -648 0
-1469 -614 -649 0
-1469 -614 -664 0
-1469 -614 -665 0
-1469 -614 -668 0
-1469 -614 -669 0
-1469 -614 -672 0
-1469 -614 -673 0
-1469 -614 -684 0
-1469 -614 -685 0
-1469 -614 -688 0
-1469 -614 -689 0
-1469 -614 -692 0
-1469 -614 -693 0
-1469 -614 -696 0
-1469 -614 -697 0
-1469 -615 782 0
-1469 -615 -627 -633 0
-1469 -615 -641 0
-1469 -615 -645 0
-1469 -615 -649 0
-1469 -615 -665 0
-1469 -615 -669 0
-1469 -615 -673 0
-1469 -615 -685 0
-1469 -615 -689 0
-1469 -615 -693 0
-1469 -615 -697 0
-1470 745 0
-1470 777 0
-1470 -607 0
-1470 -608 0
-1470 -612 0
-1470 -616 0
-1470 -613 780 0
-1470 -613 -628 -631 0
-1470 -613 -643 0
-1470 -613 -644 0
-1470 -613 -645 0
-1470 -613 -647 0
-1470 -613 -648 0
-1470 -613 -649 0
-1470 -613 -651 0
-1470 -613 -652 0
-1470 -613 -653 0
-1470 -613 -667 0
-1470 -613 -668 0
-1470 -613 -669 0
-1470 -613 -671 0
-1470 -613 -672 0
-1470 -613 -673 0
-1470 -613 -675 0
-1470 -613 -676 0
-1470 -613 -677 0
-1470 -613 -687 0
-1470 -613 -688 0
-1470 -613 -689 0
-1470 -613 -691 0
-1470 -613 -692 0
-1470 -613 -693 0
-1470 -613 -695 0
-1470 -613 -696 0
-1470 -613 -697 0
-1470 -613 -699 0
-1470 -613 -700 0
-1470 -613 -701 0
-1470 -614 781 0
-1470 -614 -628 -632 0
-1470 -614 -644 0
-1470 -614 -645 0
-1470 -614 -648 0
-1470 -614 -649 0
-1470 -614 -652 0
-1470 -614 -653 0
-1470 -614 -668 0
-1470 -614 -669 0
-1470 -614 -672 0
-1470 -614 -673 0
-1470 -614 -676 0
-1470 -614 -677 0
-1470 -614 -688 0
-1470 -614 -689 0
-1470 -614 -692 0
-1470 -614 -693 0
-1470 -614 -696 0
-1470 -614 -697 0
-1470 -614 -700 0
-1470 -614 -701 0
-1470 -615 782 0
-1470 -615 -628 -633 0
-1470 -615 -645 0
-1470 -615 -649 0
-1470 -615 -653 0
-1470 -615 -669 0
-1470 -615 -673 0
-1470 -615 -677 0
-1470 -615 -689 0
-1470 -615 -693 0
-1470 -615 -697 0
-1470 -615 -701 0
-1471 745 0
-1471 778 0
-1471 -607 0
-1471 -608 0
-1471 -609 0
-1471 -616 0
-1471 -613 780 0
-1471 -613 -629 -631 0
-1471 -613 -647 0
-1471 -613 -648 0
-1471 -613 -649 0
-1471 -613 -651 0
-1471 -613 -652 0
-1471 -613 -653 0
-1471 -613 -655 0
-1471 -613 -656 0
-1471 -613 -657 0
-1471 -613 -671 0
-1471 -613 -672 0
-1471 -613 -673 0
-1471 -613 -675 0
-1471 -613 -676 0
-1471 -613 -677 0
-1471 -613 -679 0
-1471 -613 -680 0
-1471 -613 -681 0
-1471 -613 -691 0
-1471 -613 -692 0
-1471 -613 -693 0
-1471 -613 -695 0
-1471 -613 -696 0
-1471 -613 -697 0
-1471 -613 -699 0
-1471 -613 -700 0
-1471 -613 -701 0
-1471 -614 781 0
-1471 -614 -629 -632 0
-1471 -614 -648 0
-1471 -614 -649 0
-1471 -614 -652 0
-1471 -614 -653 0
-1471 -614 -656 0
-1471 -614 -657 0
-1471 -614 -672 0
-1471 -614 -673 0
-1471 -614 -676 0
-1471 -614 -677 0
-1471 -614 -680 0
-1471 -614 -681 0
-1471 -614 -692 0
-1471 -614 -693 0
-1471 -614 -696 0
-1471 -614 -697 0
-1471 -614 -700 0
-1471 -614 -701 0
-1471 -615 782 0
-1471 -615 -629 -633 0
-1471 -615 -649 0
-1471 -615 -653 0
-1471 -615 -657 0
-1471 -615 -673 0
-1471 -615 -677 0
-1471 -615 -681 0
-1471 -615 -693 0
-1471 -615 -697 0
-1471 -615 -701 0
-1472 745 0
-1472 775 0
-1472 -620 0
-1472 -621 0
-1472 -625 0
-1472 -622 780 0
-1472 -622 -626 -631 0
-1472 -622 -635 0
-1472 -622 -636 0
-1472 -622 -637 0
-1472 -622 -639 0
-1472 -622 -640 0
-1472 -622 -641 0
-1472 -622 -643 0
-1472 -622 -644 0
-1472 -622 -645 0
-1472 -622 -659 0
-1472 -622 -660 0
-1472 -622 -661 0
-1472 -622 -663 0
-1472 -622 -664 0
-1472 -622 -665 0
-1472 -622 -667 0
-1472 -622 -668 0
-1472 -622 -669 0
-1472 -622 -683 0
-1472 -622 -684 0
-1472 -622 -685 0
-1472 -622 -687 0
-1472 -622 -688 0
-1472 -622 -689 0
-1472 -622 -691 0
-1472 -622 -692 0
-1472 -622 -693 0
-1472 -623 781 0
-1472 -623 -626 -632 0
-1472 -623 -636 0
-1472 -623 -637 0
-1472 -623 -640 0
-1472 -623 -641 0
-1472 -623 -644 0
-1472 -623 -645 0
-1472 -623 -660 0
-1472 -623 -661 0
-1472 -623 -664 0
-1472 -623 -665 0
-1472 -623 -668 0
-1472 -623 -669 0
-1472 -623 -684 0
-1472 -623 -685 0
-1472 -623 -688 0
-1472 -623 -689 0
-1472 -623 -692 0
-1472 -623 -693 0
-1472 -624 782 0
-1472 -624 -626 -633 0
-1472 -624 -637 0
-1472 -624 -641 0
-1472 -624 -645 0
-1472 -624 -661 0
-1472 -624 -665 0
-1472 -624 -669 0
-1472 -624 -685 0
-1472 -624 -689 0
-1472 -624 -693 0
-1473 745 0
-1473 776 0
-1473 -621 0
-1473 -625 0
-1473 -622 780 0
-1473 -622 -627 -631 0
-1473 -622 -639 0
-1473 -622 -640 0
-1473 -622 -641 0
-1473 -622 -643 0
-1473 -622 -644 0
-1473 -622 -645 0
-1473 -622 -647 0
-1473 -622 -648 0
-1473 -622 -649 0
-1473 -622 -663 0
-1473 -622 -664 0
-1473 -622 -665 0
-1473 -622 -667 0
-1473 -622 -668 0
-1473 -622 -669 0
-1473 -622 -671 0
-1473 -622 -672 0
-1473 -622 -673 0
-1473 -622 -683 0
-1473 -622 -684 0
-1473 -622 -685 0
-1473 -622 -687 0
-1473 -622 -688 0
-1473 -622 -689 0
-1473 -622 -691 0
-1473 -622 -692 0
-1473 -622 -693 0
-1473 -622 -695 0
-1473 -622 -696 0
-1473 -622 -697 0
-1473 -623 781 0
-1473 -623 -627 -632 0
-1473 -623 -640 0
-1473 -623 -641 0
-1473 -623 -644 0
-1473 -623 -645 0
-1473 -623 -648 0
-1473 -623 -649 0
-1473 -623 -664 0
-1473 -623 -665 0
-1473 -623 -668 0
-1473 -623 -669 0
-1473 -623 -672 0
-1473 -623 -673 0
-1473 -623 -684 0
-1473 -623 -685 0
-1473 -623 -688 0
-1473 -623 -689 0
-1473 -623 -692 0
-1473 -623 -693 0
-1473 -623 -696 0
-1473 -623 -697 0
-1473 -624 782 0
-1473 -624 -627 -633 0
-1473 -624 -641 0
-1473 -624 -645 0
-1473 -624 -649 0
-1473 -624 -665 0
-1473 -624 -669 0
-1473 -624 -673 0
-1473 -624 -685 0
-1473 -624 -689 0
-1473 -624 -693 0
-1473 -624 -697 0
-1474 745 0
-1474 777 0
-1474 -617 0
-1474 -625 0
-1474 -622 780 0
-1474 -622 -628 -631 0
-1474 -622 -643 0
-1474 -622 -644 0
-1474 -622 -645 0
-1474 -622 -647 0
-1474 -622 -648 0
-1474 -622 -649 0
-1474 -622 -651 0
-1474 -622 -652 0
-1474 -622 -653 0
-1474 -622 -667 0
-1474 -622 -668 0
-1474 -622 -669 0
-1474 -622 -671 0
-1474 -622 -672 0
-1474 -622 -673 0
-1474 -622 -675 0
-1474 -622 -676 0
-1474 -622 -677 0
-1474 -622 -687 0
-1474 -622 -688 0
-1474 -622 -689 0
-1474 -622 -691 0
-1474 -622 -692 0
-1474 -622 -693 0
-1474 -622 -695 0
-1474 -622 -696 0
-1474 -622 -697 0
-1474 -622 -699 0
-1474 -622 -700 0
-1474 -622 -701 0
-1474 -623 781 0
-1474 -623 -628 -632 0
-1474 -623 -644 0
-1474 -623 -645 0
-1474 -623 -648 0
-1474 -623 -649 0
-1474 -623 -652 0
-1474 -623 -653 0
-1474 -623 -668 0
-1474 -623 -669 0
-1474 -623 -672 0
-1474 -623 -673 0
-1474 -623 -676 0
-1474 -623 -677 0
-1474 -623 -688 0
-1474 -623 -689 0
-1474 -623 -692 0
-1474 -623 -693 0
-1474 -623 -696 0
-1474 -623 -697 0
-1474 -623 -700 0
-1474 -623 -701 0
-1474 -624 782 0
-1474 -624 -628 -633 0
-1474 -624 -645 0
-1474 -624 -649 0
-1474 -624 -653 0
-1474 -624 -669 0
-1474 -624 -673 0
-1474 -624 -677 0
-1474 -624 -689 0
-1474 -624 -693 0
-1474 -624 -697 0
-1474 -624 -701 0
-1475 745 0
-1475 778 0
-1475 -617 0
-1475 -618 0
-1475 -625 0
-1475 -622 780 0
-1475 -622 -629 -631 0
-1475 -622 -647 0
-1475 -622 -648 0
-1475 -622 -649 0
-1475 -622 -651 0
-1475 -622 -652 0
-1475 -622 -653 0
-1475 -622 -655 0
-1475 -622 -656 0
-1475 -622 -657 0
-1475 -622 -671 0
-1475 -622 -672 0
-1475 -622 -673 0
-1475 -622 -675 0
-1475 -622 -676 0
-1475 -622 -677 0
-1475 -622 -679 0
-1475 -622 -680 0
-1475 -622 -681 0
-1475 -622 -691 0
-1475 -622 -692 0
-1475 -622 -693 0
-1475 -622 -695 0
-1475 -622 -696 0
-1475 -622 -697 0
-1475 -622 -699 0
-1475 -622 -700 0
-1475 -622 -701 0
-1475 -623 781 0
-1475 -623 -629 -632 0
-1475 -623 -648 0
-1475 -623 -649 0
-1475 -623 -652 0
-1475 -623 -653 0
-1475 -623 -656 0
-1475 -623 -657 0
-1475 -623 -672 0
-1475 -623 -673 0
-1475 -623 -676 0
-1475 -623 -677 0
-1475 -623 -680 0
-1475 -623 -681 0
-1475 -623 -692 0
-1475 -623 -693 0
-1475 -623 -696 0
-1475 -623 -697 0
-1475 -623 -700 0
-1475 -623 -701 0
-1475 -624 782 0
-1475 -624 -629 -633 0
-1475 -624 -649 0
-1475 -624 -653 0
-1475 -624 -657 0
-1475 -624 -673 0
-1475 -624 -677 0
-1475 -624 -681 0
-1475 -624 -693 0
-1475 -624 -697 0
-1475 -624 -701 0
-1476 745 0
-1476 775 0
-1476 779 0
-1476 -626 -630 0
-1476 -634 0
-1476 -635 0
-1476 -636 0
-1476 -637 0
-1476 -638 0
-1476 -639 0
-1476 -640 0
-1476 -641 0
-1476 -642 0
-1476 -643 0
-1476 -644 0
-1476 -645 0
-1476 -658 0
-1476 -659 0
-1476 -660 0
-1476 -661 0
-1476 -662 0
-1476 -663 0
-1476 -664 0
-1476 -665 0
-1476 -666 0
-1476 -667 0
-1476 -668 0
-1476 -669 0
-1476 -682 0
-1476 -683 0
-1476 -684 0
-1476 -685 0
-1476 -686 0
-1476 -687 0
-1476 -688 0
-1476 -689 0
-1476 -690 0
-1476 -691 0
-1476 -692 0
-1476 -693 0
-1477 745 0
-1477 776 0
-1477 779 0
-1477 -627 -630 0
-1477 -638 0
-1477 -639 0
-1477 -640 0
-1477 -641 0
-1477 -642 0
-1477 -643 0
-1477 -644 0
-1477 -645 0
-1477 -646 0
-1477 -647 0
-1477 -648 0
-1477 -649 0
-1477 -662 0
-1477 -663 0
-1477 -664 0
-1477 -665 0
-1477 -666 0
-1477 -667 0
-1477 -668 0
-1477 -669 0
-1477 -670 0
-1477 -671 0
-1477 -672 0
-1477 -673 0
-1477 -682 0
-1477 -683 0
-1477 -684 0
-1477 -685 0
-1477 -686 0
-1477 -687 0
-1477 -688 0
-1477 -689 0
-1477 -690 0
-1477 -691 0
-1477 -692 0
-1477 -693 0
-1477 -694 0
-1477 -695 0
-1477 -696 0
-1477 -697 0
-1478 745 0
-1478 777 0
-1478 779 0
-1478 -628 -630 0
-1478 -642 0
-1478 -643 0
-1478 -644 0
-1478 -645 0
-1478 -646 0
-1478 -647 0
-1478 -648 0
-1478 -649 0
-1478 -650 0
-1478 -651 0
-1478 -652 0
-1478 -653 0
-1478 -666 0
-1478 -667 0
-1478 -668 0
-1478 -669 0
-1478 -670 0
-1478 -671 0
-1478 -672 0
-1478 -673 0
-1478 -674 0
-1478 -675 0
-1478 -676 0
-1478 -677 0
-1478 -686 0
-1478 -687 0
-1478 -688 0
-1478 -689 0
-1478 -690 0
-1478 -691 0
-1478 -692 0
-1478 -693 0
-1478 -694 0
-1478 -695 0
-1478 -696 0
-1478 -697 0
-1478 -698 0
-1478 -699 0
-1478 -700 0
-1478 -701 0
-1479 745 0
-1479 778 0
-1479 779 0
-1479 -629 -630 0
-1479 -646 0
-1479 -647 0
-1479 -648 0
-1479 -649 0
-1479 -650 0
-1479 -651 0
-1479 -652 0
-1479 -653 0
-1479 -654 0
-1479 -655 0
-1479 -656 0
-1479 -657 0
-1479 -670 0
-1479 -671 0
-1479 -672 0
-1479 -673 0
-1479 -674 0
-1479 -675 0
-1479 -676 0
-1479 -677 0
-1479 -678 0
-1479 -679 0
-1479 -680 0
-1479 -681 0
-1479 -690 0
-1479 -691 0
-1479 -692 0
-1479 -693 0
-1479 -694 0
-1479 -695 0
-1479 -696 0
-1479 -697 0
-1479 -698 0
-1479 -699 0
-1479 -700 0
-1479 -701 0
1484 1485 1486 1487 1488 1489 1490 1491 1492 1493 1494 1495 1496 1497 1498 1499 1500 1501 1502 1503 1504 1505 1506 1507 1508 1509 1510 1511 1512 1513 1514 1515 1516 1517 1518 1519 1520 1521 1522 1523 1524 1525 1526 1527 1528 1529 1530 1531 1532 1533 1534 1535 1536 1537 1538 1539 1540 1541 1542 1543 1544 1545 1546 1547 1548 1549 1550 1551 1552 1553 1554 1555 1556 1557 1558 1559 1560 1561 1562 1563 1564 1565 1566 1567 0
-1484 -1485 0
-1484 -1486 0
-1484 -1487 0
-1484 -1488 0
-1484 -1489 0
-1484 -1490 0
-1484 -1491 0
-1484 -1492 0
-1484 -1493 0
-1484 -1494 0
-1484 -1495 0
-1484 -1496 0
-1484 -1497 0
-1484 -1498 0
-1484 -1499 0
-1484 -1500 0
-1484 -1501 0
-1484 -1502 0
-1484 -1503 0
-1484 -1504 0
-1484 -1505 0
-1484 -1506 0
-1484 -1507 0
-1484 -1508 0
-1484 -1509 0
-1484 -1510 0
-1484 -1511 0
-1484 -1512 0
-1484 -1513 0
-1484 -1514 0
-1484 -1515 0
-1484 -1516 0
-1484 -1517 0
-1484 -1518 0
-1484 -1519 0
-1484 -1520 0
-1484 -1521 0
-1484 -1522 0
-1484 -1523 0
-1484 -1524 0
-1484 -1525 0
-1484 -1526 0
-1484 -1527 0
-1484 -1528 0
-1484 -1529 0
-1484 -1530 0
-1484 -1531 0
-1484 -1532 0
-1484 -1533 0
-1484 -1534 0
-1484 -1535 0
-1484 -1536 0
-1484 -1537 0
-1484 -1538 0
-1484 -1539 0
-1484 -1540 0
-1484 -1541 0
-1484 -1542 0
-1484 -1543 0
-1484 -1544 0
-1484 -1545 0
-1484 -1546 0
-1484 -1547 0
-1484 -1548 0
-1484 -1549 0
-1484 -1550 0
-1484 -1551 0
-1484 -1552 0
-1484 -1553 0
-1484 -1554 0
-1484 -1555 0
-1484 -1556 0
-1484 -1557 0
-1484 -1558 0
-1484 -1559 0
-1484 -1560 0
-1484 -1561 0
-1484 -1562 0
-1484 -1563 0
-1484 -1564 0
-1484 -1565 0
-1484 -1566 0
-1484 -1567 0
-1485 -1486 0
-1485 -1487 0
-1485 -1488 0
-1485 -1489 0
-1485 -1490 0
-1485 -1491 0
-1485 -1492 0
-1485 -1493 0
-1485 -1494 0
-1485 -1495 0
-1485 -1496 0
-1485 -1497 0
-1485 -1498 0
-1485 -1499 0
-1485 -1500 0
-1485 -1501 0
-1485 -1502 0
-1485 -1503 0
-1485 -1504 0
-1485 -1505 0
-1485 -1506 0
-1485 -1507 0
-1485 -1508 0
-1485 -1509 0
-1485 -1510 0
-1485 -1511 0
-1485 -1512 0
-1485 -1513 0
-1485 -1514 0
-1485 -1515 0
-1485 -1516 0
-1485 -1517 0
-1485 -1518 0
-1485 -1519 0
-1485 -1520 0
-1485 -1521 0
-1485 -1522 0
-1485 -1523 0
-1485 -1524 0
-1485 -1525 0
-1485 -1526 0
-1485 -1527 0
-1485 -1528 0
-1485 -1529 0
-1485 -1530 0
-1485 -1531 0
-1485 -1532 0
-1485 -1533 0
-1485 -1534 0
-1485 -1535 0
-1485 -1536 0
-1485 -1537 0
-1485 -1538 0
-1485 -1539 0
-1485 -1540 0
-1485 -1541 0
-1485 -1542 0
-1485 -1543 0
-1485 -1544 0
-1485 -1545 0
-1485 -1546 0
-1485 -1547 0
-1485 -1548 0
-1485 -1549 0
-1485 -1550 0
-1485 -1551 0
-1485 -1552 0
-1485 -1553 0
-1485 -1554 0
-1485 -1555 0
-1485 -1556 0
-1485 -1557 0
-1485 -1558 0
-1485 -1559 0
-1485 -1560 0
-1485 -1561 0
-1485 -1562 0
-1485 -1563 0
-1485 -1564 0
-1485 -1565 0
-1485 -1566 0
-1485 -1567 0
-1486 -1487 0
-1486 -1488 0
-1486 -1489 0
-1486 -1490 0
-1486 -1491 0
-1486 -1492 0
-1486 -1493 0
-1486 -1494 0
-1486 -1495 0
-1486 -1496 0
-1486 -1497 0
-1486 -1498 0
-1486 -1499 0
-1486 -1500 0
-1486 -1501 0
-1486 -1502 0
-1486 -1503 0
-1486 -1504 0
-1486 -1505 0
-1486 -1506 0
-1486 -1507 0
-1486 -1508 0
-1486 -1509 0
-1486 -1510 0
-1486 -1511 0
-1486 -1512 0
-1486 -1513 0
-1486 -1514 0
-1486 -1515 0
-1486 -1516 0
-1486 -1517 0
-1486 -1518 0
-1486 -1519 0
-1486 -1520 0
-1486 -1521 0
-1486 -1522 0
-1486 -1523 0
-1486 -1524 0
-1486 -1525 0
-1486 -1526 0
-1486 -1527 0
-1486 -1528 0
-1486 -1529 0
-1486 -1530 0
-1486 -1531 0
-1486 -1532 0
-1486 -1533 0
-1486 -1534 0
-1486 -1535 0
-1486 -1536 0
-1486 -1537 0
-1486 -1538 0
-1486 -1539 0
-1486 -1540 0
-1486 -1541 0
-1486 -1542 0
-1486 -1543 0
-1486 -1544 0
-1486 -1545 0
-1486 -1546 0
-1486 -1547 0
-1486 -1548 0
-1486 -1549 0
-1486 -1550 0
-1486 -1551 0
-1486 -1552 0
-1486 -1553 0
-1486 -1554 0
-1486 -1555 0
-1486 -1556 0
-1486 -1557 0
-1486 -1558 0
-1486 -1559 0
-1486 -1560 0
-1486 -1561 0
-1486 -1562 0
-1486 -1563 0
-1486 -1564 0
-1486 -1565 0
-1486 -1566 0
-1486 -1567 0
-1487 -1488 0
-1487 -1489 0
-1487 -1490 0
-1487 -1491 0
-1487 -1492 0
-1487 -1493 0
-1487 -1494 0
-1487 -1495 0
-1487 -1496 0
-1487 -1497 0
-1487 -1498 0
-1487 -1499 0
-1487 -1500 0
-1487 -1501 0
-1487 -1502 0
-1487 -1503 0
-1487 -1504 0
-1487 -1505 0
-1487 -1506 0
-1487 -1507 0
-1487 -1508 0
-1487 -1509 0
-1487 -1510 0
-1487 -1511 0
-1487 -1512 0
-1487 -1513 0
-1487 -1514 0
-1487 -1515 0
-1487 -1516 0
-1487 -1517 0
-1487 -1518 0
-1487 -1519 0
-1487 -1520 0
-1487 -1521 0
-1487 -1522 0
-1487 -1523 0
-1487 -1524 0
-1487 -1525 0
-1487 -1526 0
-1487 -1527 0
-1487 -1528 0
-1487 -1529 0
-1487 -1530 0
-1487 -1531 0
-1487 -1532 0
-1487 -1533 0
-1487 -1534 0
-1487 -1535 0
-1487 -1536 0
-1487 -1537 0
-1487 -1538 0
-1487 -1539 0
-1487 -1540 0
-1487 -1541 0
-1487 -1542 0
-1487 -1543 0
-1487 -1544 0
-1487 -1545 0
-1487 -1546 0
-1487 -1547 0
-1487 -1548 0
-1487 -1549 0
-1487 -1550 0
-1487 -1551 0
-1487 -1552 0
-1487 -1553 0
-1487 -1554 0
-1487 -1555 0
-1487 -1556 0
-1487 -1557 0
-1487 -1558 0
-1487 -1559 0
-1487 -1560 0
-1487 -1561 0
-1487 -1562 0
-1487 -1563 0
-1487 -1564 0
-1487 -1565 0
-1487 -1566 0
-1487 -1567 0
-1488 -1489 0
-1488 -1490 0
-1488 -1491 0
-1488 -1492 0
-1488 -1493 0
-1488 -1494 0
-1488 -1495 0
-1488 -1496 0
-1488 -1497 0
-1488 -1498 0
-1488 -1499 0
-1488 -1500 0
-1488 -1501 0
-1488 -1502 0
-1488 -1503 0
-1488 -1504 0
-1488 -1505 0
-1488 -1506 0
-1488 -1507 0
-1488 -1508 0
-1488 -1509 0
-1488 -1510 0
-1488 -1511 0
-1488 -1512 0
-1488 -1513 0
-1488 -1514 0
-1488 -1515 0
-1488 -1516 0
-1488 -1517 0
-1488 -1518 0
-1488 -1519 0
-1488 -1520 0
-1488 -1521 0
-1488 -1522 0
-1488 -1523 0
-1488 -1524 0
-1488 -1525 0
-1488 -1526 0
-1488 -1527 0
-1488 -1528 0
-1488 -1529 0
-1488 -1530 0
-1488 -1531 0
-1488 -1532 0
-1488 -1533 0
-1488 -1534 0
-1488 -1535 0
-1488 -1536 0
-1488 -1537 0
-1488 -1538 0
-1488 -1539 0
-1488 -1540 0
-1488 -1541 0
-1488 -1542 0
-1488 -1543 0
-1488 -1544 0
-1488 -1545 0
-1488 -1546 0
-1488 -1547 0
-1488 -1548 0
-1488 -1549 0
-1488 -1550 0
-1488 -1551 0
-1488 -1552 0
-1488 -1553 0
-1488 -1554 0
-1488 -1555 0
-1488 -1556 0
-1488 -1557 0
-1488 -1558 0
-1488 -1559 0
-1488 -1560 0
-1488 -1561 0
-1488 -1562 0
-1488 -1563 0
-1488 -1564 0
-1488 -1565 0
-1488 -1566 0
-1488 -1567 0
-1489 -1490 0
-1489 -1491 0
-1489 -1492 0
-1489 -1493 0
-1489 -1494 0
-1489 -1495 0
-1489 -1496 0
-1489 -1497 0
-1489 -1498 0
-1489 -1499 0
-1489 -1500 0
-1489 -1501 0
-1489 -1502 0
-1489 -1503 0
-1489 -1504 0
-1489 -1505 0
-1489 -1506 0
-1489 -1507 0
-1489 -1508 0
-1489 -1509 0
-1489 -1510 0
-1489 -1511 0
-1489 -1512 0
-1489 -1513 0
-1489 -1514 0
-1489 -1515 0
-1489 -1516 0
-1489 -1517 0
-1489 -1518 0
-1489 -1519 0
-1489 -1520 0
-1489 -1521 0
-1489 -1522 0
-1489 -1523 0
-1489 -1524 0
-1489 -1525 0
-1489 -1526 0
-1489 -1527 0
-1489 -1528 0
-1489 -1529 0
-1489 -1530 0
-1489 -1531 0
-1489 -1532 0
-1489 -1533 0
-1489 -1534 0
-1489 -1535 0
-1489 -1536 0
-1489 -1537 0
-1489 -1538 0
-1489 -1539 0
-1489 -1540 0
-1489 -1541 0
-1489 -1542 0
-1489 -1543 0
-1489 -1544 0
-1489 -1545 0
-1489 -1546 0
-1489 -1547 0
-1489 -1548 0
-1489 -1549 0
-1489 -1550 0
-1489 -1551 0
-1489 -1552 0
-1489 -1553 0
-1489 -1554 0
-1489 -1555 0
-1489 -1556 0
-1489 -1557 0
-1489 -1558 0
-1489 -1559 0
-1489 -1560 0
-1489 -1561 0
-1489 -1562 0
-1489 -1563 0
-1489 -1564 0
-1489 -1565 0
-1489 -1566 0
-1489 -1567 0
-1490 -1491 0
-1490 -1492 0
-1490 -1493 0
-1490 -1494 0
-1490 -1495 0
-1490 -1496 0
-1490 -1497 0
-1490 -1498 0
-1490 -1499 0
-1490 -1500 0
-1490 -1501 0
-1490 -1502 0
-1490 -1503 0
-1490 -1504 0
-1490 -1505 0
-1490 -1506 0
-1490 -1507 0
-1490 -1508 0
-1490 -1509 0
-1490 -1510 0
-1490 -1511 0
-1490 -1512 0
-1490 -1513 0
-1490 -1514 0
-1490 -1515 0
-1490 -1516 0
-1490 -1517 0
-1490 -1518 0
-1490 -1519 0
-1490 -1520 0
-1490 -1521 0
-1490 -1522 0
-1490 -1523 0
-1490 -1524 0
-1490 -1525 0
-1490 -1526 0
-1490 -1527 0
-1490 -1528 0
-1490 -1529 0
-1490 -1530 0
-1490 -1531 0
-1490 -1532 0
-1490 -1533 0
-1490 -1534 0
-1490 -1535 0
-1490 -1536 0
-1490 -1537 0
-1490 -1538 0
-1490 -1539 0
-1490 -1540 0
-1490 -1541 0
-1490 -1542 0
-1490 -1543 0
-1490 -1544 0
-1490 -1545 0
-1490 -1546 0
-1490 -1547 0
-1490 -1548 0
-1490 -1549 0
-1490 -1550 0
-1490 -1551 0
-1490 -1552 0
-1490 -1553 0
-1490 -1554 0
-1490 -1555 0
-1490 -1556 0
-1490 -1557 0
-1490 -1558 0
-1490 -1559 0
-1490 -1560 0
-1490 -1561 0
-1490 -1562 0
-1490 -1563 0
-1490 -1564 0
-1490 -1565 0
-1490 -1566 0
-1490 -1567 0
-1491 -1492 0
-1491 -1493 0
-1491 -1494 0
-1491 -1495 0
-1491 -1496 0
-1491 -1497 0
-1491 -1498 0
-1491 -1499 0
-1491 -1500 0
-1491 -1501 0
-1491 -1502 0
-1491 -1503 0
-1491 -1504 0
-1491 -1505 0
-1491 -1506 0
-1491 -1507 0
-1491 -1508 0
-1491 -1509 0
-1491 -1510 0
-1491 -1511 0
-1491 -1512 0
-1491 -1513 0
-1491 -1514 0
-1491 -1515 0
-1491 -1516 0
-1491 -1517 0
-1491 -1518 0
-1491 -1519 0
-1491 -1520 0
-1491 -1521 0
-1491 -1522 0
-1491 -1523 0
-1491 -1524 0
-1491 -1525 0
-1491 -1526 0
-1491 -1527 0
-1491 -1528 0
-1491 -1529 0
-1491 -1530 0
-1491 -1531 0
-1491 -1532 0
-1491 -1533 0
-1491 -1534 0
-1491 -1535 0
-1491 -1536 0
-1491 -1537 0
-1491 -1538 0
-1491 -1539 0
-1491 -1540 0
-1491 -1541 0
-1491 -1542 0
-1491 -1543 0
-1491 -1544 0
-1491 -1545 0
-1491 -1546 0
-1491 -1547 0
-1491 -1548 0
-1491 -1549 0
-1491 -1550 0
-1491 -1551 0
-1491 -1552 0
-1491 -1553 0
-1491 -1554 0
-1491 -1555 0
-1491 -1556 0
-1491 -1557 0
-1491 -1558 0
-1491 -1559 0
-1491 -1560 0
-1491 -1561 0
-1491 -1562 0
-1491 -1563 0
-1491 -1564 0
-1491 -1565 0
-1491 -1566 0
-1491 -1567 0
-1492 -1493 0
-1492 -1494 0
-1492 -1495 0
-1492 -1496 0
-1492 -1497 0
-1492 -1498 0
-1492 -1499 0
-1492 -1500 0
-1492 -1501 0
-1492 -1502 0
-1492 -1503 0
-1492 -1504 0
-1492 -1505 0
-1492 -1506 0
-1492 -1507 0
-1492 -1508 0
-1492 -1509 0
-1492 -1510 0
-1492 -1511 0
-1492 -1512 0
-1492 -1513 0
-1492 -1514 0
-1492 -1515 0
-1492 -1516 0
-1492 -1517 0
-1492 -1518 0
-1492 -1519 0
-1492 -1520 0
-1492 -1521 0
-1492 -1522 0
-1492 -1523 0
-1492 -1524 0
-1492 -1525 0
-1492 -1526 0
-1492 -1527 0
-1492 -1528 0
-1492 -1529 0
-1492 -1530 0
-1492 -1531 0
-1492 -1532 0
-1492 -1533 0
-1492 -1534 0
-1492 -1535 0
-1492 -1536 0
-1492 -1537 0
-1492 -1538 0
-1492 -1539 0
-1492 -1540 0
-1492 -1541 0
-1492 -1542 0
-1492 -1543 0
-1492 -1544 0
-1492 -1545 0
-1492 -1546 0
-1492 -1547 0
-1492 -1548 0
-1492 -1549 0
-1492 -1550 0
-1492 -1551 0
-1492 -1552 0
-1492 -1553 0
-1492 -1554 0
-1492 -1555 0
-1492 -1556 0
-1492 -1557 0
-1492 -1558 0
-1492 -1559 0
-1492 -1560 0
-1492 -1561 0
-1492 -1562 0
-1492 -1563 0
-1492 -1564 0
-1492 -1565 0
-1492 -1566 0
-1492 -1567 0
-1493 -1494 0
-1493 -1495 0
-1493 -1496 0
-1493 -1497 0
-1493 -1498 0
-1493 -1499 0
-1493 -1500 0
-1493 -1501 0
-1493 -1502 0
-1493 -1503 0
-1493 -1504 0
-1493 -1505 0
-1493 -1506 0
-1493 -1507 0
-1493 -1508 0
-1493 -1509 0
-1493 -1510 0
-1493 -1511 0
-1493 -1512 0
-1493 -1513 0
-1493 -1514 0
-1493 -1515 0
-1493 -1516 0
-1493 -1517 0
-1493 -1518 0
-1493 -1519 0
-1493 -1520 0
-1493 -1521 0
-1493 -1522 0
-1493 -1523 0
-1493 -1524 0
-1493 -1525 0
-1493 -1526 0
-1493 -1527 0
-1493 -1528 0
-1493 -1529 0
-1493 -1530 0
-1493 -1531 0
-1493 -1532 0
-1493 -1533 0
-1493 -1534 0
-1493 -1535 0
-1493 -1536 0
-1493 -1537 0
-1493 -1538 0
-1493 -1539 0
-1493 -1540 0
-1493 -1541 0
-1493 -1542 0
-1493 -1543 0
-1493 -1544 0
-1493 -1545 0
-1493 -1546 0
-1493 -1547 0
-1493 -1548 0
-1493 -1549 0
-1493 -1550 0
-1493 -1551 0
-1493 -1552 0
-1493 -1553 0
-1493 -1554 0
-1493 -1555 0
-1493 -1556 0
-1493 -1557 0
-1493 -1558 0
-1493 -1559 0
-1493 -1560 0
-1493 -1561 0
-1493 -1562 0
-1493 -1563 0
-1493 -1564 0
-1493 -1565 0
-1493 -1566 0
-1493 -1567 0
-1494 -1495 0
-1494 -1496 0
-1494 -1497 0
-1494 -1498 0
-1494 -1499 0
-1494 -1500 0
-1494 -1501 0
-1494 -1502 0
-1494 -1503 0
-1494 -1504 0
-1494 -1505 0
-1494 -1506 0
-1494 -1507 0
-1494 -1508 0
-1494 -1509 0
-1494 -1510 0
-1494 -1511 0
-1494 -1512 0
-1494 -1513 0
-1494 -1514 0
-1494 -1515 0
-1494 -1516 0
-1494 -1517 0
-1494 -1518 0
-1494 -1519 0
-1494 -1520 0
-1494 -1521 0
-1494 -1522 0
-1494 -1523 0
-1494 -1524 0
-1494 -1525 0
-1494 -1526 0
-1494 -1527 0
-1494 -1528 0
-1494 -1529 0
-1494 -1530 0
-1494 -1531 0
-1494 -1532 0
-1494 -1533 0
-1494 -1534 0
-1494 -1535 0
-1494 -1536 0
-1494 -1537 0
-1494 -1538 0
-1494 -1539 0
-1494 -1540 0
-1494 -1541 0
-1494 -1542 0
-1494 -1543 0
-1494 -1544 0
-1494 -1545 0
-1494 -1546 0
-1494 -1547 0
-1494 -1548 0
-1494 -1549 0
-1494 -1550 0
-1494 -1551 0
-1494 -1552 0
-1494 -1553 0
-1494 -1554 0
-1494 -1555 0
-1494 -1556 0
-1494 -1557 0
-1494 -1558 0
-1494 -1559 0
-1494 -1560 0
-1494 -1561 0
-1494 -1562 0
-1494 -1563 0
-1494 -1564 0
-1494 -1565 0
-1494 -1566 0
-1494 -1567 0
-1495 -1496 0
-1495 -1497 0
-1495 -1498 0
-1495 -1499 0
-1495 -1500 0
-1495 -1501 0
-1495 -1502 0
-1495 -1503 0
-1495 -1504 0
-1495 -1505 0
-1495 -1506 0
-1495 -1507 0
-1495 -1508 0
-1495 -1509 0
-1495 -1510 0
-1495 -1511 0
-1495 -1512 0
-1495 -1513 0
-1495 -1514 0
-1495 -1515 0
-1495 -1516 0
-1495 -1517 0
-1495 -1518 0
-1495 -1519 0
-1495 -1520 0
-1495 -1521 0
-1495 -1522 0
-1495 -1523 0
-1495 -1524 0
-1495 -1525 0
-1495 -1526 0
-1495 -1527 0
-1495 -1528 0
-1495 -1529 0
-1495 -1530 0
-1495 -1531 0
-1495 -1532 0
-1495 -1533 0
-1495 -1534 0
-1495 -1535 0
-1495 -1536 0
-1495 -1537 0
-1495 -1538 0
-1495 -1539 0
-1495 -1540 0
-1495 -1541 0
-1495 -1542 0
-1495 -1543 0
-1495 -1544 0
-1495 -1545 0
-1495 -1546 0
-1495 -1547 0
-1495 -1548 0
-1495 -1549 0
-1495 -1550 0
-1495 -1551 0
-1495 -1552 0
-1495 -1553 0
-1495 -1554 0
-1495 -1555 0
-1495 -1556 0
-1495 -1557 0
-1495 -1558 0
-1495 -1559 0
-1495 -1560 0
-1495 -1561 0
-1495 -1562 0
-1495 -1563 0
-1495 -1564 0
-1495 -1565 0
-1495 -1566 0
-1495 -1567 0
-1496 -1497 0
-1496 -1498 0
-1496 -1499 0
-1496 -1500 0
-1496 -1501 0
-1496 -1502 0
-1496 -1503 0
-1496 -1504 0
-1496 -1505 0
-1496 -1506 0
-1496 -1507 0
-1496 -1508 0
-1496 -1509 0
-1496 -1510 0
-1496 -1511 0
-1496 -1512 0
-1496 -1513 0
-1496 -1514 0
-1496 -1515 0
-1496 -1516 0
-1496 -1517 0
-1496 -1518 0
-1496 -1519 0
-1496 -1520 0
-1496 -1521 0
-1496 -1522 0
-1496 -1523 0
-1496 -1524 0
-1496 -1525 0
-1496 -1526 0
-1496 -1527 0
-1496 -1528 0
-1496 -1529 0
-1496 -1530 0
-1496 -1531 0
-1496 -1532 0
-1496 -1533 0
-1496 -1534 0
-1496 -1535 0
-1496 -1536 0
-1496 -1537 0
-1496 -1538 0
-1496 -1539 0
-1496 -1540 0
-1496 -1541 0
-1496 -1542 0
-1496 -1543 0
-1496 -1544 0
-1496 -1545 0
-1496 -1546 0
-1496 -1547 0
-1496 -1548 0
-1496 -1549 0
-1496 -1550 0
-1496 -1551 0
-1496 -1552 0
-1496 -1553 0
-1496 -1554 0
-1496 -1555 0
-1496 -1556 0
-1496 -1557 0
-1496 -1558 0
-1496 -1559 0
-1496 -1560 0
-1496 -1561 0
-1496 -1562 0
-1496 -1563 0
-1496 -1564 0
-1496 -1565 0
-1496 -1566 0
-1496 -1567 0
-1497 -1498 0
-1497 -1499 0
-1497 -1500 0
-1497 -1501 0
-1497 -1502 0
-1497 -1503 0
-1497 -1504 0
-1497 -1505 0
-1497 -1506 0
-1497 -1507 0
-1497 -1508 0
-1497 -1509 0
-1497 -1510 0
-1497 -1511 0
-1497 -1512 0
-1497 -1513 0
-1497 -1514 0
-1497 -1515 0
-1497 -1516 0
-1497 -1517 0
-1497 -1518 0
-1497 -1519 0
-1497 -1520 0
-1497 -1521 0
-1497 -1522 0
-1497 -1523 0
-1497 -1524 0
-1497 -1525 0
-1497 -1526 0
-1497 -1527 0
-1497 -1528 0
-1497 -1529 0
-1497 -1530 0
-1497 -1531 0
-1497 -1532 0
-1497 -1533 0
-1497 -1534 0
-1497 -1535 0
-1497 -1536 0
-1497 -1537 0
-1497 -1538 0
-1497 -1539 0
-1497 -1540 0
-1497 -1541 0
-1497 -1542 0
-1497 -1543 0
-1497 -1544 0
-1497 -1545 0
-1497 -1546 0
-1497 -1547 0
-1497 -1548 0
-1497 -1549 0
-1497 -1550 0
-1497 -1551 0
-1497 -1552 0
-1497 -1553 0
-1497 -1554 0
-1497 -1555 0
-1497 -1556 0
-1497 -1557 0
-1497 -1558 0
-1497 -1559 0
-1497 -1560 0
-1497 -1561 0
-1497 -1562 0
-1497 -1563 0
-1497 -1564 0
-1497 -1565 0
-1497 -1566 0
-1497 -1567 0
-1498 -1499 0
-1498 -1500 0
-1498 -1501 0
-1498 -1502 0
-1498 -1503 0
-1498 -1504 0
-1498 -1505 0
-1498 -1506 0
-1498 -1507 0
-1498 -1508 0
-1498 -1509 0
-1498 -1510 0
-1498 -1511 0
-1498 -1512 0
-1498 -1513 0
-1498 -1514 0
-1498 -1515 0
-1498 -1516 0
-1498 -1517 0
-1498 -1518 0
-1498 -1519 0
-1498 -1520 0
-1498 -1521 0
-1498 -1522 0
-1498 -1523 0
-1498 -1524 0
-1498 -1525 0
-1498 -1526 0
-1498 -1527 0
-1498 -1528 0
-1498 -1529 0
-1498 -1530 0
-1498 -1531 0
-1498 -1532 0
-1498 -1533 0
-1498 -1534 0
-1498 -1535 0
-1498 -1536 0
-1498 -1537 0
-1498 -1538 0
-1498 -1539 0
-1498 -1540 0
-1498 -1541 0
-1498 -1542 0
-1498 -1543 0
-1498 -1544 0
-1498 -1545 0
-1498 -1546 0
-1498 -1547 0
-1498 -1548 0
-1498 -1549 0
-1498 -1550 0
-1498 -1551 0
-1498 -1552 0
-1498 -1553 0
-1498 -1554 0
-1498 -1555 0
-1498 -1556 0
-1498 -1557 0
-1498 -1558 0
-1498 -1559 0
-1498 -1560 0
-1498 -1561 0
-1498 -1562 0
-1498 -1563 0
-1498 -1564 0
-1498 -1565 0
-1498 -1566 0
-1498 -1567 0
-1499 -1500 0
-1499 -1501 0
-1499 -1502 0
-1499 -1503 0
-1499 -1504 0
-1499 -1505 0
-1499 -1506 0
-1499 -1507 0
-1499 -1508 0
-1499 -1509 0
-1499 -1510 0
-1499 -1511 0
-1499 -1512 0
-1499 -1513 0
-1499 -1514 0
-1499 -1515 0
-1499 -1516 0
-1499 -1517 0
-1499 -1518 0
-1499 -1519 0
-1499 -1520 0
-1499 -1521 0
-1499 -1522 0
-1499 -1523 0
-1499 -1524 0
-1499 -1525 0
-1499 -1526 0
-1499 -1527 0
-1499 -1528 0
-1499 -1529 0
-1499 -1530 0
-1499 -1531 0
-1499 -1532 0
-1499 -1533 0
-1499 -1534 0
-1499 -1535 0
-1499 -1536 0
-1499 -1537 0
-1499 -1538 0
-1499 -1539 0
-1499 -1540 0
-1499 -1541 0
-1499 -1542 0
-1499 -1543 0
-1499 -1544 0
-1499 -1545 0
-1499 -1546 0
-1499 -1547 0
-1499 -1548 0
-1499 -1549 0
-1499 -1550 0
-1499 -1551 0
-1499 -1552 0
-1499 -1553 0
-1499 -1554 0
-1499 -1555 0
-1499 -1556 0
-1499 -1557 0
-1499 -1558 0
-1499 -1559 0
-1499 -1560 0
-1499 -1561 0
-1499 -1562 0
-1499 -1563 0
-1499 -1564 0
-1499 -1565 0
-1499 -1566 0
-1499 -1567 0
-1500 -1501 0
-1500 -1502 0
-1500 -1503 0
-1500 -1504 0
-1500 -1505 0
-1500 -1506 0
-1500 -1507 0
-1500 -1508 0
-1500 -1509 0
-1500 -1510 0
-1500 -1511 0
-1500 -1512 0
-1500 -1513 0
-1500 -1514 0
-1500 -1515 0
-1500 -1516 0
-1500 -1517 0
-1500 -1518 0
-1500 -1519 0
-1500 -1520 0
-1500 -1521 0
-1500 -1522 0
-1500 -1523 0
-1500 -1524 0
-1500 -1525 0
-1500 -1526 0
-1500 -1527 0
-1500 -1528 0
-1500 -1529 0
-1500 -1530 0
-1500 -1531 0
-1500 -1532 0
-1500 -1533 0
-1500 -1534 0
-1500 -1535 0
-1500 -1536 0
-1500 -1537 0
-1500 -1538 0
-1500 -1539 0
-1500 -1540 0
-1500 -1541 0
-1500 -1542 0
-1500 -1543 0
-1500 -1544 0
-1500 -1545 0
-1500 -1546 0
-1500 -1547 0
-1500 -1548 0
-1500 -1549 0
-1500 -1550 0
-1500 -1551 0
-1500 -1552 0
-1500 -1553 0
-1500 -1554 0
-1500 -1555 0
-1500 -1556 0
-1500 -1557 0
-1500 -1558 0
-1500 -1559 0
-1500 -1560 0
-1500 -1561 0
-1500 -1562 0
-1500 -1563 0
-1500 -1564 0
-1500 -1565 0
-1500 -1566 0
-1500 -1567 0
-1501 -1502 0
-1501 -1503 0
-1501 -1504 0
-1501 -1505 0
-1501 -1506 0
-1501 -1507 0
-1501 -1508 0
-1501 -1509 0
-1501 -1510 0
-1501 -1511 0
-1501 -1512 0
-1501 -1513 0
-1501 -1514 0
-1501 -1515 0
-1501 -1516 0
-1501 -1517 0
-1501 -1518 0
-1501 -1519 0
-1501 -1520 0
-1501 -1521 0
-1501 -1522 0
-1501 -1523 0
-1501 -1524 0
-1501 -1525 0
-1501 -1526 0
-1501 -1527 0
-1501 -1528 0
-1501 -1529 0
-1501 -1530 0
-1501 -1531 0
-1501 -1532 0
-1501 -1533 0
-1501 -1534 0
-1501 -1535 0
-1501 -1536 0
-1501 -1537 0
-1501 -1538 0
-1501 -1539 0
-1501 -1540 0
-1501 -1541 0
-1501 -1542 0
-1501 -1543 0
-1501 -1544 0
-1501 -1545 0
-1501 -1546 0
-1501 -1547 0
-1501 -1548 0
-1501 -1549 0
-1501 -1550 0
-1501 -1551 0
-1501 -1552 0
-1501 -1553 0
-1501 -1554 0
-1501 -1555 0
-1501 -1556 0
-1501 -1557 0
-1501 -1558 0
-1501 -1559 0
-1501 -1560 0
-1501 -1561 0
-1501 -1562 0
-1501 -1563 0
-1501 -1564 0
-1501 -1565 0
-1501 -1566 0
-1501 -1567 0
-1502 -1503 0
-1502 -1504 0
-1502 -1505 0
-1502 -1506 0
-1502 -1507 0
-1502 -1508 0
-1502 -1509 0
-1502 -1510 0
-1502 -1511 0
-1502 -1512 0
-1502 -1513 0
-1502 -1514 0
-1502 -1515 0
-1502 -1516 0
-1502 -1517 0
-1502 -1518 0
-1502 -1519 0
-1502 -1520 0
-1502 -1521 0
-1502 -1522 0
-1502 -1523 0
-1502 -1524 0
-1502 -1525 0
-1502 -1526 0
-1502 -1527 0
-1502 -1528 0
-1502 -1529 0
-1502 -1530 0
-1502 -1531 0
-1502 -1532 0
-1502 -1533 0
-1502 -1534 0
-1502 -1535 0
-1502 -1536 0
-1502 -1537 0
-1502 -1538 0
-1502 -1539 0
-1502 -1540 0
-1502 -1541 0
-1502 -1542 0
-1502 -1543 0
-1502 -1544 0
-1502 -1545 0
-1502 -1546 0
-1502 -1547 0
-1502 -1548 0
-1502 -1549 0
-1502 -1550 0
-1502 -1551 0
-1502 -1552 0
-1502 -1553 0
-1502 -1554 0
-1502 -1555 0
-1502 -1556 0
-1502 -1557 0
-1502 -1558 0
-1502 -1559 0
-1502 -1560 0
-1502 -1561 0
-1502 -1562 0
-1502 -1563 0
-1502 -1564 0
-1502 -1565 0
-1502 -1566 0
-1502 -1567 0
-1503 -1504 0
-1503 -1505 0
-1503 -1506 0
-1503 -1507 0
-1503 -1508 0
-1503 -1509 0
-1503 -1510 0
-1503 -1511 0
-1503 -1512 0
-1503 -1513 0
-1503 -1514 0
-1503 -1515 0
-1503 -1516 0
-1503 -1517 0
-1503 -1518 0
-1503 -1519 0
-1503 -1520 0
-1503 -1521 0
-1503 -1522 0
-1503 -1523 0
-1503 -1524 0
-1503 -1525 0
-1503 -1526 0
-1503 -1527 0
-1503 -1528 0
-1503 -1529 0
-1503 -1530 0
-1503 -1531 0
-1503 -1532 0
-1503 -1533 0
-1503 -1534 0
-1503 -1535 0
-1503 -1536 0
-1503 -1537 0
-1503 -1538 0
-1503 -1539 0
-1503 -1540 0
-1503 -1541 0
-1503 -1542 0
-1503 -1543 0
-1503 -1544 0
-1503 -1545 0
-1503 -1546 0
-1503 -1547 0
-1503 -1548 0
-1503 -1549 0
-1503 -1550 0
-1503 -1551 0
-1503 -1552 0
-1503 -1553 0
-1503 -1554 0
-1503 -1555 0
-1503 -1556 0
-1503 -1557 0
-1503 -1558 0
-1503 -1559 0
-1503 -1560 0
-1503 -1561 0
-1503 -1562 0
-1503 -1563 0
-1503 -1564 0
-1503 -1565 0
-1503 -1566 0
-1503 -1567 0
-1504 -1505 0
-1504 -1506 0
-1504 -1507 0
-1504 -1508 0
-1504 -1509 0
-1504 -1510 0
-1504 -1511 0
-1504 -1512 0
-1504 -1513 0
-1504 -1514 0
-1504 -1515 0
-1504 -1516 0
-1504 -1517 0
-1504 -1518 0
-1504 -1519 0
-1504 -1520 0
-1504 -1521 0
-1504 -1522 0
-1504 -1523 0
-1504 -1524 0
-1504 -1525 0
-1504 -1526 0
-1504 -1527 0
-1504 -1528 0
-1504 -1529 0
-1504 -1530 0
-1504 -1531 0
-1504 -1532 0
-1504 -1533 0
-1504 -1534 0
-1504 -1535 0
-1504 -1536 0
-1504 -1537 0
-1504 -1538 0
-1504 -1539 0
-1504 -1540 0
-1504 -1541 0
-1504 -1542 0
-1504 -1543 0
-1504 -1544 0
-1504 -1545 0
-1504 -1546 0
-1504 -1547 0
-1504 -1548 0
-1504 -1549 0
-1504 -1550 0
-1504 -1551 0
-1504 -1552 0
-1504 -1553 0
-1504 -1554 0
-1504 -1555 0
-1504 -1556 0
-1504 -1557 0
-1504 -1558 0
-1504 -1559 0
-1504 -1560 0
-1504 -1561 0
-1504 -1562 0
-1504 -1563 0
-1504 -1564 0
-1504 -1565 0
-1504 -1566 0
-1504 -1567 0
-1505 -1506 0
-1505 -1507 0
-1505 -1508 0
-1505 -1509 0
-1505 -1510 0
-1505 -1511 0
-1505 -1512 0
-1505 -1513 0
-1505 -1514 0
-1505 -1515 0
-1505 -1516 0
-1505 -1517 0
-1505 -1518 0
-1505 -1519 0
-1505 -1520 0
-1505 -1521 0
-1505 -1522 0
-1505 -1523 0
-1505 -1524 0
-1505 -1525 0
-1505 -1526 0
-1505 -1527 0
-1505 -1528 0
-1505 -1529 0
-1505 -1530 0
-1505 -1531 0
-1505 -1532 0
-1505 -1533 0
-1505 -1534 0
-1505 -1535 0
-1505 -1536 0
-1505 -1537 0
-1505 -1538 0
-1505 -1539 0
-1505 -1540 0
-1505 -1541 0
-1505 -1542 0
-1505 -1543 0
-1505 -1544 0
-1505 -1545 0
-1505 -1546 0
-1505 -1547 0
-1505 -1548 0
-1505 -1549 0
-1505 -1550 0
-1505 -1551 0
-1505 -1552 0
-1505 -1553 0
-1505 -1554 0
-1505 -1555 0
-1505 -1556 0
-1505 -1557 0
-1505 -1558 0
-1505 -1559 0
-1505 -1560 0
-1505 -1561 0
-1505 -1562 0
-1505 -1563 0
-1505 -1564 0
-1505 -1565 0
-1505 -1566 0
-1505 -1567 0
-1506 -1507 0
-1506 -1508 0
-1506 -1509 0
-1506 -1510 0
-1506 -1511 0
-1506 -1512 0
-1506 -1513 0
-1506 -1514 0
-1506 -1515 0
-1506 -1516 0
-1506 -1517 0
-1506 -1518 0
-1506 -1519 0
-1506 -1520 0
-1506 -1521 0
-1506 -1522 0
-1506 -1523 0
-1506 -1524 0
-1506 -1525 0
-1506 -1526 0
-1506 -1527 0
-1506 -1528 0
-1506 -1529 0
-1506 -1530 0
-1506 -1531 0
-1506 -1532 0
-1506 -1533 0
-1506 -1534 0
-1506 -1535 0
-1506 -1536 0
-1506 -1537 0
-1506 -1538 0
-1506 -1539 0
-1506 -1540 0
-1506 -1541 0
-1506 -1542 0
-1506 -1543 0
-1506 -1544 0
-1506 -1545 0
-1506 -1546 0
-1506 -1547 0
-1506 -1548 0
-1506 -1549 0
-1506 -1550 0
-1506 -1551 0
-1506 -1552 0
-1506 -1553 0
-1506 -1554 0
-1506 -1555 0
-1506 -1556 0
-1506 -1557 0
-1506 -1558 0
-1506 -1559 0
-1506 -1560 0
-1506 -1561 0
-1506 -1562 0
-1506 -1563 0
-1506 -1564 0
-1506 -1565 0
-1506 -1566 0
-1506 -1567 0
-1507 -1508 0
-1507 -1509 0
-1507 -1510 0
-1507 -1511 0
-1507 -1512 0
-1507 -1513 0
-1507 -1514 0
-1507 -1515 0
-1507 -1516 0
-1507 -1517 0
-1507 -1518 0
-1507 -1519 0
-1507 -1520 0
-1507 -1521 0
-1507 -1522 0
-1507 -1523 0
-1507 -1524 0
-1507 -1525 0
-1507 -1526 0
-1507 -1527 0
-1507 -1528 0
-1507 -1529 0
-1507 -1530 0
-1507 -1531 0
-1507 -1532 0
-1507 -1533 0
-1507 -1534 0
-1507 -1535 0
-1507 -1536 0
-1507 -1537 0
-1507 -1538 0
-1507 -1539 0
-1507 -1540 0
-1507 -1541 0
-1507 -1542 0
-1507 -1543 0
-1507 -1544 0
-1507 -1545 0
-1507 -1546 0
-1507 -1547 0
-1507 -1548 0
-1507 -1549 0
-1507 -1550 0
-1507 -1551 0
-1507 -1552 0
-1507 -1553 0
-1507 -1554 0
-1507 -1555 0
-1507 -1556 0
-1507 -1557 0
-1507 -1558 0
-1507 -1559 0
-1507 -1560 0
-1507 -1561 0
-1507 -1562 0
-1507 -1563 0
-1507 -1564 0
-1507 -1565 0
-1507 -1566 0
-1507 -1567 0
-1508 -1509 0
-1508 -1510 0
-1508 -1511 0
-1508 -1512 0
-1508 -1513 0
-1508 -1514 0
-1508 -1515 0
-1508 -1516 0
-1508 -1517 0
-1508 -1518 0
-1508 -1519 0
-1508 -1520 0
-1508 -1521 0
-1508 -1522 0
-1508 -1523 0
-1508 -1524 0
-1508 -1525 0
-1508 -1526 0
-1508 -1527 0
-1508 -1528 0
-1508 -1529 0
-1508 -1530 0
-1508 -1531 0
-1508 -1532 0
-1508 -1533 0
-1508 -1534 0
-1508 -1535 0
-1508 -1536 0
-1508 -1537 0
-1508 -1538 0
-1508 -1539 0
-1508 -1540 0
-1508 -1541 0
-1508 -1542 0
-1508 -1543 0
-1508 -1544 0
-1508 -1545 0
-1508 -1546 0
-1508 -1547 0
-1508 -1548 0
-1508 -1549 0
-1508 -1550 0
-1508 -1551 0
-1508 -1552 0
-1508 -1553 0
-1508 -1554 0
-1508 -1555 0
-1508 -1556 0
-1508 -1557 0
-1508 -1558 0
-1508 -1559 0
-1508 -1560 0
-1508 -1561 0
-1508 -1562 0
-1508 -1563 0
-1508 -1564 0
-1508 -1565 0
-1508 -1566 0
-1508 -1567 0
-1509 -1510 0
-1509 -1511 0
-1509 -1512 0
-1509 -1513 0
-1509 -1514 0
-1509 -1515 0
-1509 -1516 0
-1509 -1517 0
-1509 -1518 0
-1509 -1519 0
-1509 -1520 0
-1509 -1521 0
-1509 -1522 0
-1509 -1523 0
-1509 -1524 0
-1509 -1525 0
-1509 -1526 0
-1509 -1527 0
-1509 -1528 0
-1509 -1529 0
-1509 -1530 0
-1509 -1531 0
-1509 -1532 0
-1509 -1533 0
-1509 -1534 0
-1509 -1535 0
-1509 -1536 0
-1509 -1537 0
-1509 -1538 0
-1509 -1539 0
-1509 -1540 0
-1509 -1541 0
-1509 -1542 0
-1509 -1543 0
-1509 -1544 0
-1509 -1545 0
-1509 -1546 0
-1509 -1547 0
-1509 -1548 0
-1509 -1549 0
-1509 -1550 0
-1509 -1551 0
-1509 -1552 0
-1509 -1553 0
-1509 -1554 0
-1509 -1555 0
-1509 -1556 0
-1509 -1557 0
-1509 -1558 0
-1509 -1559 0
-1509 -1560 0
-1509 -1561 0
-1509 -1562 0
-1509 -1563 0
-1509 -1564 0
-1509 -1565 0
-1509 -1566 0
-1509 -1567 0
-1510 -1511 0
-1510 -1512 0
-1510 -1513 0
-1510 -1514 0
-1510 -1515 0
-1510 -1516 0
-1510 -1517 0
-1510 -1518 0
-1510 -1519 0
-1510 -1520 0
-1510 -1521 0
-1510 -1522 0
-1510 -1523 0
-1510 -1524 0
-1510 -1525 0
-1510 -1526 0
-1510 -1527 0
-1510 -1528 0
-1510 -1529 0
-1510 -1530 0
-1510 -1531 0
-1510 -1532 0
-1510 -1533 0
-1510 -1534 0
-1510 -1535 0
-1510 -1536 0
-1510 -1537 0
-1510 -1538 0
-1510 -1539 0
-1510 -1540 0
-1510 -1541 0
-1510 -1542 0
-1510 -1543 0
-1510 -1544 0
-1510 -1545 0
-1510 -1546 0
-1510 -1547 0
-1510 -1548 0
-1510 -1549 0
-1510 -1550 0
-1510 -1551 0
-1510 -1552 0
-1510 -1553 0
-1510 -1554 0
-1510 -1555 0
-1510 -1556 0
-1510 -1557 0
-1510 -1558 0
-1510 -1559 0
-1510 -1560 0
-1510 -1561 0
-1510 -1562 0
-1510 -1563 0
-1510 -1564 0
-1510 -1565 0
-1510 -1566 0
-1510 -1567 0
-1511 -1512 0
-1511 -1513 0
-1511 -1514 0
-1511 -1515 0
-1511 -1516 0
-1511 -1517 0
-1511 -1518 0
-1511 -1519 0
-1511 -1520 0
-1511 -1521 0
-1511 -1522 0
-1511 -1523 0
-1511 -1524 0
-1511 -1525 0
-1511 -1526 0
-1511 -1527 0
-1511 -1528 0
-1511 -1529 0
-1511 -1530 0
-1511 -1531 0
-1511 -1532 0
-1511 -1533 0
-1511 -1534 0
-1511 -1535 0
-1511 -1536 0
-1511 -1537 0
-1511 -1538 0
-1511 -1539 0
-1511 -1540 0
-1511 -1541 0
-1511 -1542 0
-1511 -1543 0
-1511 -1544 0
-1511 -1545 0
-1511 -1546 0
-1511 -1547 0
-1511 -1548 0
-1511 -1549 0
-1511 -1550 0
-1511 -1551 0
-1511 -1552 0
-1511 -1553 0
-1511 -1554 0
-1511 -1555 0
-1511 -1556 0
-1511 -1557 0
-1511 -1558 0
-1511 -1559 0
-1511 -1560 0
-1511 -1561 0
-1511 -1562 0
-1511 -1563 0
-1511 -1564 0
-1511 -1565 0
-1511 -1566 0
-1511 -1567 0
-1512 -1513 0
-1512 -1514 0
-1512 -1515 0
-1512 -1516 0
-1512 -1517 0
-1512 -1518 0
-1512 -1519 0
-1512 -1520 0
-1512 -1521 0
-1512 -1522 0
-1512 -1523 0
-1512 -1524 0
-1512 -1525 0
-1512 -1526 0
-1512 -1527 0
-1512 -1528 0
-1512 -1529 0
-1512 -1530 0
-1512 -1531 0
-1512 -1532 0
-1512 -1533 0
-1512 -1534 0
-1512 -1535 0
-1512 -1536 0
-1512 -1537 0
-1512 -1538 0
-1512 -1539 0
-1512 -1540 0
-1512 -1541 0
-1512 -1542 0
-1512 -1543 0
-1512 -1544 0
-1512 -1545 0
-1512 -1546 0
-1512 -1547 0
-1512 -1548 0
-1512 -1549 0
-1512 -1550 0
-1512 -1551 0
-1512 -1552 0
-1512 -1553 0
-1512 -1554 0
-1512 -1555 0
-1512 -1556 0
-1512 -1557 0
-1512 -1558 0
-1512 -1559 0
-1512 -1560 0
-1512 -1561 0
-1512 -1562 0
-1512 -1563 0
-1512 -1564 0
-1512 -1565 0
-1512 -1566 0
-1512 -1567 0
-1513 -1514 0
-1513 -1515 0
-1513 -1516 0
-1513 -1517 0
-1513 -1518 0
-1513 -1519 0
-1513 -1520 0
-1513 -1521 0
-1513 -1522 0
-1513 -1523 0
-1513 -1524 0
-1513 -1525 0
-1513 -1526 0
-1513 -1527 0
-1513 -1528 0
-1513 -1529 0
-1513 -1530 0
-1513 -1531 0
-1513 -1532 0
-1513 -1533 0
-1513 -1534 0
-1513 -1535 0
-1513 -1536 0
-1513 -1537 0
-1513 -1538 0
-1513 -1539 0
-1513 -1540 0
-1513 -1541 0
-1513 -1542 0
-1513 -1543 0
-1513 -1544 0
-1513 -1545 0
-1513 -1546 0
-1513 -1547 0
-1513 -1548 0
-1513 -1549 0
-1513 -1550 0
-1513 -1551 0
-1513 -1552 0
-1513 -1553 0
-1513 -1554 0
-1513 -1555 0
-1513 -1556 0
-1513 -1557 0
-1513 -1558 0
-1513 -1559 0
-1513 -1560 0
-1513 -1561 0
-1513 -1562 0
-1513 -1563 0
-1513 -1564 0
-1513 -1565 0
-1513 -1566 0
-1513 -1567 0
-1514 -1515 0
-1514 -1516 0
-1514 -1517 0
-1514 -1518 0
-1514 -1519 0
-1514 -1520 0
-1514 -1521 0
-1514 -1522 0
-1514 -1523 0
-1514 -1524 0
-1514 -1525 0
-1514 -1526 0
-1514 -1527 0
-1514 -1528 0
-1514 -1529 0
-1514 -1530 0
-1514 -1531 0
-1514 -1532 0
-1514 -1533 0
-1514 -1534 0
-1514 -1535 0
-1514 -1536 0
-1514 -1537 0
-1514 -1538 0
-1514 -1539 0
-1514 -1540 0
-1514 -1541 0
-1514 -1542 0
-1514 -1543 0
-1514 -1544 0
-1514 -1545 0
-1514 -1546 0
-1514 -1547 0
-1514 -1548 0
-1514 -1549 0
-1514 -1550 0
-1514 -1551 0
-1514 -1552 0
-1514 -1553 0
-1514 -1554 0
-1514 -1555 0
-1514 -1556 0
-1514 -1557 0
-1514 -1558 0
-1514 -1559 0
-1514 -1560 0
-1514 -1561 0
-1514 -1562 0
-1514 -1563 0
-1514 -1564 0
-1514 -1565 0
-1514 -1566 0
-1514 -1567 0
-1515 -1516 0
-1515 -1517 0
-1515 -1518 0
-1515 -1519 0
-1515 -1520 0
-1515 -1521 0
-1515 -1522 0
-1515 -1523 0
-1515 -1524 0
-1515 -1525 0
-1515 -1526 0
-1515 -1527 0
-1515 -1528 0
-1515 -1529 0
-1515 -1530 0
-1515 -1531 0
-1515 -1532 0
-1515 -1533 0
-1515 -1534 0
-1515 -1535 0
-1515 -1536 0
-1515 -1537 0
-1515 -1538 0
-1515 -1539 0
-1515 -1540 0
-1515 -1541 0
-1515 -1542 0
-1515 -1543 0
-1515 -1544 0
-1515 -1545 0
-1515 -1546 0
-1515 -1547 0
-1515 -1548 0
-1515 -1549 0
-1515 -1550 0
-1515 -1551 0
-1515 -1552 0
-1515 -1553 0
-1515 -1554 0
-1515 -1555 0
-1515 -1556 0
-1515 -1557 0
-1515 -1558 0
-1515 -1559 0
-1515 -1560 0
-1515 -1561 0
-1515 -1562 0
-1515 -1563 0
-1515 -1564 0
-1515 -1565 0
-1515 -1566 0
-1515 -1567 0
-1516 -1517 0
-1516 -1518 0
-1516 -1519 0
-1516 -1520 0
-1516 -1521 0
-1516 -1522 0
-1516 -1523 0
-1516 -1524 0
-1516 -1525 0
-1516 -1526 0
-1516 -1527 0
-1516 -1528 0
-1516 -1529 0
-1516 -1530 0
-1516 -1531 0
-1516 -1532 0
-1516 -1533 0
-1516 -1534 0
-1516 -1535 0
-1516 -1536 0
-1516 -1537 0
-1516 -1538 0
-1516 -1539 0
-1516 -1540 0
-1516 -1541 0
-1516 -1542 0
-1516 -1543 0
-1516 -1544 0
-1516 -1545 0
-1516 -1546 0
-1516 -1547 0
-1516 -1548 0
-1516 -1549 0
-1516 -1550 0
-1516 -1551 0
-1516 -1552 0
-1516 -1553 0
-1516 -1554 0
-1516 -1555 0
-1516 -1556 0
-1516 -1557 0
-1516 -1558 0
-1516 -1559 0
-1516 -1560 0
-1516 -1561 0
-1516 -1562 0
-1516 -1563 0
-1516 -1564 0
-1516 -1565 0
-1516 -1566 0
-1516 -1567 0
-1517 -1518 0
-1517 -1519 0
-1517 -1520 0
-1517 -1521 0
-1517 -1522 0
-1517 -1523 0
-1517 -1524 0
-1517 -1525 0
-1517 -1526 0
-1517 -1527 0
-1517 -1528 0
-1517 -1529 0
-1517 -1530 0
-1517 -1531 0
-1517 -1532 0
-1517 -1533 0
-1517 -1534 0
-1517 -1535 0
-1517 -1536 0
-1517 -1537 0
-1517 -1538 0
-1517 -1539 0
-1517 -1540 0
-1517 -1541 0
-1517 -1542 0
-1517 -1543 0
-1517 -1544 0
-1517 -1545 0
-1517 -1546 0
-1517 -1547 0
-1517 -1548 0
-1517 -1549 0
-1517 -1550 0
-1517 -1551 0
-1517 -1552 0
-1517 -1553 0
-1517 -1554 0
-1517 -1555 0
-1517 -1556 0
-1517 -1557 0
-1517 -1558 0
-1517 -1559 0
-1517 -1560 0
-1517 -1561 0
-1517 -1562 0
-1517 -1563 0
-1517 -1564 0
-1517 -1565 0
-1517 -1566 0
-1517 -1567 0
-1518 -1519 0
-1518 -1520 0
-1518 -1521 0
-1518 -1522 0
-1518 -1523 0
-1518 -1524 0
-1518 -1525 0
-1518 -1526 0
-1518 -1527 0
-1518 -1528 0
-1518 -1529 0
-1518 -1530 0
-1518 -1531 0
-1518 -1532 0
-1518 -1533 0
-1518 -1534 0
-1518 -1535 0
-1518 -1536 0
-1518 -1537 0
-1518 -1538 0
-1518 -1539 0
-1518 -1540 0
-1518 -1541 0
-1518 -1542 0
-1518 -1543 0
-1518 -1544 0
-1518 -1545 0
-1518 -1546 0
-1518 -1547 0
-1518 -1548 0
-1518 -1549 0
-1518 -1550 0
-1518 -1551 0
-1518 -1552 0
-1518 -1553 0
-1518 -1554 0
-1518 -1555 0
-1518 -1556 0
-1518 -1557 0
-1518 -1558 0
-1518 -1559 0
-1518 -1560 0
-1518 -1561 0
-1518 -1562 0
-1518 -1563 0
-1518 -1564 0
-1518 -1565 0
-1518 -1566 0
-1518 -1567 0
-1519 -1520 0
-1519 -1521 0
-1519 -1522 0
-1519 -1523 0
-1519 -1524 0
-1519 -1525 0
-1519 -1526 0
-1519 -1527 0
-1519 -1528 0
-1519 -1529 0
-1519 -1530 0
-1519 -1531 0
-1519 -1532 0
-1519 -1533 0
-1519 -1534 0
-1519 -1535 0
-1519 -1536 0
-1519 -1537 0
-1519 -1538 0
-1519 -1539 0
-1519 -1540 0
-1519 -1541 0
-1519 -1542 0
-1519 -1543 0
-1519 -1544 0
-1519 -1545 0
-1519 -1546 0
-1519 -1547 0
-1519 -1548 0
-1519 -1549 0
-1519 -1550 0
-1519 -1551 0
-1519 -1552 0
-1519 -1553 0
-1519 -1554 0
-1519 -1555 0
-1519 -1556 0
-1519 -1557 0
-1519 -1558 0
-1519 -1559 0
-1519 -1560 0
-1519 -1561 0
-1519 -1562 0
-1519 -1563 0
-1519 -1564 0
-1519 -1565 0
-1519 -1566 0
-1519 -1567 0
-1520 -1521 0
-1520 -1522 0
-1520 -1523 0
-1520 -1524 0
-1520 -1525 0
-1520 -1526 0
-1520 -1527 0
-1520 -1528 0
-1520 -1529 0
-1520 -1530 0
-1520 -1531 0
-1520 -1532 0
-1520 -1533 0
-1520 -1534 0
-1520 -1535 0
-1520 -1536 0
-1520 -1537 0
-1520 -1538 0
-1520 -1539 0
-1520 -1540 0
-1520 -1541 0
-1520 -1542 0
-1520 -1543 0
-1520 -1544 0
-1520 -1545 0
-1520 -1546 0
-1520 -1547 0
-1520 -1548 0
-1520 -1549 0
-1520 -1550 0
-1520 -1551 0
-1520 -1552 0
-1520 -1553 0
-1520 -1554 0
-1520 -1555 0
-1520 -1556 0
-1520 -1557 0
-1520 -1558 0
-1520 -1559 0
-1520 -1560 0
-1520 -1561 0
-1520 -1562 0
-1520 -1563 0
-1520 -1564 0
-1520 -1565 0
-1520 -1566 0
-1520 -1567 0
-1521 -1522 0
-1521 -1523 0
-1521 -1524 0
-1521 -1525 0
-1521 -1526 0
-1521 -1527 0
-1521 -1528 0
-1521 -1529 0
-1521 -1530 0
-1521 -1531 0
-1521 -1532 0
-1521 -1533 0
-1521 -1534 0
-1521 -1535 0
-1521 -1536 0
-1521 -1537 0
-1521 -1538 0
-1521 -1539 0
-1521 -1540 0
-1521 -1541 0
-1521 -1542 0
-1521 -1543 0
-1521 -1544 0
-1521 -1545 0
-1521 -1546 0
-1521 -1547 0
-1521 -1548 0
-1521 -1549 0
-1521 -1550 0
-1521 -1551 0
-1521 -1552 0
-1521 -1553 0
-1521 -1554 0
-1521 -1555 0
-1521 -1556 0
-1521 -1557 0
-1521 -1558 0
-1521 -1559 0
-1521 -1560 0
-1521 -1561 0
-1521 -1562 0
-1521 -1563 0
-1521 -1564 0
-1521 -1565 0
-1521 -1566 0
-1521 -1567 0
-1522 -1523 0
-1522 -1524 0
-1522 -1525 0
-1522 -1526 0
-1522 -1527 0
-1522 -1528 0
-1522 -1529 0
-1522 -1530 0
-1522 -1531 0
-1522 -1532 0
-1522 -1533 0
-1522 -1534 0
-1522 -1535 0
-1522 -1536 0
-1522 -1537 0
-1522 -1538 0
-1522 -1539 0
-1522 -1540 0
-1522 -1541 0
-1522 -1542 0
-1522 -1543 0
-1522 -1544 0
-1522 -1545 0
-1522 -1546 0
-1522 -1547 0
-1522 -1548 0
-1522 -1549 0
-1522 -1550 0
-1522 -1551 0
-1522 -1552 0
-1522 -1553 0
-1522 -1554 0
-1522 -1555 0
-1522 -1556 0
-1522 -1557 0
-1522 -1558 0
-1522 -1559 0
-1522 -1560 0
-1522 -1561 0
-1522 -1562 0
-1522 -1563 0
-1522 -1564 0
-1522 -1565 0
-1522 -1566 0
-1522 -1567 0
-1523 -1524 0
-1523 -1525 0
-1523 -1526 0
-1523 -1527 0
-1523 -1528 0
-1523 -1529 0
-1523 -1530 0
-1523 -1531 0
-1523 -1532 0
-1523 -1533 0
-1523 -1534 0
-1523 -1535 0
-1523 -1536 0
-1523 -1537 0
-1523 -1538 0
-1523 -1539 0
-1523 -1540 0
-1523 -1541 0
-1523 -1542 0
-1523 -1543 0
-1523 -1544 0
-1523 -1545 0
-1523 -1546 0
-1523 -1547 0
-1523 -1548 0
-1523 -1549 0
-1523 -1550 0
-1523 -1551 0
-1523 -1552 0
-1523 -1553 0
-1523 -1554 0
-1523 -1555 0
-1523 -1556 0
-1523 -1557 0
-1523 -1558 0
-1523 -1559 0
-1523 -1560 0
-1523 -1561 0
-1523 -1562 0
-1523 -1563 0
-1523 -1564 0
-1523 -1565 0
-1523 -1566 0
-1523 -1567 0
-1524 -1525 0
-1524 -1526 0
-1524 -1527 0
-1524 -1528 0
-1524 -1529 0
-1524 -1530 0
-1524 -1531 0
-1524 -1532 0
-1524 -1533 0
-1524 -1534 0
-1524 -1535 0
-1524 -1536 0
-1524 -1537 0
-1524 -1538 0
-1524 -1539 0
-1524 -1540 0
-1524 -1541 0
-1524 -1542 0
-1524 -1543 0
-1524 -1544 0
-1524 -1545 0
-1524 -1546 0
-1524 -1547 0
-1524 -1548 0
-1524 -1549 0
-1524 -1550 0
-1524 -1551 0
-1524 -1552 0
-1524 -1553 0
-1524 -1554 0
-1524 -1555 0
-1524 -1556 0
-1524 -1557 0
-1524 -1558 0
-1524 -1559 0
-1524 -1560 0
-1524 -1561 0
-1524 -1562 0
-1524 -1563 0
-1524 -1564 0
-1524 -1565 0
-1524 -1566 0
-1524 -1567 0
-1525 -1526 0
-1525 -1527 0
-1525 -1528 0
-1525 -1529 0
-1525 -1530 0
-1525 -1531 0
-1525 -1532 0
-1525 -1533 0
-1525 -1534 0
-1525 -1535 0
-1525 -1536 0
-1525 -1537 0
-1525 -1538 0
-1525 -1539 0
-1525 -1540 0
-1525 -1541 0
-1525 -1542 0
-1525 -1543 0
-1525 -1544 0
-1525 -1545 0
-1525 -1546 0
-1525 -1547 0
-1525 -1548 0
-1525 -1549 0
-1525 -1550 0
-1525 -1551 0
-1525 -1552 0
-1525 -1553 0
-1525 -1554 0
-1525 -1555 0
-1525 -1556 0
-1525 -1557 0
-1525 -1558 0
-1525 -1559 0
-1525 -1560 0
-1525 -1561 0
-1525 -1562 0
-1525 -1563 0
-1525 -1564 0
-1525 -1565 0
-1525 -1566 0
-1525 -1567 0
-1526 -1527 0
-1526 -1528 0
-1526 -1529 0
-1526 -1530 0
-1526 -1531 0
-1526 -1532 0
-1526 -1533 0
-1526 -1534 0
-1526 -1535 0
-1526 -1536 0
-1526 -1537 0
-1526 -1538 0
-1526 -1539 0
-1526 -1540 0
-1526 -1541 0
-1526 -1542 0
-1526 -1543 0
-1526 -1544 0
-1526 -1545 0
-1526 -1546 0
-1526 -1547 0
-1526 -1548 0
-1526 -1549 0
-1526 -1550 0
-1526 -1551 0
-1526 -1552 0
-1526 -1553 0
-1526 -1554 0
-1526 -1555 0
-1526 -1556 0
-1526 -1557 0
-1526 -1558 0
-1526 -1559 0
-1526 -1560 0
-1526 -1561 0
-1526 -1562 0
-1526 -1563 0
-1526 -1564 0
-1526 -1565 0
-1526 -1566 0
-1526 -1567 0
-1527 -1528 0
-1527 -1529 0
-1527 -1530 0
-1527 -1531 0
-1527 -1532 0
-1527 -1533 0
-1527 -1534 0
-1527 -1535 0
-1527 -1536 0
-1527 -1537 0
-1527 -1538 0
-1527 -1539 0
-1527 -1540 0
-1527 -1541 0
-1527 -1542 0
-1527 -1543 0
-1527 -1544 0
-1527 -1545 0
-1527 -1546 0
-1527 -1547 0
-1527 -1548 0
-1527 -1549 0
-1527 -1550 0
-1527 -1551 0
-1527 -1552 0
-1527 -1553 0
-1527 -1554 0
-1527 -1555 0
-1527 -1556 0
-1527 -1557 0
-1527 -1558 0
-1527 -1559 0
-1527 -1560 0
-1527 -1561 0
-1527 -1562 0
-1527 -1563 0
-1527 -1564 0
-1527 -1565 0
-1527 -1566 0
-1527 -1567 0
-1528 -1529 0
-1528 -1530 0
-1528 -1531 0
-1528 -1532 0
-1528 -1533 0
-1528 -1534 0
-1528 -1535 0
-1528 -1536 0
-1528 -1537 0
-1528 -1538 0
-1528 -1539 0
-1528 -1540 0
-1528 -1541 0
-1528 -1542 0
-1528 -1543 0
-1528 -1544 0
-1528 -1545 0
-1528 -1546 0
-1528 -1547 0
-1528 -1548 0
-1528 -1549 0
-1528 -1550 0
-1528 -1551 0
-1528 -1552 0
-1528 -1553 0
-1528 -1554 0
-1528 -1555 0
-1528 -1556 0
-1528 -1557 0
-1528 -1558 0
-1528 -1559 0
-1528 -1560 0
-1528 -1561 0
-1528 -1562 0
-1528 -1563 0
-1528 -1564 0
-1528 -1565 0
-1528 -1566 0
-1528 -1567 0
-1529 -1530 0
-1529 -1531 0
-1529 -1532 0
-1529 -1533 0
-1529 -1534 0
-1529 -1535 0
-1529 -1536 0
-1529 -1537 0
-1529 -1538 0
-1529 -1539 0
-1529 -1540 0
-1529 -1541 0
-1529 -1542 0
-1529 -1543 0
-1529 -1544 0
-1529 -1545 0
-1529 -1546 0
-1529 -1547 0
-1529 -1548 0
-1529 -1549 0
-1529 -1550 0
-1529 -1551 0
-1529 -1552 0
-1529 -1553 0
-1529 -1554 0
-1529 -1555 0
-1529 -1556 0
-1529 -1557 0
-1529 -1558 0
-1529 -1559 0
-1529 -1560 0
-1529 -1561 0
-1529 -1562 0
-1529 -1563 0
-1529 -1564 0
-1529 -1565 0
-1529 -1566 0
-1529 -1567 0
-1530 -1531 0
-1530 -1532 0
-1530 -1533 0
-1530 -1534 0
-1530 -1535 0
-1530 -1536 0
-1530 -1537 0
-1530 -1538 0
-1530 -1539 0
-1530 -1540 0
-1530 -1541 0
-1530 -1542 0
-1530 -1543 0
-1530 -1544 0
-1530 -1545 0
-1530 -1546 0
-1530 -1547 0
-1530 -1548 0
-1530 -1549 0
-1530 -1550 0
-1530 -1551 0
-1530 -1552 0
-1530 -1553 0
-1530 -1554 0
-1530 -1555 0
-1530 -1556 0
-1530 -1557 0
-1530 -1558 0
-1530 -1559 0
-1530 -1560 0
-1530 -1561 0
-1530 -1562 0
-1530 -1563 0
-1530 -1564 0
-1530 -1565 0
-1530 -1566 0
-1530 -1567 0
-1531 -1532 0
-1531 -1533 0
-1531 -1534 0
-1531 -1535 0
-1531 -1536 0
-1531 -1537 0
-1531 -1538 0
-1531 -1539 0
-1531 -1540 0
-1531 -1541 0
-1531 -1542 0
-1531 -1543 0
-1531 -1544 0
-1531 -1545 0
-1531 -1546 0
-1531 -1547 0
-1531 -1548 0
-1531 -1549 0
-1531 -1550 0
-1531 -1551 0
-1531 -1552 0
-1531 -1553 0
-1531 -1554 0
-1531 -1555 0
-1531 -1556 0
-1531 -1557 0
-1531 -1558 0
-1531 -1559 0
-1531 -1560 0
-1531 -1561 0
-1531 -1562 0
-1531 -1563 0
-1531 -1564 0
-1531 -1565 0
-1531 -1566 0
-1531 -1567 0
-1532 -1533 0
-1532 -1534 0
-1532 -1535 0
-1532 -1536 0
-1532 -1537 0
-1532 -1538 0
-1532 -1539 0
-1532 -1540 0
-1532 -1541 0
-1532 -1542 0
-1532 -1543 0
-1532 -1544 0
-1532 -1545 0
-1532 -1546 0
-1532 -1547 0
-1532 -1548 0
-1532 -1549 0
-1532 -1550 0
-1532 -1551 0
-1532 -1552 0
-1532 -1553 0
-1532 -1554 0
-1532 -1555 0
-1532 -1556 0
-1532 -1557 0
-1532 -1558 0
-1532 -1559 0
-1532 -1560 0
-1532 -1561 0
-1532 -1562 0
-1532 -1563 0
-1532 -1564 0
-1532 -1565 0
-1532 -1566 0
-1532 -1567 0
-1533 -1534 0
-1533 -1535 0
-1533 -1536 0
-1533 -1537 0
-1533 -1538 0
-1533 -1539 0
-1533 -1540 0
-1533 -1541 0
-1533 -1542 0
-1533 -1543 0
-1533 -1544 0
-1533 -1545 0
-1533 -1546 0
-1533 -1547 0
-1533 -1548 0
-1533 -1549 0
-1533 -1550 0
-1533 -1551 0
-1533 -1552 0
-1533 -1553 0
-1533 -1554 0
-1533 -1555 0
-1533 -1556 0
-1533 -1557 0
-1533 -1558 0
-1533 -1559 0
-1533 -1560 0
-1533 -1561 0
-1533 -1562 0
-1533 -1563 0
-1533 -1564 0
-1533 -1565 0
-1533 -1566 0
-1533 -1567 0
-1534 -1535 0
-1534 -1536 0
-1534 -1537 0
-1534 -1538 0
-1534 -1539 0
-1534 -1540 0
-1534 -1541 0
-1534 -1542 0
-1534 -1543 0
-1534 -1544 0
-1534 -1545 0
-1534 -1546 0
-1534 -1547 0
-1534 -1548 0
-1534 -1549 0
-1534 -1550 0
-1534 -1551 0
-1534 -1552 0
-1534 -1553 0
-1534 -1554 0
-1534 -1555 0
-1534 -1556 0
-1534 -1557 0
-1534 -1558 0
-1534 -1559 0
-1534 -1560 0
-1534 -1561 0
-1534 -1562 0
-1534 -1563 0
-1534 -1564 0
-1534 -1565 0
-1534 -1566 0
-1534 -1567 0
-1535 -1536 0
-1535 -1537 0
-1535 -1538 0
-1535 -1539 0
-1535 -1540 0
-1535 -1541 0
-1535 -1542 0
-1535 -1543 0
-1535 -1544 0
-1535 -1545 0
-1535 -1546 0
-1535 -1547 0
-1535 -1548 0
-1535 -1549 0
-1535 -1550 0
-1535 -1551 0
-1535 -1552 0
-1535 -1553 0
-1535 -1554 0
-1535 -1555 0
-1535 -1556 0
-1535 -1557 0
-1535 -1558 0
-1535 -1559 0
-1535 -1560 0
-1535 -1561 0
-1535 -1562 0
-1535 -1563 0
-1535 -1564 0
-1535 -1565 0
-1535 -1566 0
-1535 -1567 0
-1536 -1537 0
-1536 -1538 0
-1536 -1539 0
-1536 -1540 0
-1536 -1541 0
-1536 -1542 0
-1536 -1543 0
-1536 -1544 0
-1536 -1545 0
-1536 -1546 0
-1536 -1547 0
-1536 -1548 0
-1536 -1549 0
-1536 -1550 0
-1536 -1551 0
-1536 -1552 0
-1536 -1553 0
-1536 -1554 0
-1536 -1555 0
-1536 -1556 0
-1536 -1557 0
-1536 -1558 0
-1536 -1559 0
-1536 -1560 0
-1536 -1561 0
-1536 -1562 0
-1536 -1563 0
-1536 -1564 0
-1536 -1565 0
-1536 -1566 0
-1536 -1567 0
-1537 -1538 0
-1537 -1539 0
-1537 -1540 0
-1537 -1541 0
-1537 -1542 0
-1537 -1543 0
-1537 -1544 0
-1537 -1545 0
-1537 -1546 0
-1537 -1547 0
-1537 -1548 0
-1537 -1549 0
-1537 -1550 0
-1537 -1551 0
-1537 -1552 0
-1537 -1553 0
-1537 -1554 0
-1537 -1555 0
-1537 -1556 0
-1537 -1557 0
-1537 -1558 0
-1537 -1559 0
-1537 -1560 0
-1537 -1561 0
-1537 -1562 0
-1537 -1563 0
-1537 -1564 0
-1537 -1565 0
-1537 -1566 0
-1537 -1567 0
-1538 -1539 0
-1538 -1540 0
-1538 -1541 0
-1538 -1542 0
-1538 -1543 0
-1538 -1544 0
-1538 -1545 0
-1538 -1546 0
-1538 -1547 0
-1538 -1548 0
-1538 -1549 0
-1538 -1550 0
-1538 -1551 0
-1538 -1552 0
-1538 -1553 0
-1538 -1554 0
-1538 -1555 0
-1538 -1556 0
-1538 -1557 0
-1538 -1558 0
-1538 -1559 0
-1538 -1560 0
-1538 -1561 0
-1538 -1562 0
-1538 -1563 0
-1538 -1564 0
-1538 -1565 0
-1538 -1566 0
-1538 -1567 0
-1539 -1540 0
-1539 -1541 0
-1539 -1542 0
-1539 -1543 0
-1539 -1544 0
-1539 -1545 0
-1539 -1546 0
-1539 -1547 0
-1539 -1548 0
-1539 -1549 0
-1539 -1550 0
-1539 -1551 0
-1539 -1552 0
-1539 -1553 0
-1539 -1554 0
-1539 -1555 0
-1539 -1556 0
-1539 -1557 0
-1539 -1558 0
-1539 -1559 0
-1539 -1560 0
-1539 -1561 0
-1539 -1562 0
-1539 -1563 0
-1539 -1564 0
-1539 -1565 0
-1539 -1566 0
-1539 -1567 0
-1540 -1541 0
-1540 -1542 0
-1540 -1543 0
-1540 -1544 0
-1540 -1545 0
-1540 -1546 0
-1540 -1547 0
-1540 -1548 0
-1540 -1549 0
-1540 -1550 0
-1540 -1551 0
-1540 -1552 0
-1540 -1553 0
-1540 -1554 0
-1540 -1555 0
-1540 -1556 0
-1540 -1557 0
-1540 -1558 0
-1540 -1559 0
-1540 -1560 0
-1540 -1561 0
-1540 -1562 0
-1540 -1563 0
-1540 -1564 0
-1540 -1565 0
-1540 -1566 0
-1540 -1567 0
-1541 -1542 0
-1541 -1543 0
-1541 -1544 0
-1541 -1545 0
-1541 -1546 0
-1541 -1547 0
-1541 -1548 0
-1541 -1549 0
-1541 -1550 0
-1541 -1551 0
-1541 -1552 0
-1541 -1553 0
-1541 -1554 0
-1541 -1555 0
-1541 -1556 0
-1541 -1557 0
-1541 -1558 0
-1541 -1559 0
-1541 -1560 0
-1541 -1561 0
-1541 -1562 0
-1541 -1563 0
-1541 -1564 0
-1541 -1565 0
-1541 -1566 0
-1541 -1567 0
-1542 -1543 0
-1542 -1544 0
-1542 -1545 0
-1542 -1546 0
-1542 -1547 0
-1542 -1548 0
-1542 -1549 0
-1542 -1550 0
-1542 -1551 0
-1542 -1552 0
-1542 -1553 0
-1542 -1554 0
-1542 -1555 0
-1542 -1556 0
-1542 -1557 0
-1542 -1558 0
-1542 -1559 0
-1542 -1560 0
-1542 -1561 0
-1542 -1562 0
-1542 -1563 0
-1542 -1564 0
-1542 -1565 0
-1542 -1566 0
-1542 -1567 0
-1543 -1544 0
-1543 -1545 0
-1543 -1546 0
-1543 -1547 0
-1543 -1548 0
-1543 -1549 0
-1543 -1550 0
-1543 -1551 0
-1543 -1552 0
-1543 -1553 0
-1543 -1554 0
-1543 -1555 0
-1543 -1556 0
-1543 -1557 0
-1543 -1558 0
-1543 -1559 0
-1543 -1560 0
-1543 -1561 0
-1543 -1562 0
-1543 -1563 0
-1543 -1564 0
-1543 -1565 0
-1543 -1566 0
-1543 -1567 0
-1544 -1545 0
-1544 -1546 0
-1544 -1547 0
-1544 -1548 0
-1544 -1549 0
-1544 -1550 0
-1544 -1551 0
-1544 -1552 0
-1544 -1553 0
-1544 -1554 0
-1544 -1555 0
-1544 -1556 0
-1544 -1557 0
-1544 -1558 0
-1544 -1559 0
-1544 -1560 0
-1544 -1561 0
-1544 -1562 0
-1544 -1563 0
-1544 -1564 0
-1544 -1565 0
-1544 -1566 0
-1544 -1567 0
-1545 -1546 0
-1545 -1547 0
-1545 -1548 0
-1545 -1549 0
-1545 -1550 0
-1545 -1551 0
-1545 -1552 0
-1545 -1553 0
-1545 -1554 0
-1545 -1555 0
-1545 -1556 0
-1545 -1557 0
-1545 -1558 0
-1545 -1559 0
-1545 -1560 0
-1545 -1561 0
-1545 -1562 0
-1545 -1563 0
-1545 -1564 0
-1545 -1565 0
-1545 -1566 0
-1545 -1567 0
-1546 -1547 0
-1546 -1548 0
-1546 -1549 0
-1546 -1550 0
-1546 -1551 0
-1546 -1552 0
-1546 -1553 0
-1546 -1554 0
-1546 -1555 0
-1546 -1556 0
-1546 -1557 0
-1546 -1558 0
-1546 -1559 0
-1546 -1560 0
-1546 -1561 0
-1546 -1562 0
-1546 -1563 0
-1546 -1564 0
-1546 -1565 0
-1546 -1566 0
-1546 -1567 0
-1547 -1548 0
-1547 -1549 0
-1547 -1550 0
-1547 -1551 0
-1547 -1552 0
-1547 -1553 0
-1547 -1554 0
-1547 -1555 0
-1547 -1556 0
-1547 -1557 0
-1547 -1558 0
-1547 -1559 0
-1547 -1560 0
-1547 -1561 0
-1547 -1562 0
-1547 -1563 0
-1547 -1564 0
-1547 -1565 0
-1547 -1566 0
-1547 -1567 0
-1548 -1549 0
-1548 -1550 0
-1548 -1551 0
-1548 -1552 0
-1548 -1553 0
-1548 -1554 0
-1548 -1555 0
-1548 -1556 0
-1548 -1557 0
-1548 -1558 0
-1548 -1559 0
-1548 -1560 0
-1548 -1561 0
-1548 -1562 0
-1548 -1563 0
-1548 -1564 0
-1548 -1565 0
-1548 -1566 0
-1548 -1567 0
-1549 -1550 0
-1549 -1551 0
-1549 -1552 0
-1549 -1553 0
-1549 -1554 0
-1549 -1555 0
-1549 -1556 0
-1549 -1557 0
-1549 -1558 0
-1549 -1559 0
-1549 -1560 0
-1549 -1561 0
-1549 -1562 0
-1549 -1563 0
-1549 -1564 0
-1549 -1565 0
-1549 -1566 0
-1549 -1567 0
-1550 -1551 0
-1550 -1552 0
-1550 -1553 0
-1550 -1554 0
-1550 -1555 0
-1550 -1556 0
-1550 -1557 0
-1550 -1558 0
-1550 -1559 0
-1550 -1560 0
-1550 -1561 0
-1550 -1562 0
-1550 -1563 0
-1550 -1564 0
-1550 -1565 0
-1550 -1566 0
-1550 -1567 0
-1551 -1552 0
-1551 -1553 0
-1551 -1554 0
-1551 -1555 0
-1551 -1556 0
-1551 -1557 0
-1551 -1558 0
-1551 -1559 0
-1551 -1560 0
-1551 -1561 0
-1551 -1562 0
-1551 -1563 0
-1551 -1564 0
-1551 -1565 0
-1551 -1566 0
-1551 -1567 0
-1552 -1553 0
-1552 -1554 0
-1552 -1555 0
-1552 -1556 0
-1552 -1557 0
-1552 -1558 0
-1552 -1559 0
-1552 -1560 0
-1552 -1561 0
-1552 -1562 0
-1552 -1563 0
-1552 -1564 0
-1552 -1565 0
-1552 -1566 0
-1552 -1567 0
-1553 -1554 0
-1553 -1555 0
-1553 -1556 0
-1553 -1557 0
-1553 -1558 0
-1553 -1559 0
-1553 -1560 0
-1553 -1561 0
-1553 -1562 0
-1553 -1563 0
-1553 -1564 0
-1553 -1565 0
-1553 -1566 0
-1553 -1567 0
-1554 -1555 0
-1554 -1556 0
-1554 -1557 0
-1554 -1558 0
-1554 -1559 0
-1554 -1560 0
-1554 -1561 0
-1554 -1562 0
-1554 -1563 0
-1554 -1564 0
-1554 -1565 0
-1554 -1566 0
-1554 -1567 0
-1555 -1556 0
-1555 -1557 0
-1555 -1558 0
-1555 -1559 0
-1555 -1560 0
-1555 -1561 0
-1555 -1562 0
-1555 -1563 0
-1555 -1564 0
-1555 -1565 0
-1555 -1566 0
-1555 -1567 0
-1556 -1557 0
-1556 -1558 0
-1556 -1559 0
-1556 -1560 0
-1556 -1561 0
-1556 -1562 0
-1556 -1563 0
-1556 -1564 0
-1556 -1565 0
-1556 -1566 0
-1556 -1567 0
-1557 -1558 0
-1557 -1559 0
-1557 -1560 0
-1557 -1561 0
-1557 -1562 0
-1557 -1563 0
-1557 -1564 0
-1557 -1565 0
-1557 -1566 0
-1557 -1567 0
-1558 -1559 0
-1558 -1560 0
-1558 -1561 0
-1558 -1562 0
-1558 -1563 0
-1558 -1564 0
-1558 -1565 0
-1558 -1566 0
-1558 -1567 0
-1559 -1560 0
-1559 -1561 0
-1559 -1562 0
-1559 -1563 0
-1559 -1564 0
-1559 -1565 0
-1559 -1566 0
-1559 -1567 0
-1560 -1561 0
-1560 -1562 0
-1560 -1563 0
-1560 -1564 0
-1560 -1565 0
-1560 -1566 0
-1560 -1567 0
-1561 -1562 0
-1561 -1563 0
-1561 -1564 0
-1561 -1565 0
-1561 -1566 0
-1561 -1567 0
-1562 -1563 0
-1562 -1564 0
-1562 -1565 0
-1562 -1566 0
-1562 -1567 0
-1563 -1564 0
-1563 -1565 0
-1563 -1566 0
-1563 -1567 0
-1564 -1565 0
-1564 -1566 0
-1564 -1567 0
-1565 -1566 0
-1565 -1567 0
-1566 -1567 0
-1568 1484 1485 1486 1487 1488 1489 1490 1491 1492 1493 1494 1495 1496 1497 1498 1499 1500 1501 1502 1503 1504 1505 1506 1507 0
-1484 1568 0
-1485 1568 0
-1486 1568 0
-1487 1568 0
-1488 1568 0
-1489 1568 0
-1490 1568 0
-1491 1568 0
-1492 1568 0
-1493 1568 0
-1494 1568 0
-1495 1568 0
-1496 1568 0
-1497 1568 0
-1498 1568 0
-1499 1568 0
-1500 1568 0
-1501 1568 0
-1502 1568 0
-1503 1568 0
-1504 1568 0
-1505 1568 0
-1506 1568 0
-1507 1568 0
1568 -746 895 0
1568 746 -895 0
1568 -747 896 0
1568 747 -896 0
1568 -748 897 0
1568 748 -897 0
1568 -749 898 0
1568 749 -898 0
1568 -750 899 0
1568 750 -899 0
1568 -751 900 0
1568 751 -900 0
1568 -752 901 0
1568 752 -901 0
1568 -753 902 0
1568 753 -902 0
1568 -754 903 0
1568 754 -903 0
1568 -755 904 0
1568 755 -904 0
-1569 1508 1509 1510 1511 1512 1513 1514 1515 1516 1517 1518 1519 1520 1521 1522 1523 1524 1525 1526 1527 1528 1529 1530 1531 0
-1508 1569 0
-1509 1569 0
-1510 1569 0
-1511 1569 0
-1512 1569 0
-1513 1569 0
-1514 1569 0
-1515 1569 0
-1516 1569 0
-1517 1569 0
-1518 1569 0
-1519 1569 0
-1520 1569 0
-1521 1569 0
-1522 1569 0
-1523 1569 0
-1524 1569 0
-1525 1569 0
-1526 1569 0
-1527 1569 0
-1528 1569 0
-1529 1569 0
-1530 1569 0
-1531 1569 0
1569 -756 905 0
1569 756 -905 0
1569 -757 906 0
1569 757 -906 0
1569 -758 907 0
1569 758 -907 0
1569 -759 908 0
1569 759 -908 0
1569 -760 909 0
1569 760 -909 0
1569 -761 910 0
1569 761 -910 0
1569 -762 911 0
1569 762 -911 0
1569 -763 912 0
1569 763 -912 0
1569 -764 913 0
1569 764 -913 0
1569 -765 914 0
1569 765 -914 0
-1570 1532 1533 1534 1535 1536 1537 1538 1539 1540 1541 1542 1543 1544 1545 1546 1547 1548 1549 1550 1551 0
-1532 1570 0
-1533 1570 0
-1534 1570 0
-1535 1570 0
-1536 1570 0
-1537 1570 0
-1538 1570 0
-1539 1570 0
-1540 1570 0
-1541 1570 0
-1542 1570 0
-1543 1570 0
-1544 1570 0
-1545 1570 0
-1546 1570 0
-1547 1570 0
-1548 1570 0
-1549 1570 0
-1550 1570 0
-1551 1570 0
1570 -766 915 0
1570 766 -915 0
1570 -767 916 0
1570 767 -916 0
1570 -768 917 0
1570 768 -917 0
1570 -769 918 0
1570 769 -918 0
1570 -770 919 0
1570 770 -919 0
1570 -771 920 0
1570 771 -920 0
1570 -772 921 0
1570 772 -921 0
1570 -773 922 0
1570 773 -922 0
1570 -774 923 0
1570 774 -923 0
-1571 1552 1553 1554 1555 1556 1557 1558 1559 1560 1561 1562 1563 1564 1565 1566 1567 0
-1552 1571 0
-1553 1571 0
-1554 1571 0
-1555 1571 0
-1556 1571 0
-1557 1571 0
-1558 1571 0
-1559 1571 0
-1560 1571 0
-1561 1571 0
-1562 1571 0
-1563 1571 0
-1564 1571 0
-1565 1571 0
-1566 1571 0
-1567 1571 0
1571 -775 924 0
1571 775 -924 0
1571 -776 925 0
1571 776 -925 0
1571 -777 926 0
1571 777 -926 0
1571 -778 927 0
1571 778 -927 0
1571 -779 928 0
1571 779 -928 0
1571 -780 929 0
1571 780 -929 0
1571 -781 930 0
1571 781 -930 0
1571 -782 931 0
1571 782 -931 0
-1484 891 0
-1484 895 0
-1484 -757 0
-1484 -758 0
-1484 -759 0
-1484 -760 0
-1484 -761 0
-1484 -765 0
-1484 -762 902 0
-1484 -762 -746 -753 0
-1484 -762 -808 0
-1484 -762 -809 0
-1484 -762 -810 0
-1484 -762 -832 0
-1484 -762 -833 0
-1484 -762 -834 0
-1484 -762 -852 0
-1484 -762 -853 0
-1484 -762 -854 0
-1484 -763 903 0
-1484 -763 -746 -754 0
-1484 -763 -809 0
-1484 -763 -810 0
-1484 -763 -833 0
-1484 -763 -834 0
-1484 -763 -853 0
-1484 -763 -854 0
-1484 -764 904 0
-1484 -764 -746 -755 0
-1484 -764 -810 0
-1484 -764 -834 0
-1484 -764 -854 0
-1485 891 0
-1485 896 0
-1485 -756 0
-1485 -758 0
-1485 -759 0
-1485 -760 0
-1485 -761 0
-1485 -765 0
-1485 -762 902 0
-1485 -762 -747 -753 0
-1485 -762 -812 0
-1485 -762 -813 0
-1485 -762 -814 0
-1485 -762 -832 0
-1485 -762 -833 0
-1485 -762 -834 0
-1485 -762 -836 0
-1485 -762 -837 0
-1485 -762 -838 0
-1485 -762 -852 0
-1485 -762 -853 0
-1485 -762 -854 0
-1485 -762 -856 0
-1485 -762 -857 0
-1485 -762 -858 0
-1485 -763 903 0
-1485 -763 -747 -754 0
-1485 -763 -813 0
-1485 -763 -814 0
-1485 -763 -833 0
-1485 -763 -834 0
-1485 -763 -837 0
-1485 -763 -838 0
-1485 -763 -853 0
-1485 -763 -854 0
-1485 -763 -857 0
-1485 -763 -858 0
-1485 -764 904 0
-1485 -764 -747 -755 0
-1485 -764 -814 0
-1485 -764 -834 0
-1485 -764 -838 0
-1485 -764 -854 0
-1485 -764 -858 0
-1486 891 0
-1486 897 0
-1486 -756 0
-1486 -757 0
-1486 -759 0
-1486 -760 0
-1486 -761 0
-1486 -765 0
-1486 -762 902 0
-1486 -762 -748 -753 0
-1486 -762 -816 0
-1486 -762 -817 0
-1486 -762 -818 0
-1486 -762 -836 0
-1486 -762 -837 0
-1486 -762 -838 0
-1486 -762 -840 0
-1486 -762 -841 0
-1486 -762 -842 0
-1486 -762 -852 0
-1486 -762 -853 0
-1486 -762 -854 0
-1486 -762 -856 0
-1486 -762 -857 0
-1486 -762 -858 0
-1486 -762 -860 0
-1486 -762 -861 0
-1486 -762 -862 0
-1486 -763 903 0
-1486 -763 -748 -754 0
-1486 -763 -817 0
-1486 -763 -818 0
-1486 -763 -837 0
-1486 -763 -838 0
-1486 -763 -841 0
-1486 -763 -842 0
-1486 -763 -853 0
-1486 -763 -854 0
-1486 -763 -857 0
-1486 -763 -858 0
-1486 -763 -861 0
-1486 -763 -862 0
-1486 -764 904 0
-1486 -764 -748 -755 0
-1486 -764 -818 0
-1486 -764 -838 0
-1486 -764 -842 0
-1486 -764 -854 0
-1486 -764 -858 0
-1486 -764 -862 0
-1487 891 0
-1487 898 0
-1487 -756 0
-1487 -757 0
-1487 -758 0
-1487 -760 0
-1487 -761 0
-1487 -765 0
-1487 -762 902 0
-1487 -762 -749 -753 0
-1487 -762 -820 0
-1487 -762 -821 0
-1487 -762 -822 0
-1487 -762 -840 0
-1487 -762 -841 0
-1487 -762 -842 0
-1487 -762 -844 0
-1487 -762 -845 0
-1487 -762 -846 0
-1487 -762 -856 0
-1487 -762 -857 0
-1487 -762 -858 0
-1487 -762 -860 0
-1487 -762 -861 0
-1487 -762 -862 0
-1487 -762 -864 0
-1487 -762 -865 0
-1487 -762 -866 0
-1487 -763 903 0
-1487 -763 -749 -754 0
-1487 -763 -821 0
-1487 -763 -822 0
-1487 -763 -841 0
-1487 -763 -842 0
-1487 -763 -845 0
-1487 -763 -846 0
-1487 -763 -857 0
-1487 -763 -858 0
-1487 -763 -861 0
-1487 -763 -862 0
-1487 -763 -865 0
-1487 -763 -866 0
-1487 -764 904 0
-1487 -764 -749 -755 0
-1487 -764 -822 0
-1487 -764 -842 0
-1487 -764 -846 0
-1487 -764 -858 0
-1487 -764 -862 0
-1487 -764 -866 0
-1488 891 0
-1488 899 0
-1488 -756 0
-1488 -757 0
-1488 -758 0
-1488 -759 0
-1488 -761 0
-1488 -765 0
-1488 -762 902 0
-1488 -762 -750 -753 0
-1488 -762 -824 0
-1488 -762 -825 0
-1488 -762 -826 0
-1488 -762 -844 0
-1488 -762 -845 0
-1488 -762 -846 0
-1488 -762 -848 0
-1488 -762 -849 0
-1488 -762 -850 0
-1488 -762 -860 0
-1488 -762 -861 0
-1488 -762 -862 0
-1488 -762 -864 0
-1488 -762 -865 0
-1488 -762 -866 0
-1488 -763 903 0
-1488 -763 -750 -754 0
-1488 -763 -825 0
-1488 -763 -826 0
-1488 -763 -845 0
-1488 -763 -846 0
-1488 -763 -849 0
-1488 -763 -850 0
-1488 -763 -861 0
-1488 -763 -862 0
-1488 -763 -865 0
-1488 -763 -866 0
-1488 -764 904 0
-1488 -764 -750 -755 0
-1488 -764 -826 0
-1488 -764 -846 0
-1488 -764 -850 0
-1488 -764 -862 0
-1488 -764 -866 0
-1489 891 0
-1489 900 0
-1489 -756 0
-1489 -757 0
-1489 -758 0
-1489 -759 0
-1489 -760 0
-1489 -765 0
-1489 -762 902 0
-1489 -762 -751 -753 0
-1489 -762 -828 0
-1489 -762 -829 0
-1489 -762 -830 0
-1489 -762 -848 0
-1489 -762 -849 0
-1489 -762 -850 0
-1489 -762 -864 0
-1489 -762 -865 0
-1489 -762 -866 0
-1489 -763 903 0
-1489 -763 -751 -754 0
-1489 -763 -829 0
-1489 -763 -830 0
-1489 -763 -849 0
-1489 -763 -850 0
-1489 -763 -865 0
-1489 -763 -866 0
-1489 -764 904 0
-1489 -764 -751 -755 0
-1489 -764 -830 0
-1489 -764 -850 0
-1489 -764 -866 0
-1490 891 0
-1490 895 0
-1490 -767 0
-1490 -768 0
-1490 -769 0
-1490 -770 0
-1490 -774 0
-1490 -771 902 0
-1490 -771 -746 -753 0
-1490 -771 -808 0
-1490 -771 -809 0
-1490 -771 -810 0
-1490 -771 -832 0
-1490 -771 -833 0
-1490 -771 -834 0
-1490 -771 -852 0
-1490 -771 -853 0
-1490 -771 -854 0
-1490 -772 903 0
-1490 -772 -746 -754 0
-1490 -772 -809 0
-1490 -772 -810 0
-1490 -772 -833 0
-1490 -772 -834 0
-1490 -772 -853 0
-1490 -772 -854 0
-1490 -773 904 0
-1490 -773 -746 -755 0
-1490 -773 -810 0
-1490 -773 -834 0
-1490 -773 -854 0
-1491 891 0
-1491 896 0
-1491 -768 0
-1491 -769 0
-1491 -770 0
-1491 -774 0
-1491 -771 902 0
-1491 -771 -747 -753 0
-1491 -771 -812 0
-1491 -771 -813 0
-1491 -771 -814 0
-1491 -771 -832 0
-1491 -771 -833 0
-1491 -771 -834 0
-1491 -771 -836 0
-1491 -771 -837 0
-1491 -771 -838 0
-1491 -771 -852 0
-1491 -771 -853 0
-1491 -771 -854 0
-1491 -771 -856 0
-1491 -771 -857 0
-1491 -771 -858 0
-1491 -772 903 0
-1491 -772 -747 -754 0
-1491 -772 -813 0
-1491 -772 -814 0
-1491 -772 -833 0
-1491 -772 -834 0
-1491 -772 -837 0
-1491 -772 -838 0
-1491 -772 -853 0
-1491 -772 -854 0
-1491 -772 -857 0
-1491 -772 -858 0
-1491 -773 904 0
-1491 -773 -747 -755 0
-1491 -773 -814 0
-1491 -773 -834 0
-1491 -773 -838 0
-1491 -773 -854 0
-1491 -773 -858 0
-1492 891 0
-1492 897 0
-1492 -766 0
-1492 -769 0
-1492 -770 0
-1492 -774 0
-1492 -771 902 0
-1492 -771 -748 -753 0
-1492 -771 -816 0
-1492 -771 -817 0
-1492 -771 -818 0
-1492 -771 -836 0
-1492 -771 -837 0
-1492 -771 -838 0
-1492 -771 -840 0
-1492 -771 -841 0
-1492 -771 -842 0
-1492 -771 -852 0
-1492 -771 -853 0
-1492 -771 -854 0
-1492 -771 -856 0
-1492 -771 -857 0
-1492 -771 -858 0
-1492 -771 -860 0
-1492 -771 -861 0
-1492 -771 -862 0
-1492 -772 903 0
-1492 -772 -748 -754 0
-1492 -772 -817 0
-1492 -772 -818 0
-1492 -772 -837 0
-1492 -772 -838 0
-1492 -772 -841 0
-1492 -772 -842 0
-1492 -772 -853 0
-1492 -772 -854 0
-1492 -772 -857 0
-1492 -772 -858 0
-1492 -772 -861 0
-1492 -772 -862 0
-1492 -773 904 0
-1492 -773 -748 -755 0
-1492 -773 -818 0
-1492 -773 -838 0
-1492 -773 -842 0
-1492 -773 -854 0
-1492 -773 -858 0
-1492 -773 -862 0
-1493 891 0
-1493 898 0
-1493 -766 0
-1493 -767 0
-1493 -770 0
-1493 -774 0
-1493 -771 902 0
-1493 -771 -749 -753 0
-1493 -771 -820 0
-1493 -771 -821 0
-1493 -771 -822 0
-1493 -771 -840 0
-1493 -771 -841 0
-1493 -771 -842 0
-1493 -771 -844 0
-1493 -771 -845 0
-1493 -771 -846 0
-1493 -771 -856 0
-1493 -771 -857 0
-1493 -771 -858 0
-1493 -771 -860 0
-1493 -771 -861 0
-1493 -771 -862 0
-1493 -771 -864 0
-1493 -771 -865 0
-1493 -771 -866 0
-1493 -772 903 0
-1493 -772 -749 -754 0
-1493 -772 -821 0
-1493 -772 -822 0
-1493 -772 -841 0
-1493 -772 -842 0
-1493 -772 -845 0
-1493 -772 -846 0
-1493 -772 -857 0
-1493 -772 -858 0
-1493 -772 -861 0
-1493 -772 -862 0
-1493 -772 -865 0
-1493 -772 -866 0
-1493 -773 904 0
-1493 -773 -749 -755 0
-1493 -773 -822 0
-1493 -773 -842 0
-1493 -773 -846 0
-1493 -773 -858 0
-1493 -773 -862 0
-1493 -773 -866 0
-1494 891 0
-1494 899 0
-1494 -766 0
-1494 -767 0
-1494 -768 0
-1494 -774 0
-1494 -771 902 0
-1494 -771 -750 -753 0
-1494 -771 -824 0
-1494 -771 -825 0
-1494 -771 -826 0
-1494 -771 -844 0
-1494 -771 -845 0
-1494 -771 -846 0
-1494 -771 -848 0
-1494 -771 -849 0
-1494 -771 -850 0
-1494 -771 -860 0
-1494 -771 -861 0
-1494 -771 -862 0
-1494 -771 -864 0
-1494 -771 -865 0
-1494 -771 -866 0
-1494 -772 903 0
-1494 -772 -750 -754 0
-1494 -772 -825 0
-1494 -772 -826 0
-1494 -772 -845 0
-1494 -772 -846 0
-1494 -772 -849 0
-1494 -772 -850 0
-1494 -772 -861 0
-1494 -772 -862 0
-1494 -772 -865 0
-1494 -772 -866 0
-1494 -773 904 0
-1494 -773 -750 -755 0
-1494 -773 -826 0
-1494 -773 -846 0
-1494 -773 -850 0
-1494 -773 -862 0
-1494 -773 -866 0
-1495 891 0
-1495 900 0
-1495 -766 0
-1495 -767 0
-1495 -768 0
-1495 -769 0
-1495 -774 0
-1495 -771 902 0
-1495 -771 -751 -753 0
-1495 -771 -828 0
-1495 -771 -829 0
-1495 -771 -830 0
-1495 -771 -848 0
-1495 -771 -849 0
-1495 -771 -850 0
-1495 -771 -864 0
-1495 -771 -865 0
-1495 -771 -866 0
-1495 -772 903 0
-1495 -772 -751 -754 0
-1495 -772 -829 0
-1495 -772 -830 0
-1495 -772 -849 0
-1495 -772 -850 0
-1495 -772 -865 0
-1495 -772 -866 0
-1495 -773 904 0
-1495 -773 -751 -755 0
-1495 -773 -830 0
-1495 -773 -850 0
-1495 -773 -866 0
-1496 891 0
-1496 895 0
-1496 -776 0
-1496 -777 0
-1496 -778 0
-1496 -782 0
-1496 -779 902 0
-1496 -779 -746 -753 0
-1496 -779 -808 0
-1496 -779 -809 0
-1496 -779 -810 0
-1496 -779 -832 0
-1496 -779 -833 0
-1496 -779 -834 0
-1496 -779 -852 0
-1496 -779 -853 0
-1496 -779 -854 0
-1496 -780 903 0
-1496 -780 -746 -754 0
-1496 -780 -809 0
-1496 -780 -810 0
-1496 -780 -833 0
-1496 -780 -834 0
-1496 -780 -853 0
-1496 -780 -854 0
-1496 -781 904 0
-1496 -781 -746 -755 0
-1496 -781 -810 0
-1496 -781 -834 0
-1496 -781 -854 0
-1497 891 0
-1497 896 0
-1497 -777 0
-1497 -778 0
-1497 -782 0
-1497 -779 902 0
-1497 -779 -747 -753 0
-1497 -779 -812 0
-1497 -779 -813 0
-1497 -779 -814 0
-1497 -779 -832 0
-1497 -779 -833 0
-1497 -779 -834 0
-1497 -779 -836 0
-1497 -779 -837 0
-1497 -779 -838 0
-1497 -779 -852 0
-1497 -779 -853 0
-1497 -779 -854 0
-1497 -779 -856 0
-1497 -779 -857 0
-1497 -779 -858 0
-1497 -780 903 0
-1497 -780 -747 -754 0
-1497 -780 -813 0
-1497 -780 -814 0
-1497 -780 -833 0
-1497 -780 -834 0
-1497 -780 -837 0
-1497 -780 -838 0
-1497 -780 -853 0
-1497 -780 -854 0
-1497 -780 -857 0
-1497 -780 -858 0
-1497 -781 904 0
-1497 -781 -747 -755 0
-1497 -781 -814 0
-1497 -781 -834 0
-1497 -781 -838 0
-1497 -781 -854 0
-1497 -781 -858 0
-1498 891 0
-1498 897 0
-1498 -778 0
-1498 -782 0
-1498 -779 902 0
-1498 -779 -748 -753 0
-1498 -779 -816 0
-1498 -779 -817 0
-1498 -779 -818 0
-1498 -779 -836 0
-1498 -779 -837 0
-1498 -779 -838 0
-1498 -779 -840 0
-1498 -779 -841 0
-1498 -779 -842 0
-1498 -779 -852 0
-1498 -779 -853 0
-1498 -779 -854 0
-1498 -779 -856 0
-1498 -779 -857 0
-1498 -779 -858 0
-1498 -779 -860 0
-1498 -779 -861 0
-1498 -779 -862 0
-1498 -780 903 0
-1498 -780 -748 -754 0
-1498 -780 -817 0
-1498 -780 -818 0
-1498 -780 -837 0
-1498 -780 -838 0
-1498 -780 -841 0
-1498 -780 -842 0
-1498 -780 -853 0
-1498 -780 -854 0
-1498 -780 -857 0
-1498 -780 -858 0
-1498 -780 -861 0
-1498 -780 -862 0
-1498 -781 904 0
-1498 -781 -748 -755 0
-1498 -781 -818 0
-1498 -781 -838 0
-1498 -781 -842 0
-1498 -781 -854 0
-1498 -781 -858 0
-1498 -781 -862 0
-1499 891 0
-1499 898 0
-1499 -775 0
-1499 -782 0
-1499 -779 902 0
-1499 -779 -749 -753 0
-1499 -779 -820 0
-1499 -779 -821 0
-1499 -779 -822 0
-1499 -779 -840 0
-1499 -779 -841 0
-1499 -779 -842 0
-1499 -779 -844 0
-1499 -779 -845 0
-1499 -779 -846 0
-1499 -779 -856 0
-1499 -779 -857 0
-1499 -779 -858 0
-1499 -779 -860 0
-1499 -779 -861 0
-1499 -779 -862 0
-1499 -779 -864 0
-1499 -779 -865 0
-1499 -779 -866 0
-1499 -780 903 0
-1499 -780 -749 -754 0
-1499 -780 -821 0
-1499 -780 -822 0
-1499 -780 -841 0
-1499 -780 -842 0
-1499 -780 -845 0
-1499 -780 -846 0
-1499 -780 -857 0
-1499 -780 -858 0
-1499 -780 -861 0
-1499 -780 -862 0
-1499 -780 -865 0
-1499 -780 -866 0
-1499 -781 904 0
-1499 -781 -749 -755 0
-1499 -781 -822 0
-1499 -781 -842 0
-1499 -781 -846 0
-1499 -781 -858 0
-1499 -781 -862 0
-1499 -781 -866 0
-1500 891 0
-1500 899 0
-1500 -775 0
-1500 -776 0
-1500 -782 0
-1500 -779 902 0
-1500 -779 -750 -753 0
-1500 -779 -824 0
-1500 -779 -825 0
-1500 -779 -826 0
-1500 -779 -844 0
-1500 -779 -845 0
-1500 -779 -846 0
-1500 -779 -848 0
-1500 -779 -849 0
-1500 -779 -850 0
-1500 -779 -860 0
-1500 -779 -861 0
-1500 -779 -862 0
-1500 -779 -864 0
-1500 -779 -865 0
-1500 -779 -866 0
-1500 -780 903 0
-1500 -780 -750 -754 0
-1500 -780 -825 0
-1500 -780 -826 0
-1500 -780 -845 0
-1500 -780 -846 0
-1500 -780 -849 0
-1500 -780 -850 0
-1500 -780 -861 0
-1500 -780 -862 0
-1500 -780 -865 0
-1500 -780 -866 0
-1500 -781 904 0
-1500 -781 -750 -755 0
-1500 -781 -826 0
-1500 -781 -846 0
-1500 -781 -850 0
-1500 -781 -862 0
-1500 -781 -866 0
-1501 891 0
-1501 900 0
-1501 -775 0
-1501 -776 0
-1501 -777 0
-1501 -782 0
-1501 -779 902 0
-1501 -779 -751 -753 0
-1501 -779 -828 0
-1501 -779 -829 0
-1501 -779 -830 0
-1501 -779 -848 0
-1501 -779 -849 0
-1501 -779 -850 0
-1501 -779 -864 0
-1501 -779 -865 0
-1501 -779 -866 0
-1501 -780 903 0
-1501 -780 -751 -754 0
-1501 -780 -829 0
-1501 -780 -830 0
-1501 -780 -849 0
-1501 -780 -850 0
-1501 -780 -865 0
-1501 -780 -866 0
-1501 -781 904 0
-1501 -781 -751 -755 0
-1501 -781 -830 0
-1501 -781 -850 0
-1501 -781 -866 0
-1502 891 0
-1502 895 0
-1502 901 0
-1502 -746 -752 0
-1502 -807 0
-1502 -808 0
-1502 -809 0
-1502 -810 0
-1502 -831 0
-1502 -832 0
-1502 -833 0
-1502 -834 0
-1502 -851 0
-1502 -852 0
-1502 -853 0
-1502 -854 0
-1503 891 0
-1503 896 0
-1503 901 0
-1503 -747 -752 0
-1503 -811 0
-1503 -812 0
-1503 -813 0
-1503 -814 0
-1503 -831 0
-1503 -832 0
-1503 -833 0
-1503 -834 0
-1503 -835 0
-1503 -836 0
-1503 -837 0
-1503 -838 0
-1503 -851 0
-1503 -852 0
-1503 -853 0
-1503 -854 0
-1503 -855 0
-1503 -856 0
-1503 -857 0
-1503 -858 0
-1504 891 0
-1504 897 0
-1504 901 0
-1504 -748 -752 0
-1504 -815 0
-1504 -816 0
-1504 -817 0
-1504 -818 0
-1504 -835 0
-1504 -836 0
-1504 -837 0
-1504 -838 0
-1504 -839 0
-1504 -840 0
-1504 -841 0
-1504 -842 0
-1504 -851 0
-1504 -852 0
-1504 -853 0
-1504 -854 0
-1504 -855 0
-1504 -856 0
-1504 -857 0
-1504 -858 0
-1504 -859 0
-1504 -860 0
-1504 -861 0
-1504 -862 0
-1505 891 0
-1505 898 0
-1505 901 0
-1505 -749 -752 0
-1505 -819 0
-1505 -820 0
-1505 -821 0
-1505 -822 0
-1505 -839 0
-1505 -840 0
-1505 -841 0
-1505 -842 0
-1505 -843 0
-1505 -844 0
-1505 -845 0
-1505 -846 0
-1505 -855 0
-1505 -856 0
-1505 -857 0
-1505 -858 0
-1505 -859 0
-1505 -860 0
-1505 -861 0
-1505 -862 0
-1505 -863 0
-1505 -864 0
-1505 -865 0
-1505 -866 0
-1506 891 0
-1506 899 0
-1506 901 0
-1506 -750 -752 0
-1506 -823 0
-1506 -824 0
-1506 -825 0
-1506 -826 0
-1506 -843 0
-1506 -844 0
-1506 -845 0
-1506 -846 0
-1506 -847 0
-1506 -848 0
-1506 -849 0
-1506 -850 0
-1506 -859 0
-1506 -860 0
-1506 -861 0
-1506 -862 0
-1506 -863 0
-1506 -864 0
-1506 -865 0
-1506 -866 0
-1507 891 0
-1507 900 0
-1507 901 0
-1507 -751 -752 0
-1507 -827 0
-1507 -828 0
-1507 -829 0
-1507 -830 0
-1507 -847 0
-1507 -848 0
-1507 -849 0
-1507 -850 0
-1507 -863 0
-1507 -864 0
-1507 -865 0
-1507 -866 0
-1508 892 0
-1508 905 0
-1508 -747 0
-1508 -748 0
-1508 -749 0
-1508 -750 0
-1508 -751 0
-1508 -755 0
-1508 -752 912 0
-1508 -752 -756 -763 0
-1508 -752 -784 0
-1508 -752 -785 0
-1508 -752 -786 0
-1508 -752 -832 0
-1508 -752 -833 0
-1508 -752 -834 0
-1508 -752 -852 0
-1508 -752 -853 0
-1508 -752 -854 0
-1508 -753 913 0
-1508 -753 -756 -764 0
-1508 -753 -785 0
-1508 -753 -786 0
-1508 -753 -833 0
-1508 -753 -834 0
-1508 -753 -853 0
-1508 -753 -854 0
-1508 -754 914 0
-1508 -754 -756 -765 0
-1508 -754 -786 0
-1508 -754 -834 0
-1508 -754 -854 0
-1509 892 0
-1509 906 0
-1509 -746 0
-1509 -748 0
-1509 -749 0
-1509 -750 0
-1509 -751 0
-1509 -755 0
-1509 -752 912 0
-1509 -752 -757 -763 0
-1509 -752 -788 0
-1509 -752 -789 0
-1509 -752 -790 0
-1509 -752 -832 0
-1509 -752 -833 0
-1509 -752 -834 0
-1509 -752 -836 0
-1509 -752 -837 0
-1509 -752 -838 0
-1509 -752 -852 0
-1509 -752 -853 0
-1509 -752 -854 0
-1509 -752 -856 0
-1509 -752 -857 0
-1509 -752 -858 0
-1509 -753 913 0
-1509 -753 -757 -764 0
-1509 -753 -789 0
-1509 -753 -790 0
-1509 -753 -833 0
-1509 -753 -834 0
-1509 -753 -837 0
-1509 -753 -838 0
-1509 -753 -853 0
-1509 -753 -854 0
-1509 -753 -857 0
-1509 -753 -858 0
-1509 -754 914 0
-1509 -754 -757 -765 0
-1509 -754 -790 0
-1509 -754 -834 0
-1509 -754 -838 0
-1509 -754 -854 0
-1509 -754 -858 0
-1510 892 0
-1510 907 0
-1510 -746 0
-1510 -747 0
-1510 -749 0
-1510 -750 0
-1510 -751 0
-1510 -755 0
-1510 -752 912 0
-1510 -752 -758 -763 0
-1510 -752 -792 0
-1510 -752 -793 0
-1510 -752 -794 0
-1510 -752 -836 0
-1510 -752 -837 0
-1510 -752 -838 0
-1510 -752 -840 0
-1510 -752 -841 0
-1510 -752 -842 0
-1510 -752 -852 0
-1510 -752 -853 0
-1510 -752 -854 0
-1510 -752 -856 0
-1510 -752 -857 0
-1510 -752 -858 0
-1510 -752 -860 0
-1510 -752 -861 0
-1510 -752 -862 0
-1510 -753 913 0
-1510 -753 -758 -764 0
-1510 -753 -793 0
-1510 -753 -794 0
-1510 -753 -837 0
-1510 -753 -838 0
-1510 -753 -841 0
-1510 -753 -842 0
-1510 -753 -853 0
-1510 -753 -854 0
-1510 -753 -857 0
-1510 -753 -858 0
-1510 -753 -861 0
-1510 -753 -862 0
-1510 -754 914 0
-1510 -754 -758 -765 0
-1510 -754 -794 0
-1510 -754 -838 0
-1510 -754 -842 0
-1510 -754 -854 0
-1510 -754 -858 0
-1510 -754 -862 0
-1511 892 0
-1511 908 0
-1511 -746 0
-1511 -747 0
-1511 -748 0
-1511 -750 0
-1511 -751 0
-1511 -755 0
-1511 -752 912 0
-1511 -752 -759 -763 0
-1511 -752 -796 0
-1511 -752 -797 0
-1511 -752 -798 0
-1511 -752 -840 0
-1511 -752 -841 0
-1511 -752 -842 0
-1511 -752 -844 0
-1511 -752 -845 0
-1511 -752 -846 0
-1511 -752 -856 0
-1511 -752 -857 0
-1511 -752 -858 0
-1511 -752 -860 0
-1511 -752 -861 0
-1511 -752 -862 0
-1511 -752 -864 0
-1511 -752 -865 0
-1511 -752 -866 0
-1511 -753 913 0
-1511 -753 -759 -764 0
-1511 -753 -797 0
-1511 -753 -798 0
-1511 -753 -841 0
-1511 -753 -842 0
-1511 -753 -845 0
-1511 -753 -846 0
-1511 -753 -857 0
-1511 -753 -858 0
-1511 -753 -861 0
-1511 -753 -862 0
-1511 -753 -865 0
-1511 -753 -866 0
-1511 -754 914 0
-1511 -754 -759 -765 0
-1511 -754 -798 0
-1511 -754 -842 0
-1511 -754 -846 0
-1511 -754 -858 0
-1511 -754 -862 0
-1511 -754 -866 0
-1512 892 0
-1512 909 0
-1512 -746 0
-1512 -747 0
-1512 -748 0
-1512 -749 0
-1512 -751 0
-1512 -755 0
-1512 -752 912 0
-1512 -752 -760 -763 0
-1512 -752 -800 0
-1512 -752 -801 0
-1512 -752 -802 0
-1512 -752 -844 0
-1512 -752 -845 0
-1512 -752 -846 0
-1512 -752 -848 0
-1512 -752 -849 0
-1512 -752 -850 0
-1512 -752 -860 0
-1512 -752 -861 0
-1512 -752 -862 0
-1512 -752 -864 0
-1512 -752 -865 0
-1512 -752 -866 0
-1512 -753 913 0
-1512 -753 -760 -764 0
-1512 -753 -801 0
-1512 -753 -802 0
-1512 -753 -845 0
-1512 -753 -846 0
-1512 -753 -849 0
-1512 -753 -850 0
-1512 -753 -861 0
-1512 -753 -862 0
-1512 -753 -865 0
-1512 -753 -866 0
-1512 -754 914 0
-1512 -754 -760 -765 0
-1512 -754 -802 0
-1512 -754 -846 0
-1512 -754 -850 0
-1512 -754 -862 0
-1512 -754 -866 0
-1513 892 0
-1513 910 0
-1513 -746 0
-1513 -747 0
-1513 -748 0
-1513 -749 0
-1513 -750 0
-1513 -755 0
-1513 -752 912 0
-1513 -752 -761 -763 0
-1513 -752 -804 0
-1513 -752 -805 0
-1513 -752 -806 0
-1513 -752 -848 0
-1513 -752 -849 0
-1513 -752 -850 0
-1513 -752 -864 0
-1513 -752 -865 0
-1513 -752 -866 0
-1513 -753 913 0
-1513 -753 -761 -764 0
-1513 -753 -805 0
-1513 -753 -806 0
-1513 -753 -849 0
-1513 -753 -850 0
-1513 -753 -865 0
-1513 -753 -866 0
-1513 -754 914 0
-1513 -754 -761 -765 0
-1513 -754 -806 0
-1513 -754 -850 0
-1513 -754 -866 0
-1514 892 0
-1514 905 0
-1514 -767 0
-1514 -768 0
-1514 -769 0
-1514 -770 0
-1514 -774 0
-1514 -771 912 0
-1514 -771 -756 -763 0
-1514 -771 -784 0
-1514 -771 -785 0
-1514 -771 -786 0
-1514 -771 -832 0
-1514 -771 -833 0
-1514 -771 -834 0
-1514 -771 -852 0
-1514 -771 -853 0
-1514 -771 -854 0
-1514 -772 913 0
-1514 -772 -756 -764 0
-1514 -772 -785 0
-1514 -772 -786 0
-1514 -772 -833 0
-1514 -772 -834 0
-1514 -772 -853 0
-1514 -772 -854 0
-1514 -773 914 0
-1514 -773 -756 -765 0
-1514 -773 -786 0
-1514 -773 -834 0
-1514 -773 -854 0
-1515 892 0
-1515 906 0
-1515 -768 0
-1515 -769 0
-1515 -770 0
-1515 -774 0
-1515 -771 912 0
-1515 -771 -757 -763 0
-1515 -771 -788 0
-1515 -771 -789 0
-1515 -771 -790 0
-1515 -771 -832 0
-1515 -771 -833 0
-1515 -771 -834 0
-1515 -771 -836 0
-1515 -771 -837 0
-1515 -771 -838 0
-1515 -771 -852 0
-1515 -771 -853 0
-1515 -771 -854 0
-1515 -771 -856 0
-1515 -771 -857 0
-1515 -771 -858 0
-1515 -772 913 0
-1515 -772 -757 -764 0
-1515 -772 -789 0
-1515 -772 -790 0
-1515 -772 -833 0
-1515 -772 -834 0
-1515 -772 -837 0
-1515 -772 -838 0
-1515 -772 -853 0
-1515 -772 -854 0
-1515 -772 -857 0
-1515 -772 -858 0
-1515 -773 914 0
-1515 -773 -757 -765 0
-1515 -773 -790 0
-1515 -773 -834 0
-1515 -773 -838 0
-1515 -773 -854 0
-1515 -773 -858 0
-1516 892 0
-1516 907 0
-1516 -766 0
-1516 -769 0
-1516 -770 0
-1516 -774 0
-1516 -771 912 0
-1516 -771 -758 -763 0
-1516 -771 -792 0
-1516 -771 -793 0
-1516 -771 -794 0
-1516 -771 -836 0
-1516 -771 -837 0
-1516 -771 -838 0
-1516 -771 -840 0
-1516 -771 -841 0
-1516 -771 -842 0
-1516 -771 -852 0
-1516 -771 -853 0
-1516 -771 -854 0
-1516 -771 -856 0
-1516 -771 -857 0
-1516 -771 -858 0
-1516 -771 -860 0
-1516 -771 -861 0
-1516 -771 -862 0
-1516 -772 913 0
-1516 -772 -758 -764 0
-1516 -772 -793 0
-1516 -772 -794 0
-1516 -772 -837 0
-1516 -772 -838 0
-1516 -772 -841 0
-1516 -772 -842 0
-1516 -772 -853 0
-1516 -772 -854 0
-1516 -772 -857 0
-1516 -772 -858 0
-1516 -772 -861 0
-1516 -772 -862 0
-1516 -773 914 0
-1516 -773 -758 -765 0
-1516 -773 -794 0
-1516 -773 -838 0
-1516 -773 -842 0
-1516 -773 -854 0
-1516 -773 -858 0
-1516 -773 -862 0
-1517 892 0
-1517 908 0
-1517 -766 0
-1517 -767 0
-1517 -770 0
-1517 -774 0
-1517 -771 912 0
-1517 -771 -759 -763 0
-1517 -771 -796 0
-1517 -771 -797 0
-1517 -771 -798 0
-1517 -771 -840 0
-1517 -771 -841 0
-1517 -771 -842 0
-1517 -771 -844 0
-1517 -771 -845 0
-1517 -771 -846 0
-1517 -771 -856 0
-1517 -771 -857 0
-1517 -771 -858 0
-1517 -771 -860 0
-1517 -771 -861 0
-1517 -771 -862 0
-1517 -771 -864 0
-1517 -771 -865 0
-1517 -771 -866 0
-1517 -772 913 0
-1517 -772 -759 -764 0
-1517 -772 -797 0
-1517 -772 -798 0
-1517 -772 -841 0
-1517 -772 -842 0
-1517 -772 -845 0
-1517 -772 -846 0
-1517 -772 -857 0
-1517 -772 -858 0
-1517 -772 -861 0
-1517 -772 -862 0
-1517 -772 -865 0
-1517 -772 -866 0
-1517 -773 914 0
-1517 -773 -759 -765 0
-1517 -773 -798 0
-1517 -773 -842 0
-1517 -773 -846 0
-1517 -773 -858 0
-1517 -773 -862 0
-1517 -773 -866 0
-1518 892 0
-1518 909 0
-1518 -766 0
-1518 -767 0
-1518 -768 0
-1518 -774 0
-1518 -771 912 0
-1518 -771 -760 -763 0
-1518 -771 -800 0
-1518 -771 -801 0
-1518 -771 -802 0
-1518 -771 -844 0
-1518 -771 -845 0
-1518 -771 -846 0
-1518 -771 -848 0
-1518 -771 -849 0
-1518 -771 -850 0
-1518 -771 -860 0
-1518 -771 -861 0
-1518 -771 -862 0
-1518 -771 -864 0
-1518 -771 -865 0
-1518 -771 -866 0
-1518 -772 913 0
-1518 -772 -760 -764 0
-1518 -772 -801 0
-1518 -772 -802 0
-1518 -772 -845 0
-1518 -772 -846 0
-1518 -772 -849 0
-1518 -772 -850 0
-1518 -772 -861 0
-1518 -772 -862 0
-1518 -772 -865 0
-1518 -772 -866 0
-1518 -773 914 0
-1518 -773 -760 -765 0
-1518 -773 -802 0
-1518 -773 -846 0
-1518 -773 -850 0
-1518 -773 -862 0
-1518 -773 -866 0
-1519 892 0
-1519 910 0
-1519 -766 0
-1519 -767 0
-1519 -768 0
-1519 -769 0
-1519 -774 0
-1519 -771 912 0
-1519 -771 -761 -763 0
-1519 -771 -804 0
-1519 -771 -805 0
-1519 -771 -806 0
-1519 -771 -848 0
-1519 -771 -849 0
-1519 -771 -850 0
-1519 -771 -864 0
-1519 -771 -865 0
-1519 -771 -866 0
-1519 -772 913 0
-1519 -772 -761 -764 0
-1519 -772 -805 0
-1519 -772 -806 0
-1519 -772 -849 0
-1519 -772 -850 0
-1519 -772 -865 0
-1519 -772 -866 0
-1519 -773 914 0
-1519 -773 -761 -765 0
-1519 -773 -806 0
-1519 -773 -850 0
-1519 -773 -866 0
-1520 892 0
-1520 905 0
-1520 -776 0
-1520 -777 0
-1520 -778 0
-1520 -782 0
-1520 -779 912 0
-1520 -779 -756 -763 0
-1520 -779 -784 0
-1520 -779 -785 0
-1520 -779 -786 0
-1520 -779 -832 0
-1520 -779 -833 0
-1520 -779 -834 0
-1520 -779 -852 0
-1520 -779 -853 0
-1520 -779 -854 0
-1520 -780 913 0
-1520 -780 -756 -764 0
-1520 -780 -785 0
-1520 -780 -786 0
-1520 -780 -833 0
-1520 -780 -834 0
-1520 -780 -853 0
-1520 -780 -854 0
-1520 -781 914 0
-1520 -781 -756 -765 0
-1520 -781 -786 0
-1520 -781 -834 0
-1520 -781 -854 0
-1521 892 0
-1521 906 0
-1521 -777 0
-1521 -778 0
-1521 -782 0
-1521 -779 912 0
-1521 -779 -757 -763 0
-1521 -779 -788 0
-1521 -779 -789 0
-1521 -779 -790 0
-1521 -779 -832 0
-1521 -779 -833 0
-1521 -779 -834 0
-1521 -779 -836 0
-1521 -779 -837 0
-1521 -779 -838 0
-1521 -779 -852 0
-1521 -779 -853 0
-1521 -779 -854 0
-1521 -779 -856 0
-1521 -779 -857 0
-1521 -779 -858 0
-1521 -780 913 0
-1521 -780 -757 -764 0
-1521 -780 -789 0
-1521 -780 -790 0
-1521 -780 -833 0
-1521 -780 -834 0
-1521 -780 -837 0
-1521 -780 -838 0
-1521 -780 -853 0
-1521 -780 -854 0
-1521 -780 -857 0
-1521 -780 -858 0
-1521 -781 914 0
-1521 -781 -757 -765 0
-1521 -781 -790 0
-1521 -781 -834 0
-1521 -781 -838 0
-1521 -781 -854 0
-1521 -781 -858 0
-1522 892 0
-1522 907 0
-1522 -778 0
-1522 -782 0
-1522 -779 912 0
-1522 -779 -758 -763 0
-1522 -779 -792 0
-1522 -779 -793 0
-1522 -779 -794 0
-1522 -779 -836 0
-1522 -779 -837 0
-1522 -779 -838 0
-1522 -779 -840 0
-1522 -779 -841 0
-1522 -779 -842 0
-1522 -779 -852 0
-1522 -779 -853 0
-1522 -779 -854 0
-1522 -779 -856 0
-1522 -779 -857 0
-1522 -779 -858 0
-1522 -779 -860 0
-1522 -779 -861 0
-1522 -779 -862 0
-1522 -780 913 0
-1522 -780 -758 -764 0
-1522 -780 -793 0
-1522 -780 -794 0
-1522 -780 -837 0
-1522 -780 -838 0
-1522 -780 -841 0
-1522 -780 -842 0
-1522 -780 -853 0
-1522 -780 -854 0
-1522 -780 -857 0
-1522 -780 -858 0
-1522 -780 -861 0
-1522 -780 -862 0
-1522 -781 914 0
-1522 -781 -758 -765 0
-1522 -781 -794 0
-1522 -781 -838 0
-1522 -781 -842 0
-1522 -781 -854 0
-1522 -781 -858 0
-1522 -781 -862 0
-1523 892 0
-1523 908 0
-1523 -775 0
-1523 -782 0
-1523 -779 912 0
-1523 -779 -759 -763 0
-1523 -779 -796 0
-1523 -779 -797 0
-1523 -779 -798 0
-1523 -779 -840 0
-1523 -779 -841 0
-1523 -779 -842 0
-1523 -779 -844 0
-1523 -779 -845 0
-1523 -779 -846 0
-1523 -779 -856 0
-1523 -779 -857 0
-1523 -779 -858 0
-1523 -779 -860 0
-1523 -779 -861 0
-1523 -779 -862 0
-1523 -779 -864 0
-1523 -779 -865 0
-1523 -779 -866 0
-1523 -780 913 0
-1523 -780 -759 -764 0
-1523 -780 -797 0
-1523 -780 -798 0
-1523 -780 -841 0
-1523 -780 -842 0
-1523 -780 -845 0
-1523 -780 -846 0
-1523 -780 -857 0
-1523 -780 -858 0
-1523 -780 -861 0
-1523 -780 -862 0
-1523 -780 -865 0
-1523 -780 -866 0
-1523 -781 914 0
-1523 -781 -759 -765 0
-1523 -781 -798 0
-1523 -781 -842 0
-1523 -781 -846 0
-1523 -781 -858 0
-1523 -781 -862 0
-1523 -781 -866 0
-1524 892 0
-1524 909 0
-1524 -775 0
-1524 -776 0
-1524 -782 0
-1524 -779 912 0
-1524 -779 -760 -763 0
-1524 -779 -800 0
-1524 -779 -801 0
-1524 -779 -802 0
-1524 -779 -844 0
-1524 -779 -845 0
-1524 -779 -846 0
-1524 -779 -848 0
-1524 -779 -849 0
-1524 -779 -850 0
-1524 -779 -860 0
-1524 -779 -861 0
-1524 -779 -862 0
-1524 -779 -864 0
-1524 -779 -865 0
-1524 -779 -866 0
-1524 -780 913 0
-1524 -780 -760 -764 0
-1524 -780 -801 0
-1524 -780 -802 0
-1524 -780 -845 0
-1524 -780 -846 0
-1524 -780 -849 0
-1524 -780 -850 0
-1524 -780 -861 0
-1524 -780 -862 0
-1524 -780 -865 0
-1524 -780 -866 0
-1524 -781 914 0
-1524 -781 -760 -765 0
-1524 -781 -802 0
-1524 -781 -846 0
-1524 -781 -850 0
-1524 -781 -862 0
-1524 -781 -866 0
-1525 892 0
-1525 910 0
-1525 -775 0
-1525 -776 0
-1525 -777 0
-1525 -782 0
-1525 -779 912 0
-1525 -779 -761 -763 0
-1525 -779 -804 0
-1525 -779 -805 0
-1525 -779 -806 0
-1525 -779 -848 0
-1525 -779 -849 0
-1525 -779 -850 0
-1525 -779 -864 0
-1525 -779 -865 0
-1525 -779 -866 0
-1525 -780 913 0
-1525 -780 -761 -764 0
-1525 -780 -805 0
-1525 -780 -806 0
-1525 -780 -849 0
-1525 -780 -850 0
-1525 -780 -865 0
-1525 -780 -866 0
-1525 -781 914 0
-1525 -781 -761 -765 0
-1525 -781 -806 0
-1525 -781 -850 0
-1525 -781 -866 0
-1526 892 0
-1526 905 0
-1526 911 0
-1526 -756 -762 0
-1526 -783 0
-1526 -784 0
-1526 -785 0
-1526 -786 0
-1526 -831 0
-1526 -832 0
-1526 -833 0
-1526 -834 0
-1526 -851 0
-1526 -852 0
-1526 -853 0
-1526 -854 0
-1527 892 0
-1527 906 0
-1527 911 0
-1527 -757 -762 0
-1527 -787 0
-1527 -788 0
-1527 -789 0
-1527 -790 0
-1527 -831 0
-1527 -832 0
-1527 -833 0
-1527 -834 0
-1527 -835 0
-1527 -836 0
-1527 -837 0
-1527 -838 0
-1527 -851 0
-1527 -852 0
-1527 -853 0
-1527 -854 0
-1527 -855 0
-1527 -856 0
-1527 -857 0
-1527 -858 0
-1528 892 0
-1528 907 0
-1528 911 0
-1528 -758 -762 0
-1528 -791 0
-1528 -792 0
-1528 -793 0
-1528 -794 0
-1528 -835 0
-1528 -836 0
-1528 -837 0
-1528 -838 0
-1528 -839 0
-1528 -840 0
-1528 -841 0
-1528 -842 0
-1528 -851 0
-1528 -852 0
-1528 -853 0
-1528 -854 0
-1528 -855 0
-1528 -856 0
-1528 -857 0
-1528 -858 0
-1528 -859 0
-1528 -860 0
-1528 -861 0
-1528 -862 0
-1529 892 0
-1529 908 0
-1529 911 0
-1529 -759 -762 0
-1529 -795 0
-1529 -796 0
-1529 -797 0
-1529 -798 0
-1529 -839 0
-1529 -840 0
-1529 -841 0
-1529 -842 0
-1529 -843 0
-1529 -844 0
-1529 -845 0
-1529 -846 0
-1529 -855 0
-1529 -856 0
-1529 -857 0
-1529 -858 0
-1529 -859 0
-1529 -860 0
-1529 -861 0
-1529 -862 0
-1529 -863 0
-1529 -864 0
-1529 -865 0
-1529 -866 0
-1530 892 0
-1530 909 0
-1530 911 0
-1530 -760 -762 0
-1530 -799 0
-1530 -800 0
-1530 -801 0
-1530 -802 0
-1530 -843 0
-1530 -844 0
-1530 -845 0
-1530 -846 0
-1530 -847 0
-1530 -848 0
-1530 -849 0
-1530 -850 0
-1530 -859 0
-1530 -860 0
-1530 -861 0
-1530 -862 0
-1530 -863 0
-1530 -864 0
-1530 -865 0
-1530 -866 0
-1531 892 0
-1531 910 0
-1531 911 0
-1531 -761 -762 0
-1531 -803 0
-1531 -804 0
-1531 -805 0
-1531 -806 0
-1531 -847 0
-1531 -848 0
-1531 -849 0
-1531 -850 0
-1531 -863 0
-1531 -864 0
-1531 -865 0
-1531 -866 0
-1532 893 0
-1532 915 0
-1532 -748 0
-1532 -749 0
-1532 -750 0
-1532 -751 0
-1532 -755 0
-1532 -752 921 0
-1532 -752 -766 -772 0
-1532 -752 -784 0
-1532 -752 -785 0
-1532 -752 -786 0
-1532 -752 -788 0
-1532 -752 -789 0
-1532 -752 -790 0
-1532 -752 -808 0
-1532 -752 -809 0
-1532 -752 -810 0
-1532 -752 -812 0
-1532 -752 -813 0
-1532 -752 -814 0
-1532 -752 -852 0
-1532 -752 -853 0
-1532 -752 -854 0
-1532 -752 -856 0
-1532 -752 -857 0
-1532 -752 -858 0
-1532 -753 922 0
-1532 -753 -766 -773 0
-1532 -753 -785 0
-1532 -753 -786 0
-1532 -753 -789 0
-1532 -753 -790 0
-1532 -753 -809 0
-1532 -753 -810 0
-1532 -753 -813 0
-1532 -753 -814 0
-1532 -753 -853 0
-1532 -753 -854 0
-1532 -753 -857 0
-1532 -753 -858 0
-1532 -754 923 0
-1532 -754 -766 -774 0
-1532 -754 -786 0
-1532 -754 -790 0
-1532 -754 -810 0
-1532 -754 -814 0
-1532 -754 -854 0
-1532 -754 -858 0
-1533 893 0
-1533 916 0
-1533 -746 0
-1533 -749 0
-1533 -750 0
-1533 -751 0
-1533 -755 0
-1533 -752 921 0
-1533 -752 -767 -772 0
-1533 -752 -788 0
-1533 -752 -789 0
-1533 -752 -790 0
-1533 -752 -792 0
-1533 -752 -793 0
-1533 -752 -794 0
-1533 -752 -812 0
-1533 -752 -813 0
-1533 -752 -814 0
-1533 -752 -816 0
-1533 -752 -817 0
-1533 -752 -818 0
-1533 -752 -852 0
-1533 -752 -853 0
-1533 -752 -854 0
-1533 -752 -856 0
-1533 -752 -857 0
-1533 -752 -858 0
-1533 -752 -860 0
-1533 -752 -861 0
-1533 -752 -862 0
-1533 -753 922 0
-1533 -753 -767 -773 0
-1533 -753 -789 0
-1533 -753 -790 0
-1533 -753 -793 0
-1533 -753 -794 0
-1533 -753 -813 0
-1533 -753 -814 0
-1533 -753 -817 0
-1533 -753 -818 0
-1533 -753 -853 0
-1533 -753 -854 0
-1533 -753 -857 0
-1533 -753 -858 0
-1533 -753 -861 0
-1533 -753 -862 0
-1533 -754 923 0
-1533 -754 -767 -774 0
-1533 -754 -790 0
-1533 -754 -794 0
-1533 -754 -814 0
-1533 -754 -818 0
-1533 -754 -854 0
-1533 -754 -858 0
-1533 -754 -862 0
-1534 893 0
-1534 917 0
-1534 -746 0
-1534 -747 0
-1534 -750 0
-1534 -751 0
-1534 -755 0
-1534 -752 921 0
-1534 -752 -768 -772 0
-1534 -752 -792 0
-1534 -752 -793 0
-1534 -752 -794 0
-1534 -752 -796 0
-1534 -752 -797 0
-1534 -752 -798 0
-1534 -752 -816 0
-1534 -752 -817 0
-1534 -752 -818 0
-1534 -752 -820 0
-1534 -752 -821 0
-1534 -752 -822 0
-1534 -752 -852 0
-1534 -752 -853 0
-1534 -752 -854 0
-1534 -752 -856 0
-1534 -752 -857 0
-1534 -752 -858 0
-1534 -752 -860 0
-1534 -752 -861 0
-1534 -752 -862 0
-1534 -752 -864 0
-1534 -752 -865 0
-1534 -752 -866 0
-1534 -753 922 0
-1534 -753 -768 -773 0
-1534 -753 -793 0
-1534 -753 -794 0
-1534 -753 -797 0
-1534 -753 -798 0
-1534 -753 -817 0
-1534 -753 -818 0
-1534 -753 -821 0
-1534 -753 -822 0
-1534 -753 -853 0
-1534 -753 -854 0
-1534 -753 -857 0
-1534 -753 -858 0
-1534 -753 -861 0
-1534 -753 -862 0
-1534 -753 -865 0
-1534 -753 -866 0
-1534 -754 923 0
-1534 -754 -768 -774 0
-1534 -754 -794 0
-1534 -754 -798 0
-1534 -754 -818 0
-1534 -754 -822 0
-1534 -754 -854 0
-1534 -754 -858 0
-1534 -754 -862 0
-1534 -754 -866 0
-1535 893 0
-1535 918 0
-1535 -746 0
-1535 -747 0
-1535 -748 0
-1535 -751 0
-1535 -755 0
-1535 -752 921 0
-1535 -752 -769 -772 0
-1535 -752 -796 0
-1535 -752 -797 0
-1535 -752 -798 0
-1535 -752 -800 0
-1535 -752 -801 0
-1535 -752 -802 0
-1535 -752 -820 0
-1535 -752 -821 0
-1535 -752 -822 0
-1535 -752 -824 0
-1535 -752 -825 0
-1535 -752 -826 0
-1535 -752 -856 0
-1535 -752 -857 0
-1535 -752 -858 0
-1535 -752 -860 0
-1535 -752 -861 0
-1535 -752 -862 0
-1535 -752 -864 0
-1535 -752 -865 0
-1535 -752 -866 0
-1535 -753 922 0
-1535 -753 -769 -773 0
-1535 -753 -797 0
-1535 -753 -798 0
-1535 -753 -801 0
-1535 -753 -802 0
-1535 -753 -821 0
-1535 -753 -822 0
-1535 -753 -825 0
-1535 -753 -826 0
-1535 -753 -857 0
-1535 -753 -858 0
-1535 -753 -861 0
-1535 -753 -862 0
-1535 -753 -865 0
-1535 -753 -866 0
-1535 -754 923 0
-1535 -754 -769 -774 0
-1535 -754 -798 0
-1535 -754 -802 0
-1535 -754 -822 0
-1535 -754 -826 0
-1535 -754 -858 0
-1535 -754 -862 0
-1535 -754 -866 0
-1536 893 0
-1536 919 0
-1536 -746 0
-1536 -747 0
-1536 -748 0
-1536 -749 0
-1536 -755 0
-1536 -752 921 0
-1536 -752 -770 -772 0
-1536 -752 -800 0
-1536 -752 -801 0
-1536 -752 -802 0
-1536 -752 -804 0
-1536 -752 -805 0
-1536 -752 -806 0
-1536 -752 -824 0
-1536 -752 -825 0
-1536 -752 -826 0
-1536 -752 -828 0
-1536 -752 -829 0
-1536 -752 -830 0
-1536 -752 -860 0
-1536 -752 -861 0
-1536 -752 -862 0
-1536 -752 -864 0
-1536 -752 -865 0
-1536 -752 -866 0
-1536 -753 922 0
-1536 -753 -770 -773 0
-1536 -753 -801 0
-1536 -753 -802 0
-1536 -753 -805 0
-1536 -753 -806 0
-1536 -753 -825 0
-1536 -753 -826 0
-1536 -753 -829 0
-1536 -753 -830 0
-1536 -753 -861 0
-1536 -753 -862 0
-1536 -753 -865 0
-1536 -753 -866 0
-1536 -754 923 0
-1536 -754 -770 -774 0
-1536 -754 -802 0
-1536 -754 -806 0
-1536 -754 -826 0
-1536 -754 -830 0
-1536 -754 -862 0
-1536 -754 -866 0
-1537 893 0
-1537 915 0
-1537 -758 0
-1537 -759 0
-1537 -760 0
-1537 -761 0
-1537 -765 0
-1537 -762 921 0
-1537 -762 -766 -772 0
-1537 -762 -784 0
-1537 -762 -785 0
-1537 -762 -786 0
-1537 -762 -788 0
-1537 -762 -789 0
-1537 -762 -790 0
-1537 -762 -808 0
-1537 -762 -809 0
-1537 -762 -810 0
-1537 -762 -812 0
-1537 -762 -813 0
-1537 -762 -814 0
-1537 -762 -852 0
-1537 -762 -853 0
-1537 -762 -854 0
-1537 -762 -856 0
-1537 -762 -857 0
-1537 -762 -858 0
-1537 -763 922 0
-1537 -763 -766 -773 0
-1537 -763 -785 0
-1537 -763 -786 0
-1537 -763 -789 0
-1537 -763 -790 0
-1537 -763 -809 0
-1537 -763 -810 0
-1537 -763 -813 0
-1537 -763 -814 0
-1537 -763 -853 0
-1537 -763 -854 0
-1537 -763 -857 0
-1537 -763 -858 0
-1537 -764 923 0
-1537 -764 -766 -774 0
-1537 -764 -786 0
-1537 -764 -790 0
-1537 -764 -810 0
-1537 -764 -814 0
-1537 -764 -854 0
-1537 -764 -858 0
-1538 893 0
-1538 916 0
-1538 -756 0
-1538 -759 0
-1538 -760 0
-1538 -761 0
-1538 -765 0
-1538 -762 921 0
-1538 -762 -767 -772 0
-1538 -762 -788 0
-1538 -762 -789 0
-1538 -762 -790 0
-1538 -762 -792 0
-1538 -762 -793 0
-1538 -762 -794 0
-1538 -762 -812 0
-1538 -762 -813 0
-1538 -762 -814 0
-1538 -762 -816 0
-1538 -762 -817 0
-1538 -762 -818 0
-1538 -762 -852 0
-1538 -762 -853 0
-1538 -762 -854 0
-1538 -762 -856 0
-1538 -762 -857 0
-1538 -762 -858 0
-1538 -762 -860 0
-1538 -762 -861 0
-1538 -762 -862 0
-1538 -763 922 0
-1538 -763 -767 -773 0
-1538 -763 -789 0
-1538 -763 -790 0
-1538 -763 -793 0
-1538 -763 -794 0
-1538 -763 -813 0
-1538 -763 -814 0
-1538 -763 -817 0
-1538 -763 -818 0
-1538 -763 -853 0
-1538 -763 -854 0
-1538 -763 -857 0
-1538 -763 -858 0
-1538 -763 -861 0
-1538 -763 -862 0
-1538 -764 923 0
-1538 -764 -767 -774 0
-1538 -764 -790 0
-1538 -764 -794 0
-1538 -764 -814 0
-1538 -764 -818 0
-1538 -764 -854 0
-1538 -764 -858 0
-1538 -764 -862 0
-1539 893 0
-1539 917 0
-1539 -756 0
-1539 -757 0
-1539 -760 0
-1539 -761 0
-1539 -765 0
-1539 -762 921 0
-1539 -762 -768 -772 0
-1539 -762 -792 0
-1539 -762 -793 0
-1539 -762 -794 0
-1539 -762 -796 0
-1539 -762 -797 0
-1539 -762 -798 0
-1539 -762 -816 0
-1539 -762 -817 0
-1539 -762 -818 0
-1539 -762 -820 0
-1539 -762 -821 0
-1539 -762 -822 0
-1539 -762 -852 0
-1539 -762 -853 0
-1539 -762 -854 0
-1539 -762 -856 0
-1539 -762 -857 0
-1539 -762 -858 0
-1539 -762 -860 0
-1539 -762 -861 0
-1539 -762 -862 0
-1539 -762 -864 0
-1539 -762 -865 0
-1539 -762 -866 0
-1539 -763 922 0
-1539 -763 -768 -773 0
-1539 -763 -793 0
-1539 -763 -794 0
-1539 -763 -797 0
-1539 -763 -798 0
-1539 -763 -817 0
-1539 -763 -818 0
-1539 -763 -821 0
-1539 -763 -822 0
-1539 -763 -853 0
-1539 -763 -854 0
-1539 -763 -857 0
-1539 -763 -858 0
-1539 -763 -861 0
-1539 -763 -862 0
-1539 -763 -865 0
-1539 -763 -866 0
-1539 -764 923 0
-1539 -764 -768 -774 0
-1539 -764 -794 0
-1539 -764 -798 0
-1539 -764 -818 0
-1539 -764 -822 0
-1539 -764 -854 0
-1539 -764 -858 0
-1539 -764 -862 0
-1539 -764 -866 0
-1540 893 0
-1540 918 0
-1540 -756 0
-1540 -757 0
-1540 -758 0
-1540 -761 0
-1540 -765 0
-1540 -762 921 0
-1540 -762 -769 -772 0
-1540 -762 -796 0
-1540 -762 -797 0
-1540 -762 -798 0
-1540 -762 -800 0
-1540 -762 -801 0
-1540 -762 -802 0
-1540 -762 -820 0
-1540 -762 -821 0
-1540 -762 -822 0
-1540 -762 -824 0
-1540 -762 -825 0
-1540 -762 -826 0
-1540 -762 -856 0
-1540 -762 -857 0
-1540 -762 -858 0
-1540 -762 -860 0
-1540 -762 -861 0
-1540 -762 -862 0
-1540 -762 -864 0
-1540 -762 -865 0
-1540 -762 -866 0
-1540 -763 922 0
-1540 -763 -769 -773 0
-1540 -763 -797 0
-1540 -763 -798 0
-1540 -763 -801 0
-1540 -763 -802 0
-1540 -763 -821 0
-1540 -763 -822 0
-1540 -763 -825 0
-1540 -763 -826 0
-1540 -763 -857 0
-1540 -763 -858 0
-1540 -763 -861 0
-1540 -763 -862 0
-1540 -763 -865 0
-1540 -763 -866 0
-1540 -764 923 0
-1540 -764 -769 -774 0
-1540 -764 -798 0
-1540 -764 -802 0
-1540 -764 -822 0
-1540 -764 -826 0
-1540 -764 -858 0
-1540 -764 -862 0
-1540 -764 -866 0
-1541 893 0
-1541 919 0
-1541 -756 0
-1541 -757 0
-1541 -758 0
-1541 -759 0
-1541 -765 0
-1541 -762 921 0
-1541 -762 -770 -772 0
-1541 -762 -800 0
-1541 -762 -801 0
-1541 -762 -802 0
-1541 -762 -804 0
-1541 -762 -805 0
-1541 -762 -806 0
-1541 -762 -824 0
-1541 -762 -825 0
-1541 -762 -826 0
-1541 -762 -828 0
-1541 -762 -829 0
-1541 -762 -830 0
-1541 -762 -860 0
-1541 -762 -861 0
-1541 -762 -862 0
-1541 -762 -864 0
-1541 -762 -865 0
-1541 -762 -866 0
-1541 -763 922 0
-1541 -763 -770 -773 0
-1541 -763 -801 0
-1541 -763 -802 0
-1541 -763 -805 0
-1541 -763 -806 0
-1541 -763 -825 0
-1541 -763 -826 0
-1541 -763 -829 0
-1541 -763 -830 0
-1541 -763 -861 0
-1541 -763 -862 0
-1541 -763 -865 0
-1541 -763 -866 0
-1541 -764 923 0
-1541 -764 -770 -774 0
-1541 -764 -802 0
-1541 -764 -806 0
-1541 -764 -826 0
-1541 -764 -830 0
-1541 -764 -862 0
-1541 -764 -866 0
-1542 893 0
-1542 915 0
-1542 -777 0
-1542 -778 0
-1542 -782 0
-1542 -779 921 0
-1542 -779 -766 -772 0
-1542 -779 -784 0
-1542 -779 -785 0
-1542 -779 -786 0
-1542 -779 -788 0
-1542 -779 -789 0
-1542 -779 -790 0
-1542 -779 -808 0
-1542 -779 -809 0
-1542 -779 -810 0
-1542 -779 -812 0
-1542 -779 -813 0
-1542 -779 -814 0
-1542 -779 -852 0
-1542 -779 -853 0
-1542 -779 -854 0
-1542 -779 -856 0
-1542 -779 -857 0
-1542 -779 -858 0
-1542 -780 922 0
-1542 -780 -766 -773 0
-1542 -780 -785 0
-1542 -780 -786 0
-1542 -780 -789 0
-1542 -780 -790 0
-1542 -780 -809 0
-1542 -780 -810 0
-1542 -780 -813 0
-1542 -780 -814 0
-1542 -780 -853 0
-1542 -780 -854 0
-1542 -780 -857 0
-1542 -780 -858 0
-1542 -781 923 0
-1542 -781 -766 -774 0
-1542 -781 -786 0
-1542 -781 -790 0
-1542 -781 -810 0
-1542 -781 -814 0
-1542 -781 -854 0
-1542 -781 -858 0
-1543 893 0
-1543 916 0
-1543 -778 0
-1543 -782 0
-1543 -779 921 0
-1543 -779 -767 -772 0
-1543 -779 -788 0
-1543 -779 -789 0
-1543 -779 -790 0
-1543 -779 -792 0
-1543 -779 -793 0
-1543 -779 -794 0
-1543 -779 -812 0
-1543 -779 -813 0
-1543 -779 -814 0
-1543 -779 -816 0
-1543 -779 -817 0
-1543 -779 -818 0
-1543 -779 -852 0
-1543 -779 -853 0
-1543 -779 -854 0
-1543 -779 -856 0
-1543 -779 -857 0
-1543 -779 -858 0
-1543 -779 -860 0
-1543 -779 -861 0
-1543 -779 -862 0
-1543 -780 922 0
-1543 -780 -767 -773 0
-1543 -780 -789 0
-1543 -780 -790 0
-1543 -780 -793 0
-1543 -780 -794 0
-1543 -780 -813 0
-1543 -780 -814 0
-1543 -780 -817 0
-1543 -780 -818 0
-1543 -780 -853 0
-1543 -780 -854 0
-1543 -780 -857 0
-1543 -780 -858 0
-1543 -780 -861 0
-1543 -780 -862 0
-1543 -781 923 0
-1543 -781 -767 -774 0
-1543 -781 -790 0
-1543 -781 -794 0
-1543 -781 -814 0
-1543 -781 -818 0
-1543 -781 -854 0
-1543 -781 -858 0
-1543 -781 -862 0
-1544 893 0
-1544 917 0
-1544 -782 0
-1544 -779 921 0
-1544 -779 -768 -772 0
-1544 -779 -792 0
-1544 -779 -793 0
-1544 -779 -794 0
-1544 -779 -796 0
-1544 -779 -797 0
-1544 -779 -798 0
-1544 -779 -816 0
-1544 -779 -817 0
-1544 -779 -818 0
-1544 -779 -820 0
-1544 -779 -821 0
-1544 -779 -822 0
-1544 -779 -852 0
-1544 -779 -853 0
-1544 -779 -854 0
-1544 -779 -856 0
-1544 -779 -857 0
-1544 -779 -858 0
-1544 -779 -860 0
-1544 -779 -861 0
-1544 -779 -862 0
-1544 -779 -864 0
-1544 -779 -865 0
-1544 -779 -866 0
-1544 -780 922 0
-1544 -780 -768 -773 0
-1544 -780 -793 0
-1544 -780 -794 0
-1544 -780 -797 0
-1544 -780 -798 0
-1544 -780 -817 0
-1544 -780 -818 0
-1544 -780 -821 0
-1544 -780 -822 0
-1544 -780 -853 0
-1544 -780 -854 0
-1544 -780 -857 0
-1544 -780 -858 0
-1544 -780 -861 0
-1544 -780 -862 0
-1544 -780 -865 0
-1544 -780 -866 0
-1544 -781 923 0
-1544 -781 -768 -774 0
-1544 -781 -794 0
-1544 -781 -798 0
-1544 -781 -818 0
-1544 -781 -822 0
-1544 -781 -854 0
-1544 -781 -858 0
-1544 -781 -862 0
-1544 -781 -866 0
-1545 893 0
-1545 918 0
-1545 -775 0
-1545 -782 0
-1545 -779 921 0
-1545 -779 -769 -772 0
-1545 -779 -796 0
-1545 -779 -797 0
-1545 -779 -798 0
-1545 -779 -800 0
-1545 -779 -801 0
-1545 -779 -802 0
-1545 -779 -820 0
-1545 -779 -821 0
-1545 -779 -822 0
-1545 -779 -824 0
-1545 -779 -825 0
-1545 -779 -826 0
-1545 -779 -856 0
-1545 -779 -857 0
-1545 -779 -858 0
-1545 -779 -860 0
-1545 -779 -861 0
-1545 -779 -862 0
-1545 -779 -864 0
-1545 -779 -865 0
-1545 -779 -866 0
-1545 -780 922 0
-1545 -780 -769 -773 0
-1545 -780 -797 0
-1545 -780 -798 0
-1545 -780 -801 0
-1545 -780 -802 0
-1545 -780 -821 0
-1545 -780 -822 0
-1545 -780 -825 0
-1545 -780 -826 0
-1545 -780 -857 0
-1545 -780 -858 0
-1545 -780 -861 0
-1545 -780 -862 0
-1545 -780 -865 0
-1545 -780 -866 0
-1545 -781 923 0
-1545 -781 -769 -774 0
-1545 -781 -798 0
-1545 -781 -802 0
-1545 -781 -822 0
-1545 -781 -826 0
-1545 -781 -858 0
-1545 -781 -862 0
-1545 -781 -866 0
-1546 893 0
-1546 919 0
-1546 -775 0
-1546 -776 0
-1546 -782 0
-1546 -779 921 0
-1546 -779 -770 -772 0
-1546 -779 -800 0
-1546 -779 -801 0
-1546 -779 -802 0
-1546 -779 -804 0
-1546 -779 -805 0
-1546 -779 -806 0
-1546 -779 -824 0
-1546 -779 -825 0
-1546 -779 -826 0
-1546 -779 -828 0
-1546 -779 -829 0
-1546 -779 -830 0
-1546 -779 -860 0
-1546 -779 -861 0
-1546 -779 -862 0
-1546 -779 -864 0
-1546 -779 -865 0
-1546 -779 -866 0
-1546 -780 922 0
-1546 -780 -770 -773 0
-1546 -780 -801 0
-1546 -780 -802 0
-1546 -780 -805 0
-1546 -780 -806 0
-1546 -780 -825 0
-1546 -780 -826 0
-1546 -780 -829 0
-1546 -780 -830 0
-1546 -780 -861 0
-1546 -780 -862 0
-1546 -780 -865 0
-1546 -780 -866 0
-1546 -781 923 0
-1546 -781 -770 -774 0
-1546 -781 -802 0
-1546 -781 -806 0
-1546 -781 -826 0
-1546 -781 -830 0
-1546 -781 -862 0
-1546 -781 -866 0
-1547 893 0
-1547 915 0
-1547 920 0
-1547 -766 -771 0
-1547 -783 0
-1547 -784 0
-1547 -785 0
-1547 -786 0
-1547 -787 0
-1547 -788 0
-1547 -789 0
-1547 -790 0
-1547 -807 0
-1547 -808 0
-1547 -809 0
-1547 -810 0
-1547 -811 0
-1547 -812 0
-1547 -813 0
-1547 -814 0
-1547 -851 0
-1547 -852 0
-1547 -853 0
-1547 -854 0
-1547 -855 0
-1547 -856 0
-1547 -857 0
-1547 -858 0
-1548 893 0
-1548 916 0
-1548 920 0
-1548 -767 -771 0
-1548 -787 0
-1548 -788 0
-1548 -789 0
-1548 -790 0
-1548 -791 0
-1548 -792 0
-1548 -793 0
-1548 -794 0
-1548 -811 0
-1548 -812 0
-1548 -813 0
-1548 -814 0
-1548 -815 0
-1548 -816 0
-1548 -817 0
-1548 -818 0
-1548 -851 0
-1548 -852 0
-1548 -853 0
-1548 -854 0
-1548 -855 0
-1548 -856 0
-1548 -857 0
-1548 -858 0
-1548 -859 0
-1548 -860 0
-1548 -861 0
-1548 -862 0
-1549 893 0
-1549 917 0
-1549 920 0
-1549 -768 -771 0
-1549 -791 0
-1549 -792 0
-1549 -793 0
-1549 -794 0
-1549 -795 0
-1549 -796 0
-1549 -797 0
-1549 -798 0
-1549 -815 0
-1549 -816 0
-1549 -817 0
-1549 -818 0
-1549 -819 0
-1549 -820 0
-1549 -821 0
-1549 -822 0
-1549 -851 0
-1549 -852 0
-1549 -853 0
-1549 -854 0
-1549 -855 0
-1549 -856 0
-1549 -857 0
-1549 -858 0
-1549 -859 0
-1549 -860 0
-1549 -861 0
-1549 -862 0
-1549 -863 0
-1549 -864 0
-1549 -865 0
-1549 -866 0
-1550 893 0
-1550 918 0
-1550 920 0
-1550 -769 -771 0
-1550 -795 0
-1550 -796 0
-1550 -797 0
-1550 -798 0
-1550 -799 0
-1550 -800 0
-1550 -801 0
-1550 -802 0
-1550 -819 0
-1550 -820 0
-1550 -821 0
-1550 -822 0
-1550 -823 0
-1550 -824 0
-1550 -825 0
-1550 -826 0
-1550 -855 0
-1550 -856 0
-1550 -857 0
-1550 -858 0
-1550 -859 0
-1550 -860 0
-1550 -861 0
-1550 -862 0
-1550 -863 0
-1550 -864 0
-1550 -865 0
-1550 -866 0
-1551 893 0
-1551 919 0
-1551 920 0
-1551 -770 -771 0
-1551 -799 0
-1551 -800 0
-1551 -801 0
-1551 -802 0
-1551 -803 0
-1551 -804 0
-1551 -805 0
-1551 -806 0
-1551 -823 0
-1551 -824 0
-1551 -825 0
-1551 -826 0
-1551 -827 0
-1551 -828 0
-1551 -829 0
-1551 -830 0
-1551 -859 0
-1551 -860 0
-1551 -861 0
-1551 -862 0
-1551 -863 0
-1551 -864 0
-1551 -865 0
-1551 -866 0
-1552 894 0
-1552 924 0
-1552 -749 0
-1552 -750 0
-1552 -751 0
-1552 -755 0
-1552 -752 929 0
-1552 -752 -775 -780 0
-1552 -752 -784 0
-1552 -752 -785 0
-1552 -752 -786 0
-1552 -752 -788 0
-1552 -752 -789 0
-1552 -752 -790 0
-1552 -752 -792 0
-1552 -752 -793 0
-1552 -752 -794 0
-1552 -752 -808 0
-1552 -752 -809 0
-1552 -752 -810 0
-1552 -752 -812 0
-1552 -752 -813 0
-1552 -752 -814 0
-1552 -752 -816 0
-1552 -752 -817 0
-1552 -752 -818 0
-1552 -752 -832 0
-1552 -752 -833 0
-1552 -752 -834 0
-1552 -752 -836 0
-1552 -752 -837 0
-1552 -752 -838 0
-1552 -752 -840 0
-1552 -752 -841 0
-1552 -752 -842 0
-1552 -753 930 0
-1552 -753 -775 -781 0
-1552 -753 -785 0
-1552 -753 -786 0
-1552 -753 -789 0
-1552 -753 -790 0
-1552 -753 -793 0
-1552 -753 -794 0
-1552 -753 -809 0
-1552 -753 -810 0
-1552 -753 -813 0
-1552 -753 -814 0
-1552 -753 -817 0
-1552 -753 -818 0
-1552 -753 -833 0
-1552 -753 -834 0
-1552 -753 -837 0
-1552 -753 -838 0
-1552 -753 -841 0
-1552 -753 -842 0
-1552 -754 931 0
-1552 -754 -775 -782 0
-1552 -754 -786 0
-1552 -754 -790 0
-1552 -754 -794 0
-1552 -754 -810 0
-1552 -754 -814 0
-1552 -754 -818 0
-1552 -754 -834 0
-1552 -754 -838 0
-1552 -754 -842 0
-1553 894 0
-1553 925 0
-1553 -746 0
-1553 -750 0
-1553 -751 0
-1553 -755 0
-1553 -752 929 0
-1553 -752 -776 -780 0
-1553 -752 -788 0
-1553 -752 -789 0
-1553 -752 -790 0
-1553 -752 -792 0
-1553 -752 -793 0
-1553 -752 -794 0
-1553 -752 -796 0
-1553 -752 -797 0
-1553 -752 -798 0
-1553 -752 -812 0
-1553 -752 -813 0
-1553 -752 -814 0
-1553 -752 -816 0
-1553 -752 -817 0
-1553 -752 -818 0
-1553 -752 -820 0
-1553 -752 -821 0
-1553 -752 -822 0
-1553 -752 -832 0
-1553 -752 -833 0
-1553 -752 -834 0
-1553 -752 -836 0
-1553 -752 -837 0
-1553 -752 -838 0
-1553 -752 -840 0
-1553 -752 -841 0
-1553 -752 -842 0
-1553 -752 -844 0
-1553 -752 -845 0
-1553 -752 -846 0
-1553 -753 930 0
-1553 -753 -776 -781 0
-1553 -753 -789 0
-1553 -753 -790 0
-1553 -753 -793 0
-1553 -753 -794 0
-1553 -753 -797 0
-1553 -753 -798 0
-1553 -753 -813 0
-1553 -753 -814 0
-1553 -753 -817 0
-1553 -753 -818 0
-1553 -753 -821 0
-1553 -753 -822 0
-1553 -753 -833 0
-1553 -753 -834 0
-1553 -753 -837 0
-1553 -753 -838 0
-1553 -753 -841 0
-1553 -753 -842 0
-1553 -753 -845 0
-1553 -753 -846 0
-1553 -754 931 0
-1553 -754 -776 -782 0
-1553 -754 -790 0
-1553 -754 -794 0
-1553 -754 -798 0
-1553 -754 -814 0
-1553 -754 -818 0
-1553 -754 -822 0
-1553 -754 -834 0
-1553 -754 -838 0
-1553 -754 -842 0
-1553 -754 -846 0
-1554 894 0
-1554 926 0
-1554 -746 0
-1554 -747 0
-1554 -751 0
-1554 -755 0
-1554 -752 929 0
-1554 -752 -777 -780 0
-1554 -752 -792 0
-1554 -752 -793 0
-1554 -752 -794 0
-1554 -752 -796 0
-1554 -752 -797 0
-1554 -752 -798 0
-1554 -752 -800 0
-1554 -752 -801 0
-1554 -752 -802 0
-1554 -752 -816 0
-1554 -752 -817 0
-1554 -752 -818 0
-1554 -752 -820 0
-1554 -752 -821 0
-1554 -752 -822 0
-1554 -752 -824 0
-1554 -752 -825 0
-1554 -752 -826 0
-1554 -752 -836 0
-1554 -752 -837 0
-1554 -752 -838 0
-1554 -752 -840 0
-1554 -752 -841 0
-1554 -752 -842 0
-1554 -752 -844 0
-1554 -752 -845 0
-1554 -752 -846 0
-1554 -752 -848 0
-1554 -752 -849 0
-1554 -752 -850 0
-1554 -753 930 0
-1554 -753 -777 -781 0
-1554 -753 -793 0
-1554 -753 -794 0
-1554 -753 -797 0
-1554 -753 -798 0
-1554 -753 -801 0
-1554 -753 -802 0
-1554 -753 -817 0
-1554 -753 -818 0
-1554 -753 -821 0
-1554 -753 -822 0
-1554 -753 -825 0
-1554 -753 -826 0
-1554 -753 -837 0
-1554 -753 -838 0
-1554 -753 -841 0
-1554 -753 -842 0
-1554 -753 -845 0
-1554 -753 -846 0
-1554 -753 -849 0
-1554 -753 -850 0
-1554 -754 931 0
-1554 -754 -777 -782 0
-1554 -754 -794 0
-1554 -754 -798 0
-1554 -754 -802 0
-1554 -754 -818 0
-1554 -754 -822 0
-1554 -754 -826 0
-1554 -754 -838 0
-1554 -754 -842 0
-1554 -754 -846 0
-1554 -754 -850 0
-1555 894 0
-1555 927 0
-1555 -746 0
-1555 -747 0
-1555 -748 0
-1555 -755 0
-1555 -752 929 0
-1555 -752 -778 -780 0
-1555 -752 -796 0
-1555 -752 -797 0
-1555 -752 -798 0
-1555 -752 -800 0
-1555 -752 -801 0
-1555 -752 -802 0
-1555 -752 -804 0
-1555 -752 -805 0
-1555 -752 -806 0
-1555 -752 -820 0
-1555 -752 -821 0
-1555 -752 -822 0
-1555 -752 -824 0
-1555 -752 -825 0
-1555 -752 -826 0
-1555 -752 -828 0
-1555 -752 -829 0
-1555 -752 -830 0
-1555 -752 -840 0
-1555 -752 -841 0
-1555 -752 -842 0
-1555 -752 -844 0
-1555 -752 -845 0
-1555 -752 -846 0
-1555 -752 -848 0
-1555 -752 -849 0
-1555 -752 -850 0
-1555 -753 930 0
-1555 -753 -778 -781 0
-1555 -753 -797 0
-1555 -753 -798 0
-1555 -753 -801 0
-1555 -753 -802 0
-1555 -753 -805 0
-1555 -753 -806 0
-1555 -753 -821 0
-1555 -753 -822 0
-1555 -753 -825 0
-1555 -753 -826 0
-1555 -753 -829 0
-1555 -753 -830 0
-1555 -753 -841 0
-1555 -753 -842 0
-1555 -753 -845 0
-1555 -753 -846 0
-1555 -753 -849 0
-1555 -753 -850 0
-1555 -754 931 0
-1555 -754 -778 -782 0
-1555 -754 -798 0
-1555 -754 -802 0
-1555 -754 -806 0
-1555 -754 -822 0
-1555 -754 -826 0
-1555 -754 -830 0
-1555 -754 -842 0
-1555 -754 -846 0
-1555 -754 -850 0
-1556 894 0
-1556 924 0
-1556 -759 0
-1556 -760 0
-1556 -761 0
-1556 -765 0
-1556 -762 929 0
-1556 -762 -775 -780 0
-1556 -762 -784 0
-1556 -762 -785 0
-1556 -762 -786 0
-1556 -762 -788 0
-1556 -762 -789 0
-1556 -762 -790 0
-1556 -762 -792 0
-1556 -762 -793 0
-1556 -762 -794 0
-1556 -762 -808 0
-1556 -762 -809 0
-1556 -762 -810 0
-1556 -762 -812 0
-1556 -762 -813 0
-1556 -762 -814 0
-1556 -762 -816 0
-1556 -762 -817 0
-1556 -762 -818 0
-1556 -762 -832 0
-1556 -762 -833 0
-1556 -762 -834 0
-1556 -762 -836 0
-1556 -762 -837 0
-1556 -762 -838 0
-1556 -762 -840 0
-1556 -762 -841 0
-1556 -762 -842 0
-1556 -763 930 0
-1556 -763 -775 -781 0
-1556 -763 -785 0
-1556 -763 -786 0
-1556 -763 -789 0
-1556 -763 -790 0
-1556 -763 -793 0
-1556 -763 -794 0
-1556 -763 -809 0
-1556 -763 -810 0
-1556 -763 -813 0
-1556 -763 -814 0
-1556 -763 -817 0
-1556 -763 -818 0
-1556 -763 -833 0
-1556 -763 -834 0
-1556 -763 -837 0
-1556 -763 -838 0
-1556 -763 -841 0
-1556 -763 -842 0
-1556 -764 931 0
-1556 -764 -775 -782 0
-1556 -764 -786 0
-1556 -764 -790 0
-1556 -764 -794 0
-1556 -764 -810 0
-1556 -764 -814 0
-1556 -764 -818 0
-1556 -764 -834 0
-1556 -764 -838 0
-1556 -764 -842 0
-1557 894 0
-1557 925 0
-1557 -756 0
-1557 -760 0
-1557 -761 0
-1557 -765 0
-1557 -762 929 0
-1557 -762 -776 -780 0
-1557 -762 -788 0
-1557 -762 -789 0
-1557 -762 -790 0
-1557 -762 -792 0
-1557 -762 -793 0
-1557 -762 -794 0
-1557 -762 -796 0
-1557 -762 -797 0
-1557 -762 -798 0
-1557 -762 -812 0
-1557 -762 -813 0
-1557 -762 -814 0
-1557 -762 -816 0
-1557 -762 -817 0
-1557 -762 -818 0
-1557 -762 -820 0
-1557 -762 -821 0
-1557 -762 -822 0
-1557 -762 -832 0
-1557 -762 -833 0
-1557 -762 -834 0
-1557 -762 -836 0
-1557 -762 -837 0
-1557 -762 -838 0
-1557 -762 -840 0
-1557 -762 -841 0
-1557 -762 -842 0
-1557 -762 -844 0
-1557 -762 -845 0
-1557 -762 -846 0
-1557 -763 930 0
-1557 -763 -776 -781 0
-1557 -763 -789 0
-1557 -763 -790 0
-1557 -763 -793 0
-1557 -763 -794 0
-1557 -763 -797 0
-1557 -763 -798 0
-1557 -763 -813 0
-1557 -763 -814 0
-1557 -763 -817 0
-1557 -763 -818 0
-1557 -763 -821 0
-1557 -763 -822 0
-1557 -763 -833 0
-1557 -763 -834 0
-1557 -763 -837 0
-1557 -763 -838 0
-1557 -763 -841 0
-1557 -763 -842 0
-1557 -763 -845 0
-1557 -763 -846 0
-1557 -764 931 0
-1557 -764 -776 -782 0
-1557 -764 -790 0
-1557 -764 -794 0
-1557 -764 -798 0
-1557 -764 -814 0
-1557 -764 -818 0
-1557 -764 -822 0
-1557 -764 -834 0
-1557 -764 -838 0
-1557 -764 -842 0
-1557 -764 -846 0
-1558 894 0
-1558 926 0
-1558 -756 0
-1558 -757 0
-1558 -761 0
-1558 -765 0
-1558 -762 929 0
-1558 -762 -777 -780 0
-1558 -762 -792 0
-1558 -762 -793 0
-1558 -762 -794 0
-1558 -762 -796 0
-1558 -762 -797 0
-1558 -762 -798 0
-1558 -762 -800 0
-1558 -762 -801 0
-1558 -762 -802 0
-1558 -762 -816 0
-1558 -762 -817 0
-1558 -762 -818 0
-1558 -762 -820 0
-1558 -762 -821 0
-1558 -762 -822 0
-1558 -762 -824 0
-1558 -762 -825 0
-1558 -762 -826 0
-1558 -762 -836 0
-1558 -762 -837 0
-1558 -762 -838 0
-1558 -762 -840 0
-1558 -762 -841 0
-1558 -762 -842 0
-1558 -762 -844 0
-1558 -762 -845 0
-1558 -762 -846 0
-1558 -762 -848 0
-1558 -762 -849 0
-1558 -762 -850 0
-1558 -763 930 0
-1558 -763 -777 -781 0
-1558 -763 -793 0
-1558 -763 -794 0
-1558 -763 -797 0
-1558 -763 -798 0
-1558 -763 -801 0
-1558 -763 -802 0
-1558 -763 -817 0
-1558 -763 -818 0
-1558 -763 -821 0
-1558 -763 -822 0
-1558 -763 -825 0
-1558 -763 -826 0
-1558 -763 -837 0
-1558 -763 -838 0
-1558 -763 -841 0
-1558 -763 -842 0
-1558 -763 -845 0
-1558 -763 -846 0
-1558 -763 -849 0
-1558 -763 -850 0
-1558 -764 931 0
-1558 -764 -777 -782 0
-1558 -764 -794 0
-1558 -764 -798 0
-1558 -764 -802 0
-1558 -764 -818 0
-1558 -764 -822 0
-1558 -764 -826 0
-1558 -764 -838 0
-1558 -764 -842 0
-1558 -764 -846 0
-1558 -764 -850 0
-1559 894 0
-1559 927 0
-1559 -756 0
-1559 -757 0
-1559 -758 0
-1559 -765 0
-1559 -762 929 0
-1559 -762 -778 -780 0
-1559 -762 -796 0
-1559 -762 -797 0
-1559 -762 -798 0
-1559 -762 -800 0
-1559 -762 -801 0
-1559 -762 -802 0
-1559 -762 -804 0
-1559 -762 -805 0
-1559 -762 -806 0
-1559 -762 -820 0
-1559 -762 -821 0
-1559 -762 -822 0
-1559 -762 -824 0
-1559 -762 -825 0
-1559 -762 -826 0
-1559 -762 -828 0
-1559 -762 -829 0
-1559 -762 -830 0
-1559 -762 -840 0
-1559 -762 -841 0
-1559 -762 -842 0
-1559 -762 -844 0
-1559 -762 -845 0
-1559 -762 -846 0
-1559 -762 -848 0
-1559 -762 -849 0
-1559 -762 -850 0
-1559 -763 930 0
-1559 -763 -778 -781 0
-1559 -763 -797 0
-1559 -763 -798 0
-1559 -763 -801 0
-1559 -763 -802 0
-1559 -763 -805 0
-1559 -763 -806 0
-1559 -763 -821 0
-1559 -763 -822 0
-1559 -763 -825 0
-1559 -763 -826 0
-1559 -763 -829 0
-1559 -763 -830 0
-1559 -763 -841 0
-1559 -763 -842 0
-1559 -763 -845 0
-1559 -763 -846 0
-1559 -763 -849 0
-1559 -763 -850 0
-1559 -764 931 0
-1559 -764 -778 -782 0
-1559 -764 -798 0
-1559 -764 -802 0
-1559 -764 -806 0
-1559 -764 -822 0
-1559 -764 -826 0
-1559 -764 -830 0
-1559 -764 -842 0
-1559 -764 -846 0
-1559 -764 -850 0
-1560 894 0
-1560 924 0
-1560 -769 0
-1560 -770 0
-1560 -774 0
-1560 -771 929 0
-1560 -771 -775 -780 0
-1560 -771 -784 0
-1560 -771 -785 0
-1560 -771 -786 0
-1560 -771 -788 0
-1560 -771 -789 0
-1560 -771 -790 0
-1560 -771 -792 0
-1560 -771 -793 0
-1560 -771 -794 0
-1560 -771 -808 0
-1560 -771 -809 0
-1560 -771 -810 0
-1560 -771 -812 0
-1560 -771 -813 0
-1560 -771 -814 0
-1560 -771 -816 0
-1560 -771 -817 0
-1560 -771 -818 0
-1560 -771 -832 0
-1560 -771 -833 0
-1560 -771 -834 0
-1560 -771 -836 0
-1560 -771 -837 0
-1560 -771 -838 0
-1560 -771 -840 0
-1560 -771 -841 0
-1560 -771 -842 0
-1560 -772 930 0
-1560 -772 -775 -781 0
-1560 -772 -785 0
-1560 -772 -786 0
-1560 -772 -789 0
-1560 -772 -790 0
-1560 -772 -793 0
-1560 -772 -794 0
-1560 -772 -809 0
-1560 -772 -810 0
-1560 -772 -813 0
-1560 -772 -814 0
-1560 -772 -817 0
-1560 -772 -818 0
-1560 -772 -833 0
-1560 -772 -834 0
-1560 -772 -837 0
-1560 -772 -838 0
-1560 -772 -841 0
-1560 -772 -842 0
-1560 -773 931 0
-1560 -773 -775 -782 0
-1560 -773 -786 0
-1560 -773 -790 0
-1560 -773 -794 0
-1560 -773 -810 0
-1560 -773 -814 0
-1560 -773 -818 0
-1560 -773 -834 0
-1560 -773 -838 0
-1560 -773 -842 0
-1561 894 0
-1561 925 0
-1561 -770 0
-1561 -774 0
-1561 -771 929 0
-1561 -771 -776 -780 0
-1561 -771 -788 0
-1561 -771 -789 0
-1561 -771 -790 0
-1561 -771 -792 0
-1561 -771 -793 0
-1561 -771 -794 0
-1561 -771 -796 0
-1561 -771 -797 0
-1561 -771 -798 0
-1561 -771 -812 0
-1561 -771 -813 0
-1561 -771 -814 0
-1561 -771 -816 0
-1561 -771 -817 0
-1561 -771 -818 0
-1561 -771 -820 0
-1561 -771 -821 0
-1561 -771 -822 0
-1561 -771 -832 0
-1561 -771 -833 0
-1561 -771 -834 0
-1561 -771 -836 0
-1561 -771 -837 0
-1561 -771 -838 0
-1561 -771 -840 0
-1561 -771 -841 0
-1561 -771 -842 0
-1561 -771 -844 0
-1561 -771 -845 0
-1561 -771 -846 0
-1561 -772 930 0
-1561 -772 -776 -781 0
-1561 -772 -789 0
-1561 -772 -790 0
-1561 -772 -793 0
-1561 -772 -794 0
-1561 -772 -797 0
-1561 -772 -798 0
-1561 -772 -813 0
-1561 -772 -814 0
-1561 -772 -817 0
-1561 -772 -818 0
-1561 -772 -821 0
-1561 -772 -822 0
-1561 -772 -833 0
-1561 -772 -834 0
-1561 -772 -837 0
-1561 -772 -838 0
-1561 -772 -841 0
-1561 -772 -842 0
-1561 -772 -845 0
-1561 -772 -846 0
-1561 -773 931 0
-1561 -773 -776 -782 0
-1561 -773 -790 0
-1561 -773 -794 0
-1561 -773 -798 0
-1561 -773 -814 0
-1561 -773 -818 0
-1561 -773 -822 0
-1561 -773 -834 0
-1561 -773 -838 0
-1561 -773 -842 0
-1561 -773 -846 0
-1562 894 0
-1562 926 0
-1562 -766 0
-1562 -774 0
-1562 -771 929 0
-1562 -771 -777 -780 0
-1562 -771 -792 0
-1562 -771 -793 0
-1562 -771 -794 0
-1562 -771 -796 0
-1562 -771 -797 0
-1562 -771 -798 0
-1562 -771 -800 0
-1562 -771 -801 0
-1562 -771 -802 0
-1562 -771 -816 0
-1562 -771 -817 0
-1562 -771 -818 0
-1562 -771 -820 0
-1562 -771 -821 0
-1562 -771 -822 0
-1562 -771 -824 0
-1562 -771 -825 0
-1562 -771 -826 0
-1562 -771 -836 0
-1562 -771 -837 0
-1562 -771 -838 0
-1562 -771 -840 0
-1562 -771 -841 0
-1562 -771 -842 0
-1562 -771 -844 0
-1562 -771 -845 0
-1562 -771 -846 0
-1562 -771 -848 0
-1562 -771 -849 0
-1562 -771 -850 0
-1562 -772 930 0
-1562 -772 -777 -781 0
-1562 -772 -793 0
-1562 -772 -794 0
-1562 -772 -797 0
-1562 -772 -798 0
-1562 -772 -801 0
-1562 -772 -802 0
-1562 -772 -817 0
-1562 -772 -818 0
-1562 -772 -821 0
-1562 -772 -822 0
-1562 -772 -825 0
-1562 -772 -826 0
-1562 -772 -837 0
-1562 -772 -838 0
-1562 -772 -841 0
-1562 -772 -842 0
-1562 -772 -845 0
-1562 -772 -846 0
-1562 -772 -849 0
-1562 -772 -850 0
-1562 -773 931 0
-1562 -773 -777 -782 0
-1562 -773 -794 0
-1562 -773 -798 0
-1562 -773 -802 0
-1562 -773 -818 0
-1562 -773 -822 0
-1562 -773 -826 0
-1562 -773 -838 0
-1562 -773 -842 0
-1562 -773 -846 0
-1562 -773 -850 0
-1563 894 0
-1563 927 0
-1563 -766 0
-1563 -767 0
-1563 -774 0
-1563 -771 929 0
-1563 -771 -778 -780 0
-1563 -771 -796 0
-1563 -771 -797 0
-1563 -771 -798 0
-1563 -771 -800 0
-1563 -771 -801 0
-1563 -771 -802 0
-1563 -771 -804 0
-1563 -771 -805 0
-1563 -771 -806 0
-1563 -771 -820 0
-1563 -771 -821 0
-1563 -771 -822 0
-1563 -771 -824 0
-1563 -771 -825 0
-1563 -771 -826 0
-1563 -771 -828 0
-1563 -771 -829 0
-1563 -771 -830 0
-1563 -771 -840 0
-1563 -771 -841 0
-1563 -771 -842 0
-1563 -771 -844 0
-1563 -771 -845 0
-1563 -771 -846 0
-1563 -771 -848 0
-1563 -771 -849 0
-1563 -771 -850 0
-1563 -772 930 0
-1563 -772 -778 -781 0
-1563 -772 -797 0
-1563 -772 -798 0
-1563 -772 -801 0
-1563 -772 -802 0
-1563 -772 -805 0
-1563 -772 -806 0
-1563 -772 -821 0
-1563 -772 -822 0
-1563 -772 -825 0
-1563 -772 -826 0
-1563 -772 -829 0
-1563 -772 -830 0
-1563 -772 -841 0
-1563 -772 -842 0
-1563 -772 -845 0
-1563 -772 -846 0
-1563 -772 -849 0
-1563 -772 -850 0
-1563 -773 931 0
-1563 -773 -778 -782 0
-1563 -773 -798 0
-1563 -773 -802 0
-1563 -773 -806 0
-1563 -773 -822 0
-1563 -773 -826 0
-1563 -773 -830 0
-1563 -773 -842 0
-1563 -773 -846 0
-1563 -773 -850 0
-1564 894 0
-1564 924 0
-1564 928 0
-1564 -775 -779 0
-1564 -783 0
-1564 -784 0
-1564 -785 0
-1564 -786 0
-1564 -787 0
-1564 -788 0
-1564 -789 0
-1564 -790 0
-1564 -791 0
-1564 -792 0
-1564 -793 0
-1564 -794 0
-1564 -807 0
-1564 -808 0
-1564 -809 0
-1564 -810 0
-1564 -811 0
-1564 -812 0
-1564 -813 0
-1564 -814 0
-1564 -815 0
-1564 -816 0
-1564 -817 0
-1564 -818 0
-1564 -831 0
-1564 -832 0
-1564 -833 0
-1564 -834 0
-1564 -835 0
-1564 -836 0
-1564 -837 0
-1564 -838 0
-1564 -839 0
-1564 -840 0
-1564 -841 0
-1564 -842 0
-1565 894 0
-1565 925 0
-1565 928 0
-1565 -776 -779 0
-1565 -787 0
-1565 -788 0
-1565 -789 0
-1565 -790 0
-1565 -791 0
-1565 -792 0
-1565 -793 0
-1565 -794 0
-1565 -795 0
-1565 -796 0
-1565 -797 0
-1565 -798 0
-1565 -811 0
-1565 -812 0
-1565 -813 0
-1565 -814 0
-1565 -815 0
-1565 -816 0
-1565 -817 0
-1565 -818 0
-1565 -819 0
-1565 -820 0
-1565 -821 0
-1565 -822 0
-1565 -831 0
-1565 -832 0
-1565 -833 0
-1565 -834 0
-1565 -835 0
-1565 -836 0
-1565 -837 0
-1565 -838 0
-1565 -839 0
-1565 -840 0
-1565 -841 0
-1565 -842 0
-1565 -843 0
-1565 -844 0
-1565 -845 0
-1565 -846 0
-1566 894 0
-1566 926 0
-1566 928 0
-1566 -777 -779 0
-1566 -791 0
-1566 -792 0
-1566 -793 0
-1566 -794 0
-1566 -795 0
-1566 -796 0
-1566 -797 0
-1566 -798 0
-1566 -799 0
-1566 -800 0
-1566 -801 0
-1566 -802 0
-1566 -815 0
-1566 -816 0
-1566 -817 0
-1566 -818 0
-1566 -819 0
-1566 -820 0
-1566 -821 0
-1566 -822 0
-1566 -823 0
-1566 -824 0
-1566 -825 0
-1566 -826 0
-1566 -835 0
-1566 -836 0
-1566 -837 0
-1566 -838 0
-1566 -839 0
-1566 -840 0
-1566 -841 0
-1566 -842 0
-1566 -843 0
-1566 -844 0
-1566 -845 0
-1566 -846 0
-1566 -847 0
-1566 -848 0
-1566 -849 0
-1566 -850 0
-1567 894 0
-1567 927 0
-1567 928 0
-1567 -778 -779 0
-1567 -795 0
-1567 -796 0
-1567 -797 0
-1567 -798 0
-1567 -799 0
-1567 -800 0
-1567 -801 0
-1567 -802 0
-1567 -803 0
-1567 -804 0
-1567 -805 0
-1567 -806 0
-1567 -819 0
-1567 -820 0
-1567 -821 0
-1567 -822 0
-1567 -823 0
-1567 -824 0
-1567 -825 0
-1567 -826 0
-1567 -827 0
-1567 -828 0
-1567 -829 0
-1567 -830 0
-1567 -839 0
-1567 -840 0
-1567 -841 0
-1567 -842 0
-1567 -843 0
-1567 -844 0
-1567 -845 0
-1567 -846 0
-1567 -847 0
-1567 -848 0
-1567 -849 0
-1567 -850 0
